ITEM: TIMESTEP
8300
ITEM: NUMBER OF ATOMS
4360
ITEM: BOX BOUNDS pp pp pp
-2.4273903194963687e+01 2.3464739095021677e+01
-2.4302199274972196e+01 4.6818634874972190e+01
-2.3873421013714740e+01 2.3865219413772515e+01
ITEM: ATOMS id type x y z vx vy vz
1 1 -23.6232 -21.97 11.6282 -1.76442 1.07181 -0.881491
2 1 -8.0232 15.8818 0.979955 -1.8627 -0.018563 -3.66563
3 1 3.02948 -6.0027 23.7475 -3.48277 7.54244 3.31179
4 1 5.37782 -0.929421 -6.90848 0.449453 0.989505 -0.324119
5 1 -17.6113 -22.2367 20.7841 1.45482 -0.534851 -4.41849
6 1 0.634058 17.3407 19.7295 2.9147 2.89417 -0.714601
7 1 7.42315 21.779 6.47524 -2.77675 5.5592 -2.07841
8 1 -23.3805 -11.2451 -15.0416 4.07 -2.35818 2.32438
9 1 -9.09012 6.24878 5.02939 -1.12712 1.94415 3.55874
10 1 -1.56518 -8.49497 14.1083 4.26448 0.492819 2.04574
11 1 10.745 -10.8514 18.2416 -6.09511 -0.0442201 -1.90983
12 1 21.1503 -7.47617 -23.5511 -2.8791 0.78296 1.22469
13 1 -20.8422 -13.0998 12.7309 1.14875 -3.59156 0.0282936
14 1 6.98674 2.39965 -9.56934 0.613951 -4.35614 -5.18374
15 1 -5.58452 -0.0252772 -11.3189 -4.44662 0.555318 1.02253
16 1 -18.9388 1.57154 5.31629 -1.60733 -5.2907 3.99437
17 1 17.5504 -4.86698 17.4604 -2.38816 2.0433 -3.83023
18 1 21.032 24.2685 3.36565 3.01118 0.56028 -1.38467
19 1 -15.8538 25.4303 19.8938 -1.21638 3.74326 0.370088
20 1 19.5673 3.23356 20.0369 4.49697 -1.56496 1.05583
21 1 -19.8396 2.37286 10.8169 -1.93132 -2.95985 -1.56143
22 1 -13.9041 -1.39683 -14.9207 0.961912 0.619713 3.03037
23 1 -7.72376 46.0131 20.9329 0.0101937 -2.29968 0.532643
24 1 9.4482 19.1355 -5.07197 1.13481 3.02913 3.15864
25 1 6.07419 25.952 17.5292 -2.61131 3.31813 4.99113
26 1 1.93535 17.4907 9.7907 7.62178 -1.11974 -4.35795
27 1 -16.5602 11.2273 -2.82033 10.2909 -0.731203 -1.41917
28 1 -19.8751 10.1843 2.62626 1.40467 -1.08534 -0.0442581
29 1 -10.1158 -10.1732 -8.0785 1.0426 0.903696 -0.852741
30 1 22.2149 -3.43668 -22.5365 -0.779093 3.87959 -2.19267
31 1 1.01966 -16.8538 -23.7269 0.958857 -0.636093 -2.7052
32 1 -7.78134 14.6861 -16.7703 -1.26787 -2.26641 5.36089
33 1 2.98883 0.433331 -13.5698 -0.465135 2.34341 0.147786
34 1 -17.2262 -23.3653 14.3673 1.56496 2.42332 -0.502933
35 1 18.3558 5.95274 12.0504 0.177306 -0.434574 0.911762
36 1 -14.035 18.1508 -14.0343 2.77392 -2.41051 2.77858
37 1 -11.0753 -6.10886 -1.07588 -4.34968 -0.0276595 1.90021
38 1 18.6884 9.87259 7.58779 -0.387595 1.82213 -0.159168
39 1 -3.36895 8.79563 -21.5647 3.75305 -1.70151 1.15264
40 1 -2.31223 3.07808 -15.9409 -5.70841 0.20028 -2.86157
41 1 4.85831 -4.42224 -9.64578 -0.523705 1.23953 2.19382
42 1 -18.004 -15.1678 1.31915 3.79122 -1.15371 -1.70537
43 1 -13.8096 -5.99398 5.21003 0.859375 1.46603 0.75415
44 1 -2.59327 -18.0128 -10.6194 -1.50762 1.70687 0.438831
45 1 -11.9153 17.0177 -4.79223 -2.65721 -0.652906 2.51412
46 1 -21.0359 -20.7188 17.8574 2.08417 -2.36519 3.31989
47 1 -8.03866 7.76063 20.1101 -0.159043 -2.99079 -2.60985
48 1 8.65515 3.07024 -7.48321 2.42633 4.35837 -4.16754
49 1 22.324 12.1605 6.12129 -4.88124 3.29694 2.9051
50 1 16.1329 -21.9602 10.7121 -3.53468 -1.48366 -7.89279
51 1 -11.0541 -0.39654 21.7625 -1.18733 -0.0796591 -1.43172
52 1 17.0068 2.63004 -15.3619 6.08935 -2.06984 -1.57837
53 1 -5.03203 22.0239 8.2515 -2.90118 -4.3518 -2.9437
54 1 -20.1374 -9.06327 -10.1027 1.0488 -0.52177 -4.74454
55 1 -4.83379 -5.51438 -16.0645 1.83553 0.317015 -1.60529
56 1 -14.2812 5.8976 3.15607 -1.13874 0.121464 2.2549
57 1 -14.9042 -9.33104 -2.73417 0.307799 -3.31681 -3.63206
58 1 5.79749 -19.2102 -3.28482 -1.64205 3.81045 4.16061
59 1 -23.4246 13.6844 17.7538 6.50152 3.22723 -1.78793
60 1 1.83005 15.0094 -20.6343 -1.51049 3.00323 1.83918
61 1 -15.1363 1.26918 1.88755 -1.05386 0.743016 -2.89759
62 1 -2.78113 -10.7974 15.7789 1.20041 3.61541 3.64592
63 1 0.630891 11.5702 -17.3604 0.705871 -2.34225 1.11073
64 1 -12.1047 1.49264 1.65065 5.14317 -0.527387 -2.55058
65 1 17.617 -0.878411 9.41995 2.40016 3.60392 -2.51481
66 1 -9.42016 -16.316 -11.6856 -1.41182 -4.65771 -0.343571
67 1 -15.0618 23.0898 -10.9527 -3.21445 -4.4494 0.0917718
68 1 -3.17717 14.3792 -19.9753 -3.08385 -0.433731 -4.53166
69 1 -5.87602 13.8724 8.8134 -3.02447 -3.10172 -5.25648
70 1 -17.4985 16.644 -14.5703 -0.569665 0.922954 -1.19664
71 1 -9.99381 6.46925 0.647486 -2.36439 -3.06529 3.00803
72 1 22.5022 15.7382 18.6589 1.39817 7.25404 0.22461
73 1 -10.9464 -17.7536 13.6148 -0.144575 -1.04141 0.942128
74 1 -1.12443 10.6878 -14.5585 -2.36804 1.97645 -0.810171
75 1 -19.4382 1.22074 -11.8733 -3.58064 2.33855 3.89251
76 1 22.401 -6.95403 1.23453 -1.64469 0.820889 2.04488
77 1 14.8217 -22.8843 -2.40644 -1.15114 2.8345 -6.23762
78 1 -17.7764 12.3143 -7.77901 2.25708 -4.06585 -1.56359
79 1 21.5268 -0.873266 -15.6608 1.07792 1.5909 2.14731
80 1 -14.7962 17.0987 -10.1562 -3.7195 -5.17143 4.4429
81 1 1.1774 -15.4862 -16.6653 -2.02258 -5.92037 0.214133
82 1 5.22708 -22.6701 4.62685 2.86265 2.43698 0.124797
83 1 -20.5525 14.0928 0.149098 4.94409 -1.36532 1.27281
84 1 18.4114 22.0095 20.7862 1.28371 -1.69756 -2.42036
85 1 5.76662 12.773 -5.1848 2.15869 -4.46096 2.77959
86 1 12.7987 8.76515 13.1807 -0.0488884 -1.19831 -6.56508
87 1 -4.1572 19.4297 -4.35434 1.68272 -1.07605 0.402255
88 1 -11.0302 23.0831 -17.2568 -1.5465 -1.59713 -3.33045
89 1 -9.54143 -2.44072 -23.3381 -3.45277 0.724315 -0.832638
90 1 8.15924 -4.4693 6.98857 4.22003 -2.08465 2.91805
91 1 16.1612 20.0872 -20.6045 -0.43455 -0.0463891 2.27993
92 1 18.7079 44.8932 -0.71865 -0.737048 1.51912 2.6647
93 1 -17.2314 -22.7614 17.3291 -1.50857 -0.301573 -2.62811
94 1 23.241 2.92269 -11.6637 -2.39017 -1.52198 -1.05016
95 1 -0.865557 -4.3623 -11.5374 1.29233 3.66055 4.22677
96 1 -21.4382 -17.5889 20.4917 -4.05898 0.0464138 0.888242
97 1 -7.01552 -17.5962 22.7549 -3.86794 -0.515049 -0.189473
98 1 -1.20828 17.4435 10.045 1.32862 2.31227 -3.74398
99 1 17.1008 -22.4347 -6.05149 4.41149 -0.319484 6.69032
100 1 -23.9248 -17.1613 -22.8269 4.57319 2.09711 -5.91716
101 1 3.01802 -23.8482 -13.6209 0.9764 -1.64827 -5.2344
102 1 3.28804 3.40761 5.34582 -7.23116 1.6535 -2.39684
103 1 17.625 23.2373 18.2751 -0.0607462 0.052712 2.48448
104 1 -15.9058 45.5264 -10.2732 3.60276 0.649712 4.08766
105 1 5.53806 17.9591 -19.2709 -2.17414 0.873791 -3.12813
106 1 13.551 3.67039 8.03246 -4.53418 -0.1514 -1.13403
107 1 21.0034 -4.57875 12.4071 -2.2882 -1.18624 -1.16379
108 1 -12.405 4.17158 23.8221 1.13493 0.758123 3.39097
109 1 -15.0745 15.6317 -13.4578 0.883477 -0.340435 2.0166
110 1 11.3345 -11.3136 -8.11943 3.1392 3.60315 -7.97808
111 1 19.2119 -4.06912 -13.2585 2.66729 -1.45746 4.01962
112 1 -19.2296 1.60175 -22.1362 -2.93738 -3.5344 -2.6744
113 1 -5.45324 -5.36083 19.6458 1.01579 0.213784 -4.03573
114 1 22.2168 -19.5611 17.2401 2.41888 -1.21724 4.8478
115 1 8.64107 10.5373 4.90478 -5.35252 1.80747 0.513186
116 1 3.31915 -15.3689 -18.7583 -2.59411 -0.522238 -4.95155
117 1 19.159 17.3579 -17.6478 3.10783 1.61286 2.52588
118 1 7.46572 -16.9553 -8.84043 1.93943 -0.287855 -4.03968
119 1 14.157 9.0713 -8.59562 -2.14436 -0.12277 -0.762856
120 1 1.89474 -5.98981 16.4688 0.623638 -2.35519 0.166377
121 1 -6.1859 -20.3129 22.0646 -0.606088 -2.89163 -2.65418
122 1 -11.0174 5.3343 21.5979 2.03345 0.889181 -0.479382
123 1 8.55429 17.9759 4.57286 3.14923 3.602 1.43475
124 1 23.288 -22.3827 -15.6318 -4.92228 -3.72359 1.51836
125 1 13.7864 9.91155 0.808614 -2.09899 2.44473 0.50675
126 1 -10.6257 3.03589 -7.87568 1.00219 1.4987 -0.704814
127 1 9.99404 -1.64122 14.1897 -1.58271 -1.56274 -1.56691
128 1 -22.0655 -0.945854 -9.80578 -0.214731 -2.84325 3.39073
129 1 14.2975 -11.1935 6.24616 3.40151 6.64033 0.941851
130 1 -13.4202 16.1181 -19.5543 0.244268 -2.31638 -2.40987
131 1 4.41122 -9.76974 -21.3498 3.59796 -2.2235 -5.33217
132 1 -9.07888 -2.10287 -20.2523 -0.421724 3.8766 -6.57108
133 1 -13.7631 1.08867 15.6024 -0.283085 2.45804 -0.532815
134 1 19.1368 -9.20525 20.8435 -2.0002 0.0318106 0.485007
135 1 -16.8885 -6.05525 -17.255 0.754937 5.58641 -0.699312
136 1 -1.06328 5.4879 -4.80746 2.54361 -0.302001 0.153669
137 1 -13.7663 4.25728 -13.5469 0.232309 -0.18638 3.23274
138 1 10.8731 19.7036 8.28521 -4.04632 -5.01405 -1.47528
139 1 -17.935 -21.2594 -14.6273 2.27837 2.43013 4.97638
140 1 5.204 -7.76727 18.9166 -1.04472 -7.34978 0.977659
141 1 12.5718 -18.0679 3.05292 2.52162 -0.871041 -1.8944
142 1 11.5627 3.13761 23.1403 -0.702114 -0.374044 1.07804
143 1 -6.60168 -2.4361 -4.85599 4.91807 -5.26796 -3.19645
144 1 -22.6406 -8.68109 -15.8719 -3.67657 -0.941983 3.52946
145 1 15.9696 6.27403 18.4715 -2.8573 0.6808 -1.16845
146 1 -11.0555 -8.73913 14.5042 0.778485 -5.72008 -1.68845
147 1 11.3105 22.1707 4.69337 2.59164 2.7102 0.0393181
148 1 -18.81 14.7012 11.1936 4.57292 3.87141 -4.46561
149 1 -16.2141 45.6336 -20.8817 2.42571 0.527517 6.10622
150 1 18.878 8.836 20.0022 0.332748 -10.6957 0.855302
151 1 19.4028 2.3521 23.0681 2.46304 0.241615 0.385817
152 1 -7.69266 0.0495016 20.229 -1.88657 -8.55772 -2.29362
153 1 9.77465 -15.0387 -4.9331 -1.48059 -4.01775 -0.947429
154 1 -7.96945 22.4552 -9.01835 0.603176 -2.98707 4.44855
155 1 -22.7262 -22.5499 -20.1002 -4.03015 -0.692286 -3.1725
156 1 15.8542 10.4824 16.3952 -3.48445 1.47297 4.75126
157 1 13.0125 -12.793 -15.1326 -8.11793 -1.14786 -4.06565
158 1 9.09526 6.97679 3.91778 -1.89612 2.56686 -0.102479
159 1 -22.0696 -10.342 11.9738 -4.2727 1.6133 0.781138
160 1 -5.23634 -14.8658 -4.14854 -0.695256 -0.964593 1.77261
161 1 19.0992 3.98928 -16.9159 2.31119 3.86996 3.88107
162 1 -17.9501 -8.85111 19.6945 -2.51177 0.603339 -0.801232
163 1 1.32391 1.08146 19.1483 -0.633973 1.11805 2.12805
164 1 16.3908 8.11894 12.7919 1.72601 -3.80059 -4.35075
165 1 -18.7736 12.8583 16.8544 4.28946 1.73457 1.95505
166 1 7.79851 22.0776 -22.4706 -2.84512 3.99648 2.80262
167 1 -12.6505 0.832827 -2.55257 0.76194 0.92437 -4.95063
168 1 19.4452 25.5316 -3.00296 1.01945 -4.74695 -0.789039
169 1 5.1921 23.9832 -12.7117 -3.60794 -3.22785 -5.87883
170 1 -3.76475 -19.3164 -14.3602 -5.94813 2.15911 -3.38581
171 1 -14.5803 3.61158 14.871 -0.195377 0.304609 -3.79292
172 1 -18.5622 22.5514 -18.4207 -4.73488 0.246698 0.662225
173 1 -22.1147 1.08885 22.2549 -1.41706 -1.13506 2.30422
174 1 -19.6084 6.29609 -22.1514 -0.773966 -0.537025 -3.26722
175 1 10.7215 16.6603 7.94928 3.87861 -0.534875 0.826701
176 1 -5.89095 24.087 -3.13921 -5.07626 0.574986 -0.598521
177 1 -3.51767 -21.7188 11.2581 1.42174 -0.3184 0.364382
178 1 -16.9863 11.4395 5.69226 -0.52642 -0.952647 1.97836
179 1 -4.69629 -6.47358 -10.7306 2.99162 4.43231 2.16316
180 1 22.5003 19.6137 10.7387 1.52417 0.144424 -2.69546
181 1 -4.3353 -6.54088 -18.7052 6.63371 -2.5718 -1.21634
182 1 -22.5116 0.20216 16.3883 -2.504 -1.43645 2.6104
183 1 21.388 12.2616 -3.93994 -3.52491 -2.49517 -2.42703
184 1 7.36957 46.6825 -23.766 1.90555 -2.29137 -1.20571
185 1 21.6488 23.1454 15.6751 1.68424 3.89385 -1.29631
186 1 13.7604 23.7112 -10.206 -5.50404 -5.30291 3.08176
187 1 -11.8157 10.2145 -7.42261 -3.10748 0.631084 1.98753
188 1 8.07985 -21.3538 -6.54489 -5.02078 -3.52545 -2.69332
189 1 -3.55764 -3.66025 3.31867 -3.0654 3.05194 -4.52638
190 1 -15.5224 11.1396 -13.5282 -1.09483 -1.84908 1.05946
191 1 5.20721 -4.58406 -22.7075 -1.32026 1.20114 -4.40838
192 1 9.41397 5.29556 -3.3847 -0.758504 -2.10429 1.14048
193 1 11.4473 -1.59433 4.19248 2.05201 -1.09023 2.09447
194 1 -0.141674 26.5563 -20.3978 2.06506 -4.65267 -2.72602
195 1 4.92361 0.107275 -9.71183 -6.05525 -0.639739 5.45165
196 1 -18.4917 24.0174 7.89878 0.233728 3.62072 -7.25044
197 1 -24.0339 -3.01221 22.9067 0.413252 -5.33159 -1.38481
198 1 -8.21238 -22.8973 -18.3577 -2.52131 2.25366 -0.751325
199 1 22.3489 -3.61614 -15.4553 1.14193 0.270955 1.25084
200 1 14.7038 7.0322 -17.3254 -1.35992 -4.6777 -2.69488
201 1 6.93085 2.85349 -23.7471 -2.84868 -0.636247 1.79578
202 1 10.7402 15.4267 10.6248 4.14081 3.41234 3.6902
203 1 -23.9859 19.433 7.80921 -6.50431 4.07299 0.948361
204 1 -6.26245 -14.527 -8.98779 -0.219419 -1.03172 1.66368
205 1 17.9557 -6.43571 9.40456 4.26566 2.95967 -1.04438
206 1 -4.51264 -12.3928 -14.5268 2.40939 3.33571 -6.72598
207 1 -6.74371 9.34306 22.4256 1.32195 0.0080874 3.17944
208 1 2.79149 -8.49886 15.9159 -1.31985 -1.52068 1.29068
209 1 -5.25812 17.1537 -17.7628 1.5384 3.92449 1.86355
210 1 -18.7608 12.9283 -1.72307 7.24386 -2.39969 2.35344
211 1 16.1774 2.36113 7.14409 2.89945 -7.34919 -5.36961
212 1 -16.431 24.1381 -4.32498 3.03514 2.31781 -0.200189
213 1 -22.11 -21.3797 -1.77726 2.00274 5.12652 -0.795473
214 1 17.1703 -3.92862 -21.864 1.22912 0.717182 -1.85486
215 1 7.11884 23.1614 16.7916 0.269859 -1.2646 -0.363736
216 1 -15.3224 46.482 9.08237 -4.54639 1.56837 -2.27425
217 1 2.11366 22.0513 5.01359 -0.901842 2.59926 -3.76348
218 1 13.6322 1.60876 -2.64521 3.58673 3.46563 1.7418
219 1 -6.64308 24.0227 22.8305 -3.88734 1.23124 -1.53176
220 1 2.30563 22.234 14.7246 0.832577 4.76128 2.31114
221 1 -17.8311 1.91186 -2.07865 0.474133 3.78288 -5.06303
222 1 -10.5505 -6.1442 1.66932 1.01921 1.99301 -0.79107
223 1 -23.0134 -5.54491 0.0460498 -2.56935 -2.79836 -0.411218
224 1 -13.5673 -4.2672 -22.5719 3.29286 -9.07788 -1.00583
225 1 1.99515 -13.6857 -6.17752 2.56091 3.39898 2.08565
226 1 23.2258 19.1317 -12.2612 -0.105854 -1.33202 -0.785547
227 1 15.4292 16.7503 3.03103 -1.50588 -3.16896 1.98216
228 1 -11.172 19.8131 1.24794 3.55634 -1.45887 -6.75409
229 1 10.8743 9.98613 -11.6589 2.33295 0.802767 2.17969
230 1 -9.16667 15.3423 19.4057 2.16467 4.90448 4.76019
231 1 -23.423 -5.10145 -21.5868 -2.67965 3.65 -0.014274
232 1 -2.6044 -14.6853 11.4836 0.878742 2.52977 -0.601413
233 1 -10.2721 16.4979 11.5176 -5.14809 5.45475 2.36077
234 1 -6.76543 18.821 8.6517 -4.33429 -1.20366 -0.105948
235 1 22.7781 -2.21246 -10.1349 -0.333443 -2.45034 -1.5871
236 1 16.8436 -6.58513 12.0676 1.45414 -0.807924 -1.35342
237 1 -17.9606 20.5427 -0.131176 2.69012 -1.34551 3.71861
238 1 16.2033 -2.52586 23.5498 1.3051 -0.279901 3.21368
239 1 -20.5969 19.1745 16.232 0.747034 2.37566 -1.69908
240 1 11.4687 0.555132 15.8793 0.0691652 0.758068 -0.550765
241 1 -24.0342 -13.117 9.82238 4.87498 -2.01539 -1.94413
242 1 -8.35885 -4.38268 -13.0404 5.52413 1.25033 2.75616
243 1 -5.65407 -7.52812 12.3281 7.62771 2.95033 -2.1191
244 1 -20.5078 13.4123 -23.4807 1.2277 0.673587 -5.02459
245 1 -12.3318 25.7187 -12.4655 0.117599 -1.35796 -2.91889
246 1 11.0396 4.94302 20.9195 1.29162 -2.66873 2.5731
247 1 -23.91 -7.19864 13.5037 -1.11548 3.24601 0.155092
248 1 -17.5776 9.75245 -11.9617 -3.03049 0.731981 4.3691
249 1 -0.241825 -18.9633 10.0232 4.19681 -0.577826 -1.45871
250 1 0.148846 -2.38668 7.16219 -6.51756 -0.748843 -3.66669
251 1 -22.2902 -2.39985 -20.8202 1.43272 2.72304 1.36676
252 1 17.2581 17.6695 -11.2429 -5.86853 2.57757 -2.86109
253 1 0.0606232 -3.32037 -22.9429 3.6447 -0.803862 2.8909
254 1 7.02175 -10.0706 -8.56384 4.0414 2.36817 5.84319
255 1 -23.0753 -23.2803 9.07208 -4.06369 1.59103 4.56974
256 1 -11.5917 -4.93106 -12.485 5.38713 4.29187 -0.670314
257 1 -2.49386 3.94568 -18.5738 5.61779 -0.904638 0.235629
258 1 -6.84159 0.420802 -5.42304 -3.642 3.80924 1.59185
259 1 16.0277 -18.9977 -22.1092 -1.37137 -2.52172 -0.485468
260 1 11.888 5.82351 -7.49844 -1.30222 -5.44701 -2.23452
261 1 -1.70509 -23.8176 12.0684 5.42077 2.40539 2.74003
262 1 16.91 22.0453 10.4781 -2.25757 4.00991 -0.0857695
263 1 -20.4658 9.31746 -11.1697 0.586246 1.60689 0.497479
264 1 17.5958 0.690361 15.7616 -2.52567 -0.636884 6.30777
265 1 15.7518 -18.9956 -8.45693 0.302095 -0.728589 -1.66595
266 1 22.2318 5.82838 -15.5427 4.25446 -1.70672 -0.234307
267 1 -10.855 19.6663 -11.1084 1.42635 5.57515 -0.0379221
268 1 -21.0205 22.8351 -11.4434 -1.14201 -4.78064 -8.25493
269 1 -20.0998 -8.25199 -12.7439 0.59021 1.68451 -3.2977
270 1 -21.1637 -17.0229 13.3856 -3.77063 -0.727675 -1.30192
271 1 2.36694 23.1731 -12.567 -7.01448 -1.75737 0.471579
272 1 12.4682 -18.0684 9.94509 0.431962 -0.469925 2.294
273 1 -18.3071 -8.48117 14.2701 2.54005 -2.6289 -4.18793
274 1 10.2738 -15.0486 9.20925 -2.76842 -1.15399 -1.39587
275 1 12.5079 25.7177 -21.7109 3.68597 -3.78996 2.66273
276 1 21.7691 7.42602 -6.06444 -1.11469 -0.135966 1.87109
277 1 12.2893 -13.9622 -17.7274 -1.18503 -7.81689 2.53566
278 1 19.4167 10.2141 17.8074 1.18318 -0.972461 3.91116
279 1 -22.8487 -2.19178 1.03351 1.15634 5.09057 2.27108
280 1 -0.443323 -22.4737 -14.1246 -1.34163 2.39858 -1.76454
281 1 13.6338 23.9643 11.1745 -3.57314 4.5258 -1.54312
282 1 11.0439 12.7291 11.4205 3.22823 6.43469 3.68252
283 1 -2.74705 46.7117 -22.8809 -2.56783 -3.19874 -1.64451
284 1 3.02077 13.3254 0.580749 -3.20989 2.98753 2.94117
285 1 -14.0373 20.0656 12.6666 3.77455 3.86047 0.884948
286 1 -5.43858 16.6699 0.489595 -1.03879 2.9116 1.81287
287 1 3.2026 -7.93899 -7.43637 -2.04669 -0.70026 0.567949
288 1 15.7104 24.8519 5.07247 -0.0792147 -5.57423 -0.552693
289 1 -8.14609 -21.1275 10.9111 -0.948422 1.46599 3.11745
290 1 -7.79496 -9.77551 -16.1392 -6.48621 -3.63878 -1.12907
291 1 -13.6989 -17.3595 12.9217 2.10239 -2.20546 -0.368321
292 1 14.5757 7.04843 1.70997 -2.10424 2.18425 2.63996
293 1 13.9906 2.47297 12.0452 -0.618356 -3.0088 2.42749
294 1 -7.13542 1.13907 0.543634 -1.76199 -4.21861 -4.05674
295 1 0.0473042 9.73362 9.46407 1.6035 1.37763 0.0134037
296 1 1.14697 13.9242 -2.46342 -0.778736 -2.28853 -0.385804
297 1 15.21 -4.26599 -4.33831 -2.58319 3.23293 0.0960129
298 1 18.747 -18.1519 -22.6892 -3.88941 1.81651 1.83141
299 1 7.17012 45.8164 -15.4481 1.89277 2.14285 1.3126
300 1 19.6499 -4.98851 20.851 -0.114179 3.12485 -5.47295
301 1 -6.95335 23.0127 -19.1905 5.86188 3.01309 1.72206
302 1 -1.70869 11.2345 -1.91381 -0.56831 0.69074 3.89346
303 1 -18.0545 -16.6081 -9.76505 1.3831 3.00656 -0.646648
304 1 -18.7822 -16.0078 12.1084 4.99768 -1.29266 2.00528
305 1 4.62013 -17.8311 19.8974 -1.80223 1.86643 0.860482
306 1 13.6808 20.8799 -11.0641 4.15361 -0.642354 0.530506
307 1 11.9072 13.1171 -23.4107 0.111477 1.89481 -4.01397
308 1 -15.6554 -20.4886 2.94839 6.90605 -5.69014 2.56645
309 1 6.51718 -19.8471 18.8932 -1.34312 -2.51221 -0.592319
310 1 1.78381 14.9251 13.864 -3.88803 -6.19243 -0.216692
311 1 12.6095 -9.99875 1.73751 -5.28684 -0.504733 4.35565
312 1 -6.30378 1.71127 -8.87577 -0.52631 -1.8602 -0.653768
313 1 -15.6237 -16.4988 -8.22194 -2.17299 -1.86096 1.05339
314 1 -17.4238 5.55493 -7.36843 -3.95126 -0.102129 0.664584
315 1 -13.8609 -22.3402 1.5484 -3.33056 0.19526 -4.78418
316 1 -24.1678 -6.36984 3.97197 1.23194 0.840536 -3.28671
317 1 -11.2667 -11.1153 23.2813 -5.28605 0.347523 -0.124567
318 1 17.7921 -21.0275 18.6101 -5.60705 1.143 -1.18471
319 1 -13.508 2.49455 12.2759 -1.61858 -4.62724 -2.04969
320 1 -0.925905 1.50884 8.53991 -0.555966 3.36561 1.59841
321 1 -17.3552 -10.9979 -13.008 -3.99543 -4.93555 -0.280608
322 1 -12.4815 14.3179 -1.38202 -1.38552 4.03687 -2.89038
323 1 -13.3183 4.5959 5.76103 2.19089 1.05055 0.671818
324 1 22.4459 1.02856 3.08109 1.04115 -1.01754 1.24706
325 1 -0.177523 -21.1013 17.6224 1.24641 -5.85588 -0.831568
326 1 -18.5956 7.79182 2.14666 2.03073 -0.164235 0.958673
327 1 -7.67389 -8.62482 21.9324 -3.06757 -2.51435 2.092
328 1 10.3898 21.488 14.3204 -4.92557 -1.35378 0.456425
329 1 0.650634 2.40399 -10.4638 0.0334993 -2.5429 4.42759
330 1 -11.2643 -23.5291 22.2229 -2.0875 2.36818 -3.44877
331 1 13.7298 8.0701 4.22884 2.81216 -1.9683 1.54803
332 1 8.0177 -1.84332 -7.50234 4.09282 1.88791 1.67785
333 1 7.98454 -10.5529 -14.4485 2.87523 2.10493 -1.58348
334 1 5.89999 -22.9877 -3.12392 -1.09336 -1.82014 -4.02722
335 1 -23.6631 46.643 4.61893 2.97261 -1.59942 -0.591215
336 1 18.2412 17.8637 -21.5477 2.49747 1.64989 -0.199367
337 1 -19.831 20.3981 1.92079 1.15383 -0.287476 1.92136
338 1 7.59033 -8.41891 15.1049 0.693184 1.24893 3.85881
339 1 -3.24053 -19.8058 -23.4304 -2.7289 -1.14873 0.854974
340 1 -14.7029 2.25329 -17.6324 1.78732 -2.62806 0.81662
341 1 -12.2823 2.35486 -11.9455 2.51784 -0.135109 -0.927808
342 1 0.147832 -17.3846 -13.9133 0.498761 4.24949 -2.02866
343 1 -2.89809 -14.434 -7.59911 -1.75319 0.281392 -2.19362
344 1 9.75528 -17.5416 -11.4919 -2.02859 1.53753 2.37823
345 1 -9.92933 -2.161 19.8107 -5.79047 4.8006 1.35836
346 1 15.8651 4.40009 5.05616 -4.89239 0.707468 4.16494
347 1 21.105 -8.0074 7.73752 3.31526 3.43254 1.16772
348 1 -13.1549 -1.78929 9.56169 1.13582 -7.17848 0.924447
349 1 -4.59556 12.9397 -23.759 1.29004 3.69855 -3.709
350 1 -23.16 20.2534 21.7745 -0.735132 1.37802 1.58678
351 1 -15.0181 4.981 9.51394 -2.03491 -2.42766 0.0365519
352 1 13.4591 4.61746 0.947077 0.38696 5.63376 1.55364
353 1 19.8736 -23.4254 -15.8941 2.03957 0.650323 2.33799
354 1 7.11596 22.9548 -11.0711 -3.6736 -4.10178 5.21636
355 1 -5.71278 -0.0698931 8.76284 2.6409 -0.78079 1.9758
356 1 -2.47575 -17.6711 22.6703 2.53772 5.26406 0.122344
357 1 -5.06361 -14.9245 1.99288 4.97936 -2.7001 2.51587
358 1 17.4422 -13.8593 9.23051 4.02587 -0.802941 0.428042
359 1 -15.1473 -18.9471 -11.6535 -3.9436 2.67823 1.07506
360 1 4.10669 14.2836 -1.84471 -6.7248 1.38259 6.36782
361 1 -21.0259 -21.8892 -6.35657 -0.892033 -5.10929 1.20861
362 1 -19.0384 12.9483 6.85447 -0.245215 -0.339304 -2.97957
363 1 -16.8584 -19.9282 7.50634 5.00628 2.25232 -1.00983
364 1 -9.35447 8.57828 -6.40022 1.49129 -3.31243 -2.43634
365 1 0.691604 -16.8912 17.0161 3.2518 1.6932 -2.93903
366 1 -22.0899 1.18272 -11.321 -3.55648 -2.84052 -2.65214
367 1 4.8098 16.422 -14.9814 5.84706 3.1404 2.07301
368 1 3.84556 -6.46964 12.0616 -3.77336 -4.76549 -2.75656
369 1 14.6781 6.05408 -13.4463 3.15522 -2.03357 0.377787
370 1 1.3075 -13.4557 23.4526 1.9717 0.972231 -0.878123
371 1 -10.8889 -23.9422 17.9357 0.327229 2.58734 0.10759
372 1 -8.5163 24.5177 9.28552 0.446092 0.490493 -2.19457
373 1 -15.3988 4.82888 23.324 0.07639 -2.50652 6.28074
374 1 -5.49232 19.6482 -12.3986 0.132538 -1.79092 -0.683757
375 1 -22.7279 -6.19655 23.4346 0.0373124 -1.02016 -2.97841
376 1 -7.48326 -10.2691 -11.7042 0.0218956 0.828532 0.0114643
377 1 14.1893 1.15194 9.02929 -2.9068 1.6782 -3.71314
378 1 17.7617 -15.083 -4.25181 3.9342 -0.385721 -1.14952
379 1 21.9999 23.7682 0.873907 3.35893 -3.17324 3.75105
380 1 9.36275 18.6631 -18.2505 -1.89948 2.05905 1.75503
381 1 -20.9674 -14.6256 15.1745 -4.33521 1.47299 -2.56051
382 1 12.4081 15.0955 -4.18371 1.0716 -2.24376 -1.02324
383 1 12.6798 46.5856 6.1139 0.899415 -1.01101 -0.602478
384 1 -10.1601 11.1645 -9.88194 -4.47263 6.65122 0.195835
385 1 -7.6718 5.08408 19.3862 -0.518302 -2.60771 -5.04591
386 1 18.8284 -3.25357 -17.5574 -0.262166 -1.63514 -1.07355
387 1 6.30103 -19.446 0.359475 -0.310839 0.506145 -8.94962
388 1 -18.873 -23.724 23.1025 -2.88057 -6.46107 -0.785437
389 1 -13.9927 8.70494 10.179 1.50336 1.39017 1.06241
390 1 11.7131 7.72713 7.22858 0.556301 -3.19761 -5.00727
391 1 15.3498 0.0571716 18.4162 -3.59567 0.0529246 4.0561
392 1 20.358 -12.6365 15.7148 1.57097 1.27548 4.14111
393 1 -11.6145 -17.4573 -13.3051 0.166747 -8.34132 3.83822
394 1 -11.5214 12.7372 -5.98189 -2.43469 -0.558924 -0.804814
395 1 -8.53618 45.7316 18.1835 1.82015 1.45102 2.6237
396 1 11.6603 -21.1119 -0.295717 -0.625783 0.144468 0.786126
397 1 5.37598 -21.2435 16.466 -0.52399 -5.26914 0.669007
398 1 -21.3087 -23.1981 -8.69262 0.374554 4.2134 -3.39526
399 1 12.0572 14.5059 0.320937 4.81567 -1.42142 2.29526
400 1 -20.955 -17.8744 -4.72145 4.4687 -0.739433 0.757815
401 1 -23.754 -17.1353 -4.75352 -3.99863 -3.82465 -0.0548949
402 1 -1.22337 7.76896 -22.9639 0.120581 4.66526 0.841563
403 1 13.9457 -1.08088 -23.6011 0.474647 -3.19172 2.96221
404 1 -13.935 -0.162535 4.19884 3.19555 -4.25273 2.64783
405 1 6.15158 -23.5068 -7.05135 1.60775 -3.92265 0.237857
406 1 -8.77963 -21.9378 -23.3092 -1.60942 3.38736 1.22511
407 1 3.88183 -10.2021 17.9613 1.21255 1.36511 -0.972932
408 1 -2.61989 0.242879 -16.2177 -3.88114 -1.17148 -0.833716
409 1 1.2705 2.63149 -6.01823 1.55599 2.97776 1.23864
410 1 -12.5772 11.6166 2.14753 0.657457 1.38986 0.0118747
411 1 -1.90976 -1.08975 -5.65368 -3.7723 -1.1271 1.88172
412 1 -18.1846 -5.1531 9.36043 -7.1686 9.98118 0.863966
413 1 -23.8558 23.4254 -1.32592 4.74165 2.21738 4.1172
414 1 5.7328 17.4484 -11.626 1.1552 -2.03989 4.53502
415 1 -18.3297 7.95372 -8.84532 -4.76878 -2.40578 2.62896
416 1 23.3411 1.55876 12.0956 1.1776 -6.40354 1.80584
417 1 -12.8802 3.19775 9.56777 -3.00038 2.32737 4.89118
418 1 22.1046 21.0383 5.85592 -4.17494 4.44102 3.52803
419 1 -23.5884 3.29161 23.2546 2.9578 2.73666 3.63256
420 1 -2.93417 -3.26014 12.8592 -4.40453 1.65612 1.13813
421 1 -13.5743 45.1659 -16.8957 2.36103 0.387668 -1.32775
422 1 -3.70952 18.5391 -20.3883 4.24876 0.513162 1.52271
423 1 -8.19738 2.64625 2.52377 7.61409 -3.5375 3.4532
424 1 6.58457 -6.74106 0.129682 3.05836 0.252145 -0.400208
425 1 -22.2121 15.441 15.8176 -4.31531 1.89296 -0.514122
426 1 -17.2036 -1.65464 -9.77223 -2.34369 7.69718 0.928313
427 1 -14.0941 -24.0636 21.3452 -2.06549 1.00508 0.268835
428 1 9.35682 12.3723 -9.28213 4.29484 0.733285 6.33104
429 1 -9.16447 9.46234 -15.203 0.852794 8.01853 3.3135
430 1 -23.3608 -0.643847 -23.3059 -2.00714 -0.810386 2.75618
431 1 6.92288 -6.82653 -14.8415 -0.77021 -3.56236 1.92763
432 1 4.9674 -4.17107 13.1063 -0.522647 2.6025 -3.59532
433 1 -21.1253 2.82417 -16.8329 1.93098 -3.01586 1.82263
434 1 -13.0811 -3.14697 -10.9392 6.87097 2.40072 0.191877
435 1 -0.001856 23.7073 6.25266 -5.09498 -2.5106 0.325288
436 1 -13.2504 -10.6973 -7.94913 -4.70627 1.00402 -2.72821
437 1 18.9223 18.4357 -6.69154 -3.51063 0.367755 0.446638
438 1 -17.431 6.53503 -4.65697 -2.84499 1.51906 -0.794272
439 1 -3.84741 21.1805 -6.72055 -1.35965 2.05775 2.9981
440 1 -8.93179 13.1174 -14.621 5.41563 -4.64046 -1.27426
441 1 18.652 1.09702 -6.40207 1.95585 -3.07514 -1.80114
442 1 4.00842 3.8699 14.3881 4.59658 3.18247 0.387993
443 1 19.8641 23.9053 13.4198 -1.93553 -0.698147 -4.74212
444 1 -21.8033 7.70341 -18.4899 -3.51603 2.16955 0.874887
445 1 14.2598 -10.2667 -12.9206 2.80271 -1.17175 -3.48847
446 1 22.0254 -15.2408 -5.37267 -1.68061 -2.39335 0.310498
447 1 5.58035 21.835 14.5754 -5.04432 -2.43965 0.559359
448 1 -13.4098 -0.309864 13.4301 2.78353 -3.7965 1.0204
449 1 12.5798 -7.07182 2.02977 1.11496 -0.962966 1.36342
450 1 15.702 -22.0133 6.01143 -1.22294 3.94636 -3.02327
451 1 -21.8357 -12.0342 -19.9623 1.53527 -5.71106 1.12797
452 1 22.7746 14.7725 2.05526 2.2529 1.05727 -0.0436722
453 1 -16.9324 16.547 10.0863 -6.20891 -1.7844 -1.84011
454 1 -7.50829 -3.44453 -16.9394 4.16696 4.21646 1.07999
455 1 13.139 -9.42783 18.9771 -0.00925381 0.832169 1.19634
456 1 -3.82766 18.4983 -23.1519 0.607266 -0.382747 1.01492
457 1 6.93901 21.3176 18.6676 3.76163 -2.29182 -3.54949
458 1 20.8694 20.4371 16.1325 -3.28495 -0.76357 -3.30786
459 1 -1.47278 7.86334 -15.4986 1.84733 -3.18454 2.33171
460 1 2.60687 8.96933 -23.562 1.35513 0.993655 0.445324
461 1 1.38363 -1.61853 -16.8562 1.18345 -2.47767 -1.98268
462 1 -5.19883 -18.9265 19.8237 -4.04985 -0.794372 -0.361898
463 1 7.25686 12.8731 12.9531 -1.67795 4.54766 -6.66799
464 1 -14.506 -23.0312 4.18862 -5.77325 -2.52115 1.07604
465 1 -0.742075 -13.3103 5.37117 1.04263 4.77265 -0.868732
466 1 14.2821 13.9275 -19.9564 1.46062 -3.0749 -1.90089
467 1 -7.49417 -10.0765 12.3101 2.28107 1.00023 4.59116
468 1 21.0089 16.4724 -8.12619 0.38445 -4.26889 0.678819
469 1 -23.501 -14.0014 12.357 0.626463 0.506714 -0.137409
470 1 -20.526 6.15296 -14.2262 -5.47393 -2.25475 3.32909
471 1 17.8819 -9.89442 -10.1357 0.560202 -3.71291 3.89597
472 1 -14.7687 -4.16066 18.2906 4.17101 2.17182 2.45612
473 1 4.66107 11.9332 12.115 -0.443247 -1.91502 -3.83197
474 1 2.28587 -5.73458 -8.72094 -1.19144 -3.82508 -4.12074
475 1 21.0085 13.4585 -19.0659 0.286583 -0.96706 -1.79639
476 1 -12.9326 -3.57675 -1.25304 0.964708 0.328342 -7.96307
477 1 -11.0578 -8.70454 -14.0304 -2.77032 -3.56929 -0.932286
478 1 4.58219 -2.68102 -20.3088 -1.56879 3.18516 0.924257
479 1 15.1691 -19.6451 15.3045 0.858622 -6.53969 -0.67166
480 1 1.33664 -11.3235 11.5094 -1.30544 -0.101336 -3.40624
481 1 -5.64814 6.39982 -18.1797 4.16282 -0.109045 0.0576708
482 1 -22.2718 -2.44961 20.2563 0.312791 1.88747 0.0256169
483 1 7.92113 -17.917 -1.84321 -3.00552 3.63468 -3.85051
484 1 23.4034 -13.5702 -11.6936 1.5433 1.94458 0.0555106
485 1 22.7326 -22.1586 -18.4805 -3.15011 1.6886 0.47014
486 1 14.0689 1.88246 -5.66405 -1.47039 1.6643 1.4399
487 1 3.69145 24.8611 18.4158 -2.42352 2.99548 1.91893
488 1 -2.86633 -13.9104 20.7685 3.69109 -2.9604 -4.0816
489 1 -13.3888 22.9974 -13.0275 -1.69681 -0.511158 0.0589274
490 1 17.0977 -17.7364 -15.0307 -2.63041 -2.25851 -0.572859
491 1 -20.4265 -11.129 9.80166 2.34948 -1.18678 -3.19119
492 1 -17.0857 -16.8947 -12.556 -1.75452 -5.07624 0.200101
493 1 13.9708 2.38059 -15.7488 -2.75092 -3.8298 3.22217
494 1 7.82298 1.27153 4.77561 2.85982 5.61969 0.923416
495 1 -3.77921 -8.25432 -3.68468 -1.12228 5.99683 1.80118
496 1 3.96009 7.50396 -11.2395 1.00575 0.0899585 2.47151
497 1 11.3793 16.8722 22.7885 1.79605 -0.30463 4.97556
498 1 19.0871 -1.52526 22.8184 0.176503 -2.88305 -1.35786
499 1 21.944 2.20063 -9.35461 2.27337 7.20979 -0.869069
500 1 -4.99244 -16.4473 9.61664 0.367826 1.46595 1.78222
501 1 -12.0882 -13.5108 -6.25324 2.17815 -2.37107 -0.922627
502 1 12.2253 -16.0655 18.1119 6.40396 0.418031 1.33687
503 1 9.15429 -0.0915471 -13.3392 2.44935 1.31981 -1.50679
504 1 0.104626 7.82687 6.0868 -0.201639 -1.95094 -4.86808
505 1 -6.28289 8.60424 -22.5156 -0.680989 -3.64066 0.415533
506 1 0.126311 -21.902 -16.8129 -2.5474 -1.16191 -2.67741
507 1 13.3946 21.7478 -15.8965 1.41072 -0.191093 -2.25033
508 1 -1.4295 21.2117 -11.6017 -4.96243 -3.75692 1.90345
509 1 21.8714 12.1266 -16.4682 5.01059 -2.54478 -4.71951
510 1 9.68234 -16.7422 16.4705 4.2452 -2.39154 -1.65056
511 1 7.50187 -14.2386 3.76768 4.03891 -2.00432 -1.07783
512 1 2.88066 -3.06646 20.4526 2.98501 -3.39946 1.75268
513 1 -18.4447 -15.3195 21.3919 -0.782076 1.63839 -2.73734
514 1 -15.0442 22.6597 19.311 3.82607 -1.26538 0.92918
515 1 -1.51636 5.15397 16.4248 -2.57391 -0.488736 2.37616
516 1 9.90275 -23.483 -3.9205 2.05449 0.897577 4.16707
517 1 -17.1562 -1.52828 -21.2347 9.20064 -4.04966 2.44317
518 1 23.2382 46.3259 1.88319 0.629828 2.71777 -0.817412
519 1 -18.8251 -11.3479 -8.67879 0.795614 -1.28295 -4.49422
520 1 -4.29099 46.2181 -15.1681 1.19706 2.87873 -6.46523
521 1 -10.0988 24.4344 -8.34432 1.35174 -0.039575 1.2757
522 1 3.14536 -15.6917 5.79592 -0.433002 -1.72127 -3.65984
523 1 -10.1009 -16.6754 -7.04726 -1.19071 -0.820765 0.418145
524 1 -1.04382 -4.72917 18.432 0.440747 2.18728 -1.19225
525 1 -8.05067 2.06877 -3.5285 -2.20243 -2.76662 -0.123749
526 1 -20.2946 17.0943 -3.19917 -1.20958 -3.57839 1.82753
527 1 -3.83252 14.3982 -8.63836 -0.016569 -0.763866 -1.69865
528 1 -18.9922 15.9545 -10.359 -3.31874 -3.2104 -4.46738
529 1 -7.11621 -12.7866 7.37633 -2.08607 0.75596 7.42395
530 1 -9.06709 1.75794 12.0826 -0.707468 2.90764 3.87107
531 1 21.7556 -9.18716 12.9233 -5.68851 -4.19246 1.77935
532 1 -11.8553 -1.58566 1.4437 -0.619534 1.0742 1.18014
533 1 -8.27408 -19.4786 15.5133 -0.991261 -1.30653 -1.76016
534 1 19.1733 9.5745 -10.9881 0.247586 -2.84174 1.11985
535 1 6.54177 9.37635 8.19807 -1.11024 2.38265 -0.70739
536 1 -1.61877 -7.75605 4.33403 -0.272098 1.89933 0.942056
537 1 9.78846 -7.11517 4.34084 -3.20245 2.04661 1.20362
538 1 -21.7777 -1.55532 14.138 7.16281 -7.88828 -1.42161
539 1 18.0745 9.08421 -7.63135 0.0575054 -2.49602 0.220043
540 1 -13.8768 -9.05893 3.16001 -7.48208 -1.77465 2.47964
541 1 -12.6476 2.73593 18.6605 1.04293 -3.02382 -1.21442
542 1 -24.2539 5.34563 -6.81838 7.18592 -1.58332 -4.10012
543 1 23.1329 -18.7009 -15.608 3.52157 1.13408 1.33772
544 1 -2.90297 -21.0575 -20.7684 -3.52447 2.16709 0.970121
545 1 21.0372 -20.6868 13.0741 0.219383 -3.70882 0.896869
546 1 -5.99485 -17.395 -14.3749 -3.84652 4.92812 2.546
547 1 16.0262 -15.5502 -20.2243 3.29077 4.44563 3.05521
548 1 9.94561 2.34642 17.4862 0.491231 1.85282 -0.261425
549 1 -20.2717 -4.2706 7.3021 0.722626 2.41064 -4.78905
550 1 2.59972 -22.9989 -16.1842 -2.19653 2.0235 3.17142
551 1 4.18145 6.85417 -18.8194 0.375916 -0.592087 -2.19204
552 1 -0.720517 -16.2211 -3.72454 3.20965 3.1422 1.89703
553 1 -12.7749 7.27302 1.27484 0.936832 -4.09079 1.2208
554 1 3.35535 21.5229 -17.2638 -0.788495 4.11451 -3.26718
555 1 -13.7646 -15.6633 -0.0229408 -1.04547 6.01263 0.0188453
556 1 -11.7763 19.7053 -1.42066 -3.9027 -1.84064 4.70695
557 1 11.8289 46.4632 -10.5893 -0.650036 -1.88452 -2.80914
558 1 -5.45659 -10.5359 14.4573 -0.508927 -2.53808 -3.61533
559 1 -8.16707 -18.4208 7.66572 2.6603 3.18226 1.18734
560 1 -23.608 -21.7236 -5.17379 0.324608 4.68851 1.82144
561 1 8.78769 -23.5728 18.9065 -2.62075 -3.88844 2.25368
562 1 5.0445 7.22589 -23.6608 -2.58885 -3.72016 2.25726
563 1 5.95715 -20.1111 5.46929 -0.468108 -1.25485 1.09675
564 1 -12.4716 -17.1475 10.3659 -1.27508 -1.29144 -5.10944
565 1 13.3331 -19.0505 20.6539 -0.445381 -3.65567 1.71969
566 1 19.3466 14.8478 13.9906 6.30554 -0.502138 0.445007
567 1 -20.2077 26.1458 -5.2851 1.70543 2.37439 -3.94977
568 1 2.56431 -7.30835 8.38837 0.267396 -4.00574 3.37861
569 1 -5.57435 23.4796 -14.828 -1.41221 1.82824 0.526343
570 1 22.0636 12.6803 15.0929 -1.18265 -3.1604 2.20744
571 1 -2.85257 -12.1124 18.5925 5.20634 -4.26738 2.49852
572 1 11.1253 45.5249 2.20934 4.48229 -1.74913 2.16448
573 1 19.8237 -6.12945 6.0957 -0.0836393 -0.6374 1.70942
574 1 14.2145 -22.3355 -6.51458 3.43733 1.59477 2.70968
575 1 -14.9502 5.11492 -3.59037 3.85882 3.14268 0.432406
576 1 20.2116 -0.930023 16.3994 0.272409 -0.349595 4.3997
577 1 -7.98465 18.6709 -1.9818 4.07598 -1.73191 1.91473
578 1 -23.5275 20.3844 -20.4326 1.53201 -0.674803 0.967886
579 1 3.42597 -21.3928 -12.5996 3.43142 -0.534375 -2.98609
580 1 -5.86007 1.25509 -15.1042 -2.02951 0.563478 0.446874
581 1 -16.1329 -8.8261 16.2284 2.02653 -1.23741 -5.30217
582 1 -2.79536 -13.8645 -18.0332 -1.37698 2.45526 -0.30583
583 1 -22.4374 24.8288 11.7934 -0.658358 -2.12677 -2.68647
584 1 16.2983 -0.44602 -11.7135 4.42231 -2.84618 4.44538
585 1 -6.8161 12.2389 15.7897 -0.70584 -2.26591 6.35496
586 1 15.9335 22.8718 -20.4463 2.2225 2.18456 -2.50006
587 1 -20.1039 45.9982 -12.5426 -6.30953 2.40044 1.19779
588 1 -21.274 24.0311 7.05427 1.65454 -2.51604 4.00019
589 1 -0.434888 2.98623 -0.0367118 -0.903912 -6.58388 -7.23619
590 1 -5.49322 17.957 20.6534 -3.28106 -2.11471 -1.85291
591 1 18.9581 -21.9365 11.3256 4.01706 1.25292 0.781721
592 1 -16.4487 -13.0843 10.4064 0.533004 2.64533 4.4973
593 1 -13.6152 -21.2619 15.2234 -2.58562 0.192396 2.93643
594 1 -17.9598 1.37846 2.90575 -2.49668 0.695589 -3.41453
595 1 9.97832 -17.0135 -22.7747 -1.00059 -0.817354 0.45421
596 1 -11.7117 -19.3639 4.40317 1.01293 2.57582 -3.45945
597 1 -22.8631 45.6054 -13.2344 -3.64936 8.77935 3.74727
598 1 14.6476 -15.1574 5.38482 1.79341 1.13651 -0.0590677
599 1 12.5068 -14.4181 12.8831 1.03422 -2.39747 1.0369
600 1 -23.1671 22.8214 17.9838 -4.00277 -0.763481 -1.26553
601 1 0.574445 -2.46574 22.1148 -0.829382 -0.0175887 -1.3
602 1 -10.127 7.14404 18.2263 3.27766 -2.27554 -7.41995
603 1 -5.29407 6.26623 -3.83435 0.710607 -1.2995 2.08011
604 1 0.366873 25.5476 -22.8901 -0.457287 -1.4622 1.43382
605 1 -17.9504 -1.7849 17.3501 -1.44736 4.72549 -4.14437
606 1 1.97893 -2.66433 -19.3176 0.444989 -3.52623 0.717069
607 1 -0.897152 -2.26608 16.7734 -2.43894 -2.7413 -2.66012
608 1 3.1574 8.74759 -8.84814 -5.18958 -2.13584 3.50413
609 1 11.9832 -21.0907 22.4392 -2.48013 -3.50982 5.92048
610 1 12.986 -4.46219 15.8809 -0.324054 4.99282 4.0442
611 1 -2.94206 -4.52275 -4.06475 -0.696373 0.556653 -2.25164
612 1 -5.43184 12.1324 -17.4324 0.201826 -6.77162 -1.09356
613 1 12.0155 9.754 -21.6421 -2.3854 -2.26062 -4.13647
614 1 -16.7341 -9.48394 -5.47566 2.68723 6.76238 4.40761
615 1 9.94354 -4.9801 21.04 -0.919884 -1.62713 -1.88611
616 1 15.3549 -1.65538 20.7086 3.06033 -1.10338 1.30867
617 1 -13.8274 22.8034 -16.0485 -3.69944 1.53086 4.72373
618 1 13.8348 7.16604 8.85375 1.37193 -0.263023 1.02262
619 1 15.9906 0.609759 11.2433 1.30103 0.323785 -4.10208
620 1 21.0905 -15.044 -8.12638 -3.28751 4.04621 5.74333
621 1 -9.27102 18.1482 -13.0759 0.531609 -3.02756 -1.99609
622 1 -21.7347 -9.56483 2.1152 0.436532 -0.589042 -0.733711
623 1 22.5729 -16.0533 5.41591 -1.3671 6.53958 -0.719878
624 1 -8.75261 3.39938 -20.5546 -2.44983 -1.85939 2.53716
625 1 -1.75566 -9.70719 -2.57525 0.655106 0.412228 0.582205
626 1 -5.20308 3.7388 -16.1881 1.76611 -2.20716 -0.412923
627 1 20.8822 13.2264 10.5734 1.61847 -2.30123 -1.00172
628 1 -20.6765 -16.1755 -1.16836 0.942646 -0.546283 -1.06301
629 1 -7.78505 13.1816 -3.90672 -1.65579 -0.311484 1.97278
630 1 -24.1983 24.0772 9.85514 3.24953 -0.967008 3.71176
631 1 -5.84681 -16.2214 18.8238 2.8679 2.19597 0.964339
632 1 -14.7347 -18.3105 0.690977 3.56896 0.929562 -1.48433
633 1 8.19741 5.99516 21.7556 -1.17255 0.109717 -3.6564
634 1 -8.53317 1.6703 17.8386 -3.20523 -2.15724 1.26812
635 1 9.69207 14.5186 -7.4696 3.08868 -0.292274 -2.42151
636 1 -23.2021 3.14504 -14.9919 -3.30742 6.08119 0.792621
637 1 -7.3028 -24.14 -22.8046 -3.87167 -1.57201 0.849466
638 1 11.7976 19.1126 -6.75532 0.163349 -1.70782 4.41284
639 1 -10.817 -18.9507 -22.8635 0.364655 -4.66564 -2.74429
640 1 0.968013 0.336892 6.45631 3.09726 -2.86636 -0.548541
641 1 -15.2859 21.7509 5.97998 2.03479 3.05729 -2.2591
642 1 -6.50514 -1.22582 4.65574 3.2123 0.0382212 0.886527
643 1 8.62011 -19.3214 5.95094 4.40029 -1.61974 1.71932
644 1 -7.91659 13.7933 -1.10979 -1.18396 0.185705 -1.52961
645 1 -11.6261 -12.6063 -18.2058 2.67275 6.01909 -3.6323
646 1 13.6911 24.141 14.2552 -1.20202 2.02785 3.62177
647 1 5.9015 1.93306 -4.17827 3.79125 0.926915 0.201951
648 1 22.4756 -15.904 21.8838 0.788581 0.237462 4.58341
649 1 10.667 -18.9405 17.9302 5.74336 1.82286 3.40822
650 1 -10.0604 3.32485 19.7303 -1.56711 3.47464 2.62545
651 1 -20.9842 6.31616 -11.3831 -0.0200345 -0.488258 0.426356
652 1 -7.35588 -6.13172 -19.8039 5.74894 -1.57253 4.70081
653 1 -20.6251 -21.7138 -15.9811 -0.952144 1.10161 2.80174
654 1 -12.2624 -0.903596 -19.1501 -0.942812 -3.19406 1.07989
655 1 -3.36278 -10.2054 -11.3968 -1.28691 -0.313694 -2.93964
656 1 -0.0255895 22.4598 -9.08754 7.72582 0.0989296 -3.84818
657 1 -2.11812 -6.36422 -9.53912 -2.87063 -2.93464 -3.11045
658 1 18.3762 10.2823 13.1901 4.17211 -3.75638 -0.34602
659 1 8.84986 1.75186 22.2616 2.76437 4.2987 -6.90286
660 1 7.16202 3.38643 6.56616 0.291669 0.311584 3.76515
661 1 -19.5655 -6.92073 -18.3191 -3.09329 1.67875 -0.430984
662 1 2.01567 -8.53384 10.9703 -8.52894 -1.96945 -1.84399
663 1 -11.4811 -19.212 -11.0671 -0.2807 -4.46136 -3.09705
664 1 -16.3608 -20.5108 10.4369 1.25161 -2.48657 -3.16346
665 1 -3.2518 -5.80913 15.828 1.25668 -0.512452 1.87746
666 1 -9.29344 -6.3535 -11.3862 -3.50144 3.57198 3.60169
667 1 -20.9257 -21.6997 23.0096 -1.13547 2.043 -1.65738
668 1 -11.7101 15.2731 17.9382 0.401855 0.381829 1.0347
669 1 9.98959 -15.2102 13.9697 -5.31048 -5.56823 0.141556
670 1 1.16315 -11.1263 -4.67989 -1.35393 0.345495 -0.365018
671 1 19.7586 14.9096 3.89825 -3.56315 1.78267 3.06615
672 1 22.678 7.65144 -10.6875 0.956934 -4.86201 -3.32229
673 1 -2.83057 22.9789 -22.4474 -3.42513 5.82563 -3.96706
674 1 -10.0311 1.04055 -19.8766 1.18763 -0.455835 3.3788
675 1 -20.3533 -11.806 -5.91463 2.48218 0.482454 1.37996
676 1 5.11765 0.974024 18.7677 -0.581502 -0.0480548 -0.208019
677 1 -22.8138 -11.344 -12.3389 2.34305 3.10331 -0.79652
678 1 -20.1338 -5.59762 0.681827 -1.95287 -1.8385 -1.95628
679 1 -20.544 2.78688 -7.60685 6.31901 8.3838 2.40003
680 1 7.05452 20.8822 -8.53544 0.840186 0.162796 3.68985
681 1 -2.53282 1.08444 -7.48701 3.24361 -2.26017 -1.12973
682 1 -1.6356 20.2094 -8.62239 2.32007 -4.13968 0.426659
683 1 2.48721 5.07533 -17.5152 1.31464 -0.91701 -0.119991
684 1 12.1828 -21.4458 -12.801 -1.44278 -5.32069 3.30095
685 1 23.1595 0.124049 6.80278 -0.341966 3.03344 0.721131
686 1 -12.963 -0.158753 19.4885 -0.596687 -2.20892 -2.61092
687 1 -15.9763 7.14485 11.4259 3.69894 -8.05242 0.638706
688 1 -11.4163 -13.1463 -13.5947 -2.50056 2.85629 0.133409
689 1 -1.58998 -1.76342 -2.94198 -6.41149 -1.16879 0.0820237
690 1 -2.68753 17.5682 -5.87686 -2.48372 -2.63112 2.93152
691 1 -1.07545 8.14881 13.9886 1.51539 2.84618 0.116406
692 1 -8.71144 -3.07731 4.15674 1.31253 -0.329781 -3.23073
693 1 -9.97858 23.5589 2.96532 1.21315 -1.65835 1.54089
694 1 10.6321 -19.0268 1.31797 1.53116 4.52653 -3.99599
695 1 8.28575 -9.65573 -6.02226 1.33465 -2.84829 1.79421
696 1 -8.29939 -21.2146 8.05058 3.44717 -0.254937 1.57631
697 1 -20.0774 16.8965 -19.052 -1.92006 -0.773941 -0.139151
698 1 23.4332 -12.8956 -4.79204 4.11478 -1.85538 1.5397
699 1 -15.0659 -11.5041 15.6841 -0.792551 -4.7789 -4.42635
700 1 3.55003 4.30828 -21.2617 0.819738 1.37082 -2.04901
701 1 15.1784 -1.60002 8.53347 -2.28593 -0.071085 -1.61789
702 1 -14.7381 -2.97654 13.5906 -0.266353 -1.39449 2.36458
703 1 7.70475 24.0587 -20.3022 -1.36101 2.73965 4.11972
704 1 -10.2577 -10.322 8.60129 -0.453843 -5.11462 -1.38618
705 1 4.74787 19.391 -15.8122 -2.14349 2.9163 -0.703658
706 1 3.4347 1.70391 21.2349 -0.279365 -2.72932 0.487599
707 1 -19.0588 -0.770926 21.795 -0.223805 -2.8271 0.399171
708 1 9.91917 -7.22263 -18.3929 2.20094 -5.59371 -3.9469
709 1 -11.1125 -1.79002 -5.97527 0.544016 1.09793 2.0508
710 1 -3.6639 -9.69054 12.5619 -1.20502 1.28924 1.67274
711 1 -15.5513 -6.52892 -13 -1.63448 -3.00459 -0.831583
712 1 4.1773 -14.3294 15.6901 0.147795 0.979548 1.4835
713 1 1.55797 4.93653 3.91068 1.12115 3.00764 0.422922
714 1 17.475 -8.13817 -14.67 -2.52419 7.57741 -6.04392
715 1 4.51772 16.118 13.2217 -1.47601 0.741821 -3.64469
716 1 2.00705 -23.0563 9.93653 -5.64136 -0.60069 1.03923
717 1 -13.7534 -5.30594 -15.2394 -1.60354 2.50007 1.84665
718 1 -10.8789 -6.22649 5.88505 -3.46177 2.70303 -6.70042
719 1 14.2013 -8.04377 12.2872 0.0238899 -0.38131 0.888437
720 1 1.80897 -6.32582 -20.2067 3.3127 6.24001 -1.00466
721 1 -10.6381 -11.111 -15.6897 1.14595 0.437903 -3.05227
722 1 7.68092 -23.2715 -13.6057 -1.06713 -2.26307 0.55283
723 1 -21.1481 15.5231 -7.06483 -4.35397 -8.04213 -1.02788
724 1 -8.01874 21.476 -12.0828 3.74188 -2.24235 0.956881
725 1 3.72045 19.2842 -22.2473 -0.776732 -2.40203 0.376426
726 1 -4.64156 -5.83168 22.5543 -0.108605 -1.84116 -3.25345
727 1 7.23405 -2.46941 -12.7533 3.26772 -0.745594 0.430805
728 1 -9.6578 15.6857 -8.45437 -3.54033 -2.01866 3.91431
729 1 -13.2442 13.1504 16.2539 -1.73156 -0.727174 -1.62867
730 1 17.5956 -21.5692 -19.4901 -3.81754 1.50857 -3.55407
731 1 -12.9649 12.3189 -23.1597 0.148709 -4.67959 0.437267
732 1 14.0179 -22.9337 -9.51261 -0.775321 -2.72051 0.255929
733 1 -14.0472 -15.3302 4.56131 -3.79396 -0.044352 5.2149
734 1 -18.252 20.9825 16.6126 -1.05457 4.77484 -1.12103
735 1 16.0085 9.86885 6.59335 -0.0116453 -3.65921 -4.70771
736 1 4.15574 23.4583 -6.31482 -0.361705 -0.417526 2.1009
737 1 23.4265 -18.4959 4.22128 -3.89678 3.30521 4.0058
738 1 -12.1665 7.78801 15.9226 -0.348958 1.97175 -0.134743
739 1 -15.7643 -20.8577 -0.200411 -1.07941 -0.419969 -0.372165
740 1 15.7989 11.8843 20.3448 0.655204 3.89519 -5.96231
741 1 -13.362 -21.8988 -15.0816 -0.0399488 1.84092 2.82925
742 1 -5.14245 45.6265 19.7478 5.59354 1.52916 1.8563
743 1 22.5446 21.1916 1.90174 -0.194115 0.581565 0.911213
744 1 8.7037 -13.4728 -14.764 -3.14908 1.97881 3.20575
745 1 -23.5409 3.01775 19.0931 4.4138 -0.346872 4.54572
746 1 -16.3949 -5.59443 -22.5484 -2.19973 0.483378 1.85941
747 1 11.0015 -11.4206 3.28451 4.28747 2.22643 -3.32004
748 1 -10.6164 -21.8925 19.989 4.46449 1.04772 -4.3188
749 1 0.507573 15.9975 7.97585 -3.43966 2.71102 -1.37893
750 1 14.0455 -6.28524 -12.8796 -3.20011 -0.485871 0.87079
751 1 -18.0678 10.0636 -16.4777 3.33366 1.0991 2.3078
752 1 -23.4224 -21.3697 4.72668 3.87559 -3.16871 -0.667434
753 1 -14.4262 -17.7117 21.8852 -0.230516 0.0981388 4.26789
754 1 -15.6416 24.7396 14.3815 2.43946 -3.92566 0.974137
755 1 9.44142 9.64526 23.7843 1.50623 -3.71947 0.102942
756 1 -6.4776 -2.83226 -2.04519 9.53684 -2.74037 -2.26048
757 1 -18.6312 14.7488 -3.96865 0.746479 -3.89004 1.03364
758 1 -15.315 -15.3375 20.2992 -0.760811 -1.12276 -2.55648
759 1 1.34565 15.8041 -11.6201 1.73937 -0.873021 1.72462
760 1 0.700288 9.23921 11.8839 0.0364692 1.43866 -3.66195
761 1 -9.34312 -12.7424 -7.0269 -2.5054 -6.34021 5.76247
762 1 2.08349 19.161 22.7637 2.29386 2.54349 -0.402241
763 1 15.9419 5.46142 7.83961 -1.20888 -1.08191 -0.538621
764 1 21.303 2.13938 7.73246 1.00364 1.42848 1.46631
765 1 21.3766 9.34325 8.51642 0.217431 -0.448962 6.56991
766 1 -11.8262 18.164 -15.8547 0.930093 -3.01826 -0.681166
767 1 -3.05663 -13.3818 -2.69146 4.90702 1.7834 -1.10921
768 1 -7.65809 10.719 9.4307 -2.96034 3.73805 0.739475
769 1 13.6853 25.7716 18.3713 0.0922723 3.27588 -3.48294
770 1 -4.96444 22.1263 23.8123 4.73595 4.29434 6.87848
771 1 12.0576 -17.2563 12.7274 -0.847268 -2.12808 -3.52086
772 1 6.93487 8.2248 5.57815 1.66846 -3.017 7.30005
773 1 13.1805 -20.7404 11.136 -1.45637 0.369356 -0.880208
774 1 15.1675 19.1452 13.786 -0.388209 -0.016828 -4.07826
775 1 21.8044 -17.8631 -12.3194 1.85668 -2.64043 -0.413272
776 1 8.64627 -0.31032 -20.2781 1.89775 -4.82175 -3.08394
777 1 21.9318 -10.1193 -9.04175 -0.638051 -1.24891 4.65032
778 1 1.85755 -19.7326 -17.669 3.13348 1.72855 -0.596862
779 1 7.90454 0.76231 -5.86525 0.724752 2.64103 -3.2125
780 1 -7.31535 -9.42428 -19.2135 -1.70726 -2.9092 9.6014
781 1 -19.4001 4.42593 5.92567 4.77854 3.34443 -3.04011
782 1 20.2504 -8.72912 -14.2698 0.0789697 4.17429 4.14859
783 1 0.954791 -15.3432 21.3306 -1.87886 1.5896 2.0076
784 1 11.9228 17.6139 -2.67752 -0.222695 -0.159293 2.37025
785 1 -2.80632 22.5133 21.4486 2.59302 1.88554 -2.8312
786 1 -22.0512 23.0918 22.3473 2.00716 4.13068 1.42293
787 1 9.11978 11.1928 -13.7289 -2.38351 -0.444545 -1.23224
788 1 -19.9543 8.78058 5.37009 -4.93495 -1.36 3.21531
789 1 -15.5931 19.475 1.36928 -2.85144 1.21762 -0.285011
790 1 1.60206 -1.62042 18.0772 1.48297 0.135425 3.00707
791 1 -3.50689 24.6419 15.6862 1.24134 -3.99614 -3.14092
792 1 -23.102 14.3073 -8.79315 4.62099 5.06876 -2.86937
793 1 23.366 -9.77532 1.64911 3.31081 -2.24005 1.50262
794 1 7.8799 17.145 -22.5588 0.564394 0.90038 -4.01336
795 1 21.1613 -6.78216 19.0606 -2.42393 5.48129 1.88319
796 1 -7.88785 -15.2775 -13.8984 0.604126 3.84238 -7.16691
797 1 -19.3428 -11.0212 13.521 2.79322 -4.53816 -3.74603
798 1 -16.2974 1.38351 -6.38306 2.82619 4.211 2.80155
799 1 -10.7894 18.4289 -8.33823 -0.382999 2.55674 -0.507188
800 1 -19.1735 -8.82254 17.101 0.359173 -2.48847 0.192356
801 1 19.7347 13.1523 -0.28403 -0.997711 -0.053566 0.999278
802 1 -18.9662 -21.2177 13.2957 2.21567 -0.629235 -1.2619
803 1 18.5618 -14.1002 -8.49022 0.201504 3.75289 -2.5915
804 1 12.8159 -20.4764 -10.0799 -2.95205 -5.07068 -0.0866916
805 1 8.83633 24.1332 23.2032 -2.51088 2.08348 -2.35697
806 1 -1.53876 -11.697 11.8066 -2.5407 0.103509 -2.52304
807 1 15.1699 22.7697 -23.2402 5.48951 1.8967 -0.937778
808 1 1.00341 -20.0541 -13.1596 0.955872 4.03927 -0.500021
809 1 -5.67119 25.0835 -17.2824 -2.65408 0.120046 3.22939
810 1 -19.9026 -15.4842 -3.99607 -0.0226113 1.5473 5.25685
811 1 -13.9612 -4.8951 -6.52392 1.49415 2.50388 -3.62101
812 1 5.22253 -12.3902 -7.27418 4.88806 0.31655 6.68519
813 1 -15.1294 25.1853 -16.9235 2.55612 6.93413 1.68104
814 1 -21.3433 -0.383584 -2.848 -0.907069 0.917688 -2.89599
815 1 -18.9906 7.17671 -17.2856 2.20538 -0.928356 2.55314
816 1 22.5293 -16.8597 16.3389 -0.501327 -2.96662 -0.412661
817 1 10.2082 -8.10195 16.746 -2.27069 -2.02482 -1.0885
818 1 -10.8756 10.1173 21.4377 0.648398 -3.22277 6.17103
819 1 8.31557 12.9786 21.2788 2.98339 0.155526 -4.02256
820 1 2.202 13.8785 6.65696 2.40213 0.694926 2.88105
821 1 -23.0728 45.83 -23.4994 -2.38893 -3.0195 -5.97677
822 1 19.8951 -15.5652 14.7241 -1.9529 3.1329 -1.12729
823 1 5.69289 -10.1372 6.33945 4.18028 1.98612 2.60903
824 1 6.19415 -19.6604 -8.17196 -6.73207 -0.363016 0.252288
825 1 -24.063 3.36857 4.07984 3.20826 -0.695356 4.66048
826 1 -13.1855 7.5342 -3.57963 -2.31734 -2.26879 -4.18298
827 1 -2.007 0.523828 5.90944 2.45131 3.72204 4.79946
828 1 -7.62457 -18.8528 12.7053 0.698806 -2.38274 -3.33534
829 1 19.8283 17.3385 22.592 -3.72673 7.31601 4.01561
830 1 -10.1299 -8.9042 20.1983 0.199885 0.569782 -2.46909
831 1 -1.38344 -13.1828 -23.354 1.31356 -3.436 -2.02336
832 1 -6.83474 -2.50821 12.2619 4.50076 2.80421 1.75544
833 1 -11.4681 -6.27342 -7.60579 -2.77463 2.83028 -2.19522
834 1 2.10571 9.36421 -0.566876 2.92463 4.38828 4.56716
835 1 2.53978 10.6529 -21.0976 -1.89827 -1.93858 -5.83999
836 1 3.79686 -11.8245 20.3667 -5.47327 0.825886 2.14974
837 1 -19.2486 -14.4828 -6.3933 1.5024 -1.99758 2.64198
838 1 -23.8486 -22.0555 1.99046 -0.620311 -3.55941 -3.2753
839 1 21.6313 21.1904 -5.98983 -3.31904 1.5544 -0.497508
840 1 4.0481 -17.3333 12.303 -5.32794 -1.10089 -1.25428
841 1 18.6085 1.39456 7.82293 3.68933 1.00663 0.439343
842 1 -5.66625 -23.3215 -3.26103 -0.472579 -0.117845 -3.98582
843 1 20.1546 -5.21788 14.8273 -0.337867 0.0500133 -6.08859
844 1 20.5169 -19.8198 -23.7974 1.15935 1.23 -0.0898652
845 1 18.211 8.17095 -0.161312 -3.10399 3.59876 0.525114
846 1 8.04602 3.36885 -12.1923 0.510625 5.27817 3.4989
847 1 -13.8381 46.4086 -14.1577 0.192103 -2.2409 1.47959
848 1 -3.91564 18.0217 -14.1196 -0.0607291 4.51892 0.0562255
849 1 -22.8446 -12.3527 -6.99779 -5.58831 -0.652737 -0.0119697
850 1 14.9698 -21.0145 -20.2546 1.63898 1.75924 -0.973621
851 1 -21.9667 18.5761 -13.2346 1.92982 0.850265 -0.905287
852 1 12.4885 -4.13714 1.70405 -1.80933 0.0691668 -0.011825
853 1 15.004 11.8056 -17.0564 2.62606 0.53659 0.0373717
854 1 -20.4864 -12.0622 2.55357 3.21842 2.64571 0.95797
855 1 -16.5483 24.6932 -19.2822 -0.848618 1.32409 2.29599
856 1 -21.1449 -5.46969 -9.35858 1.25331 -2.99935 5.20585
857 1 -23.8538 -4.96503 11.464 0.0270945 2.42241 -4.34276
858 1 17.6678 -13.8424 13.659 0.312757 1.64066 -5.82698
859 1 -13.4596 -7.73735 -0.65023 -0.466679 -2.0779 -2.31693
860 1 9.5574 -8.46071 -15.4286 -7.92191 -1.52385 -0.628202
861 1 22.6844 21.9108 -11.6785 3.88076 2.80812 1.0833
862 1 -2.51901 13.0098 -6.54729 -3.24791 -3.14885 3.24208
863 1 17.9503 -18.5349 5.6545 1.88207 -1.66378 3.2664
864 1 -17.1433 4.11172 20.2543 2.27409 5.59318 0.608428
865 1 0.228041 -21.615 11.7397 3.76919 0.174842 -4.41419
866 1 13.5301 -3.37082 19.3535 0.26239 -0.0914152 -1.59013
867 1 -1.58811 12.3177 17.933 -3.02624 1.02639 -2.86898
868 1 2.11044 16.9195 -5.29051 3.65336 -1.80376 2.45128
869 1 0.898741 17.3729 0.745571 1.58068 2.82138 -2.42602
870 1 14.1992 19.0088 17.5053 -0.0324625 2.83719 0.0850789
871 1 6.50008 8.94983 -21.3388 2.57583 2.1774 2.11116
872 1 -6.42707 -4.17979 -22.2059 -6.6665 -2.53563 6.9837
873 1 -7.28978 1.91885 -22.6924 -0.474166 3.90435 -0.204979
874 1 10.2883 -0.481492 1.42231 1.84483 4.86278 -1.98049
875 1 18.0633 13.2004 9.85212 -2.01951 2.54301 -5.59971
876 1 13.7831 -16.194 -9.14448 -2.88317 2.70708 -7.6275
877 1 2.54923 -18.7401 17.7171 -1.58911 0.526451 -2.19862
878 1 6.1318 10.9963 21.8072 2.13358 1.64306 3.98664
879 1 17.561 6.16736 -18.2998 4.47486 -2.75546 -0.0229385
880 1 4.64461 13.8005 20.0766 5.13078 2.5578 0.251567
881 1 -3.19553 -7.08085 18.6018 -5.59574 1.11519 -1.70227
882 1 -14.2 -3.23604 1.12683 -1.75468 -0.0728045 3.90648
883 1 16.3174 15.4583 -7.28817 -2.88752 -1.82985 -2.94012
884 1 20.4043 -19.5124 -16.2934 -1.29375 -2.95769 3.43545
885 1 -5.90089 -19.7668 -0.92512 3.12981 -3.7438 -1.97028
886 1 -7.49734 23.8616 4.27216 -1.26875 -4.47929 2.53566
887 1 11.5587 46.7709 18.4241 -2.93887 4.96406 -2.62326
888 1 -7.72104 17.7189 -16.6796 0.508085 1.66851 0.668278
889 1 -15.309 -0.202019 17.8898 -0.977184 -3.33253 -3.55355
890 1 14.9444 -21.5616 13.1894 4.29087 2.2181 3.31298
891 1 -22.5858 -1.55542 5.553 0.0918046 3.4075 -0.603457
892 1 4.17003 -10.7697 -4.38011 -4.32992 -0.00414706 -3.19936
893 1 20.6158 -7.10236 3.6392 3.00211 2.18446 -2.24607
894 1 2.24076 15.1923 20.9761 2.16177 1.34862 3.51011
895 1 3.25422 -23.3137 6.25325 -2.03461 -4.99021 2.43405
896 1 11.5583 0.777419 21.2418 2.30622 4.41312 1.48413
897 1 -11.9464 -21.2383 9.7884 -3.52761 3.45493 -0.0790822
898 1 14.2115 3.38718 -23.5256 0.190981 2.61093 -5.58852
899 1 16.2911 -23.4059 17.0772 0.0369147 -1.08206 0.863431
900 1 -15.2684 -14.5189 -10.5714 -0.0709841 3.62262 3.98139
901 1 5.12941 -23.1446 8.23526 3.75028 0.861136 0.785828
902 1 -10.94 15.905 0.674097 -4.36398 2.65004 0.150447
903 1 -8.16535 26.1627 -17.7518 -0.0340946 0.521088 2.77977
904 1 -9.07079 -5.7809 -6.19256 -0.613492 -4.68427 0.697994
905 1 23.1341 -8.21892 22.5711 -3.43424 1.01462 0.829508
906 1 -7.55014 -21.307 17.8023 -2.85676 -1.44584 1.99613
907 1 -17.2925 2.38011 -10.2129 -0.110924 -4.3761 2.52989
908 1 -7.24571 -14.8797 13.9066 2.2608 -3.15478 -2.13339
909 1 15.8375 46.667 9.76291 1.1833 0.944766 -1.82349
910 1 -10.6798 6.60363 -4.22911 5.29305 1.61202 -1.42072
911 1 -0.924716 15.3841 -21.1792 3.42411 -0.095625 1.34122
912 1 -14.7401 24.8747 -8.68855 -2.104 0.50725 -1.77784
913 1 -4.12526 21.9698 16.922 -0.724931 0.841435 -0.457681
914 1 -23.3898 15.9281 10.936 -0.565766 0.034806 1.58831
915 1 12.5561 -7.42397 -15.2213 5.81317 2.80496 -2.16808
916 1 -16.5116 -16.9208 18.1218 -3.62962 -2.44162 -3.50536
917 1 -24.2676 4.44197 -22.1557 0.143171 -4.06869 -2.17088
918 1 -5.79718 9.05941 1.70121 -1.55209 -0.109578 -1.26507
919 1 -9.9375 17.7912 14.0758 7.83943 -1.71538 6.13344
920 1 3.32872 16.3739 -22.8891 -4.50013 2.65285 -1.37707
921 1 12.0385 -9.3684 -18.1694 2.71467 0.359202 -1.07682
922 1 -11.5653 1.52456 -17.2524 -0.161513 6.52751 2.84197
923 1 0.90501 -11.6955 1.3947 1.5269 -4.58117 0.3421
924 1 -7.84875 18.5807 3.64056 -2.9256 -4.3875 0.218371
925 1 2.28823 8.59877 -3.19494 2.04316 3.78675 -7.47334
926 1 1.71407 -14.8872 7.94025 -2.20285 6.02844 3.14641
927 1 7.37102 15.1353 20.0055 -1.82984 0.378578 -1.5728
928 1 10.6664 -18.573 7.78911 -2.83274 -4.82985 -1.84605
929 1 -5.35244 -13.4826 -6.54094 0.186981 -0.700156 -2.13809
930 1 -18.4723 -18.405 -14.773 -2.92418 -0.365937 -4.59308
931 1 18.4423 -4.54818 -8.66468 5.16774 3.76999 -2.87423
932 1 -18.595 17.3248 15.8102 -1.81332 -0.292647 0.51984
933 1 -15.9019 -21.9468 -22.628 1.60129 -0.617685 -1.36266
934 1 -0.360762 18.3656 -21.1663 3.3667 -0.922574 -0.843039
935 1 23.4311 -10.736 -0.910335 -0.439384 3.7584 3.77269
936 1 9.39808 12.4722 16.6415 -1.34663 2.79254 -2.6726
937 1 5.77147 17.5638 19.7936 2.2255 -1.06185 1.69349
938 1 16.8141 10.429 4.02874 -0.536565 1.12674 4.00844
939 1 -5.39706 -13.369 -16.7831 -1.96174 2.26284 -2.98982
940 1 19.8188 3.61169 -10.8061 0.144759 3.7568 -5.22051
941 1 -22.6104 22.0353 8.53457 0.681717 0.0292605 6.86961
942 1 -5.54582 -16.3584 -16.965 -4.38408 -3.10517 0.828868
943 1 15.1333 -8.8621 4.7183 -2.47314 -4.38597 -3.1003
944 1 -15.9317 -2.81967 -23.4297 0.340364 7.9296 -2.88661
945 1 6.95112 46.5776 17.1786 2.3042 -1.50213 5.67603
946 1 -15.737 -7.96155 5.12885 -0.282267 -2.03546 -2.34671
947 1 -11.4051 19.7832 19.6021 2.05264 0.690851 0.0279003
948 1 -21.8089 6.44811 -5.63075 1.86574 2.21363 -5.24651
949 1 -1.67735 14.4797 21.294 -0.430012 -1.98603 -3.804
950 1 -20.715 6.87096 10.2679 -2.22027 -2.33416 2.43808
951 1 -8.76137 44.624 -15.3601 -0.0308857 -3.8113 -0.61384
952 1 12.1108 -14.6536 -11.6365 3.54998 -1.10071 3.00092
953 1 15.8708 -2.17089 2.49217 1.46121 5.06958 -2.2652
954 1 16.4038 3.84129 -12.8077 -0.488906 0.413359 0.763021
955 1 -12.567 18.8144 -18.7144 3.82965 -1.92993 0.103629
956 1 -11.1146 -7.99465 -9.81165 0.0567222 6.80122 1.62264
957 1 -3.61895 -3.13092 15.8486 -1.97779 2.38652 -5.43374
958 1 2.30609 13.9187 18.3266 -0.131539 -0.321792 -1.84856
959 1 -14.8393 -15.0897 23.2567 -1.81491 -0.182209 -5.26625
960 1 1.49193 -20.0692 4.31001 3.58284 -0.732599 1.3259
961 1 -6.29967 12.1076 1.71811 -2.08042 -1.20392 -0.693453
962 1 -3.82 6.8383 -8.72262 0.436364 2.06702 -3.13623
963 1 -15.0607 26.9901 -12.8932 -0.339594 -1.26796 0.445826
964 1 12.481 -15.5836 -21.8234 0.353551 -5.68281 -4.09618
965 1 -13.8515 13.6051 8.2629 1.81335 -3.84967 0.246402
966 1 -16.8097 -4.9201 14.763 -4.11363 -2.31448 -2.77846
967 1 18.7976 -5.58474 -15.6531 0.629593 0.766537 -3.88947
968 1 -2.49264 24.0376 -14.2436 0.519514 -2.96719 -8.7098
969 1 16.5785 45.1295 0.921034 -5.51268 -3.24218 3.95328
970 1 -2.34099 -22.8841 -12.0048 5.79642 0.932564 2.21934
971 1 14.4197 -5.91034 22.2149 -2.31189 -0.723947 0.814514
972 1 -7.62301 -18.7069 1.19135 -1.78302 3.52074 2.30114
973 1 -11.5201 -1.77768 17.1209 -4.65397 0.402337 -8.00557
974 1 -2.26917 24.0574 -11.336 -2.79154 2.45643 1.03305
975 1 -7.4852 -9.83134 7.54688 0.24135 0.123267 -7.48843
976 1 -19.2833 -4.49544 11.8172 2.69325 -1.80489 -3.21591
977 1 5.38569 -24.2257 12.4713 0.3732 3.71015 -1.77238
978 1 4.54744 15.2987 22.7064 5.1976 0.638562 -1.32723
979 1 9.36282 23.7567 -17.8524 -0.0283988 -1.07131 -1.03791
980 1 3.22987 24.4424 11.0929 -2.04985 -1.86025 4.64074
981 1 5.53168 -6.25706 -2.62786 3.3364 -1.91518 2.84488
982 1 -4.87934 -5.56635 6.4881 -1.90273 1.47803 0.0336428
983 1 -18.623 8.41402 16.5263 5.59376 -0.52718 -3.39478
984 1 -14.3157 18.9568 -5.40582 1.37167 -1.67607 -4.86012
985 1 -17.4246 19.2333 11.4296 -4.77247 2.22971 -0.93377
986 1 -3.08678 6.67755 12.6523 -0.278467 0.630275 -0.386922
987 1 -20.9589 -19.6229 9.58773 3.33551 -3.2325 -1.93654
988 1 -10.7757 -22.6639 7.82584 5.34079 -1.35967 -1.95423
989 1 9.79649 -0.700337 -3.96663 -1.35091 -4.16944 -0.604911
990 1 11.4442 -6.81855 12.9496 1.26739 2.05728 2.00655
991 1 -6.6609 -5.99377 8.4241 1.71961 -2.46314 -1.2941
992 1 -21.018 11.5115 5.01309 -1.85325 2.24011 -1.22395
993 1 21.4779 -0.517789 -22.9017 -6.32413 -0.106438 -3.36896
994 1 -23.7553 -16.4268 14.0076 3.15671 1.67133 0.851748
995 1 6.4117 2.16632 2.49333 -3.14486 2.17154 -5.61547
996 1 20.8449 8.47359 -16.2282 2.29785 6.41257 3.69937
997 1 -23.5938 24.2528 -23.3489 -7.57166 -2.41173 -6.56873
998 1 -2.30074 12.1453 10.8043 1.51123 -0.623423 1.97921
999 1 -24.2716 9.53658 6.62079 3.64832 5.64473 1.49739
1000 1 16.7245 18.2238 -8.60811 5.65085 -1.34656 0.885251
1001 1 -20.9199 -1.11181 -7.19765 -0.475939 6.76557 1.12828
1002 1 -11.9783 -15.5738 2.14663 -1.57897 -3.96679 0.165064
1003 1 13.0262 -15.0559 10.0775 -0.27494 3.11954 -2.39523
1004 1 -24.2215 25.0325 7.16277 -1.27263 -1.41916 -1.97297
1005 1 -14.5998 16.8563 1.53978 1.35334 4.70531 -4.53053
1006 1 -23.874 10.4734 16.231 1.02201 1.82001 0.157679
1007 1 13.0283 -1.50726 17.1329 2.90762 1.35172 -5.81963
1008 1 4.46315 -5.26116 17.4303 3.5161 5.05508 1.84156
1009 1 9.22305 -20.3889 3.28992 4.74557 -1.12216 0.881345
1010 1 -14.0566 6.5787 -7.61924 0.43118 -2.91408 1.08711
1011 1 -19.8757 3.55766 -1.02284 -1.10069 0.921391 0.659231
1012 1 2.68833 2.53366 0.0425174 5.35224 -1.24367 -0.874848
1013 1 5.9425 -15.6616 1.63938 -4.53904 3.01071 -1.9674
1014 1 -19.1618 -23.6953 3.75396 -1.85731 0.931889 6.06728
1015 1 1.03024 6.46342 23.7521 0.143443 0.0989779 -2.81294
1016 1 22.5201 5.26576 9.6114 -3.32749 -3.03782 -0.412623
1017 1 -7.56867 3.99552 16.4855 1.06911 0.703181 0.868322
1018 1 -21.5616 -21.6839 7.14794 -4.81059 1.45238 0.814586
1019 1 5.50762 18.4729 4.53973 0.194448 -1.77593 -0.789999
1020 1 -16.9218 45.4877 7.27094 -1.1181 4.26693 -0.801298
1021 1 22.2929 -19.4306 -4.32208 3.03944 4.02497 0.0213175
1022 1 -9.54427 -21.8435 -13.9826 -0.0977135 1.09576 1.43284
1023 1 10.2529 0.250205 6.10063 2.25328 1.43749 5.64241
1024 1 -3.53297 7.18509 20.4957 1.24152 2.73924 -1.76911
1025 1 8.73219 5.67669 -20.0622 -2.0551 4.49918 5.46363
1026 1 1.00158 11.1983 -12.5991 5.02949 -1.90733 2.58663
1027 1 -21.8423 0.440566 11.7255 2.84149 2.94147 -2.80944
1028 1 -6.73863 -12.7481 -13.0359 -1.59746 -0.517166 -2.16937
1029 1 13.3699 9.52733 -3.16733 -2.1053 3.98892 -2.74858
1030 1 -17.4959 -16.8265 23.6837 -4.91742 5.01253 -0.788343
1031 1 -6.88041 -11.0688 -6.03006 -2.39297 4.16642 4.4912
1032 1 13.0341 6.34602 17.4593 3.188 -3.84273 3.39227
1033 1 -2.37537 -18.5302 1.45601 -1.60137 0.324807 -4.00494
1034 1 -13.2295 12.1384 -12.0854 -0.274824 0.555297 -2.75476
1035 1 9.21411 17.9995 -2.03424 -0.133518 0.432648 4.32817
1036 1 1.74382 -14.0439 17.5186 -5.45824 -0.604307 -3.26821
1037 1 -11.0401 -16.0002 16.1389 -2.80347 0.875962 2.51992
1038 1 -3.7007 9.55977 11.3562 -0.257413 1.49091 -0.393637
1039 1 18.6332 22.9684 -9.31673 0.914702 3.11958 1.33999
1040 1 8.77885 -4.72863 -23.7431 -0.0808714 1.6079 5.64415
1041 1 -3.14021 8.60825 -13.0355 -2.42661 4.59914 -2.23444
1042 1 11.2631 -6.61739 -23.0398 -0.44802 2.54682 2.72274
1043 1 15.9209 8.99801 -4.32647 0.0924863 2.72805 6.85218
1044 1 -3.89893 21.9422 -13.0382 -2.8023 0.795916 -0.186829
1045 1 -3.91477 -1.42768 23.1355 0.0154499 -3.0051 -2.15272
1046 1 16.956 16.8343 -15.796 1.91132 -4.19592 3.05318
1047 1 -19.6743 0.0489902 19.142 1.45999 -2.21285 1.13702
1048 1 -0.479963 1.25249 21.6743 -0.134338 3.77425 -2.44543
1049 1 21.9928 -0.99637 -12.7141 -0.0629645 5.5313 -0.849775
1050 1 13.6034 22.0431 17.4246 2.17185 2.8434 -2.16811
1051 1 0.214265 2.85317 10.7022 1.10555 -5.2696 -0.820911
1052 1 -20.3303 -4.84741 -21.1211 0.351613 1.99204 1.00238
1053 1 5.88131 5.90754 -20.8362 1.21077 -3.58129 0.197713
1054 1 -16.9805 23.1544 0.0633763 1.05506 -2.47842 2.60037
1055 1 -7.21968 18.6546 13.5226 2.84171 0.146452 -2.39244
1056 1 -11.2739 21.402 6.3957 -0.625359 1.44103 -0.609833
1057 1 -7.2234 -18.8701 -16.4515 -1.15711 -0.548136 -0.0279418
1058 1 0.618868 -1.6647 -8.92135 3.26905 -4.29394 -3.28692
1059 1 6.8133 -23.4767 -17.7565 -0.6505 -2.7421 1.67101
1060 1 -19.053 -10.2514 5.69661 7.05029 -2.93194 -2.2097
1061 1 8.55287 6.80729 -13.4835 -1.27056 -0.691044 -0.637583
1062 1 -8.54149 -1.79313 10.1293 0.992147 3.78053 0.253682
1063 1 0.612537 19.3119 11.7732 7.46965 1.38822 3.40251
1064 1 15.3619 -17.7368 6.29993 -0.396774 -0.442104 4.14583
1065 1 11.6954 20.3345 -17.5626 -1.89523 2.39138 1.73368
1066 1 12.3093 -4.41568 22.9497 1.23606 1.13707 2.05009
1067 1 -22.8379 6.03496 8.23804 -3.45769 -1.91944 -2.64388
1068 1 -2.70238 14.3002 1.51072 3.73683 3.88671 -1.19672
1069 1 -21.8462 21.0114 -18.1482 -5.46661 -4.37704 1.73775
1070 1 -8.33775 8.074 10.0814 3.14994 2.97989 -2.0987
1071 1 -17.3017 24.9547 -12.4121 5.60533 0.966414 -1.34277
1072 1 12.8068 9.04943 -17.4236 -2.65694 4.92655 -2.91168
1073 1 0.372909 46.0453 -12.9426 1.73633 -1.57323 -0.391712
1074 1 -10.1386 12.894 -17.3528 -3.00551 0.611676 4.61804
1075 1 -0.593643 11.7978 15.3406 -2.52714 -2.59109 -4.27401
1076 1 21.3332 6.28549 23.0399 -0.830977 -2.33434 -3.26957
1077 1 16.1446 -7.98496 -7.55518 1.86714 -4.21452 0.334737
1078 1 7.95992 -10.1385 10.9987 1.51 -1.41767 -0.26102
1079 1 -14.7769 0.340844 10.8893 2.39322 -1.89487 0.0231779
1080 1 -18.7408 -6.40887 -7.80334 0.546025 -10.959 2.52137
1081 1 6.18062 -5.76772 15.1319 0.864231 4.00383 -1.87451
1082 1 -16.458 -18.3546 -5.95782 3.78512 -2.56658 3.36705
1083 1 -0.583435 22.0895 -18.2503 4.42022 2.14877 1.11733
1084 1 -4.60154 -17.4625 -5.32754 1.30019 0.8006 -1.2418
1085 1 -9.46133 -15.63 -2.33745 -1.64348 -3.8857 0.713498
1086 1 -13.9315 9.24353 -5.84285 1.31442 -1.28963 1.75561
1087 1 9.02173 -4.68061 -19.7394 -1.98821 0.962875 -1.71766
1088 1 -21.6101 23.6372 4.29812 -0.0390846 -0.761639 0.17488
1089 1 -15.4314 6.49667 16.8108 1.38428 -0.594202 1.19633
1090 1 -20.6033 -17.2309 -11.5885 2.66724 3.5016 2.79089
1091 1 -14.9049 10.2634 7.01321 2.03315 2.79669 -2.07566
1092 1 -19.0741 -17.1475 -7.13859 -0.396086 3.22926 0.894901
1093 1 23.2878 8.75777 3.87289 -4.43828 -0.551911 1.19544
1094 1 23.2551 20.4216 -23.4171 -0.161498 3.68637 -0.795632
1095 1 -7.02717 24.2884 -12.4783 1.81773 -1.53262 -0.774562
1096 1 8.73599 16.9736 -14.6767 -2.38299 0.696417 2.16942
1097 1 15.9441 25.3745 12.6729 1.08466 -2.56784 -1.02574
1098 1 -11.3669 -4.49672 21.0186 -3.5806 -3.90956 4.82475
1099 1 17.4348 12.0907 18.0342 5.22442 -4.75653 6.71847
1100 1 9.01401 -8.8494 19.4994 -0.523127 1.22786 6.19551
1101 1 8.01811 -15.7681 12.1501 -2.57654 -4.15592 2.67034
1102 1 14.5632 -14.9136 16.4493 2.9489 -0.705981 -2.44974
1103 1 21.451 6.97066 16.2549 3.00795 2.71688 -0.928193
1104 1 -21.8979 -2.30916 8.7968 -3.85178 -0.153222 -2.90874
1105 1 21.8741 -0.00229243 0.418667 2.63031 -5.52268 3.59198
1106 1 -15.6038 -17.7686 3.88802 4.38758 0.117986 0.532873
1107 1 1.76058 -11.8172 -1.64752 -1.19162 -2.58368 -1.47476
1108 1 12.9559 14.879 21.5776 -2.02127 -2.00881 1.00703
1109 1 -17.5751 -6.08331 4.03081 -4.97009 2.06119 0.401502
1110 1 -12.8311 26.6529 10.1054 3.62853 -0.0155665 -0.131962
1111 1 13.5733 -8.32228 9.52181 -0.786697 -4.44758 5.35472
1112 1 -0.811608 -17.9846 20.4011 0.173759 3.37712 3.31213
1113 1 -19.5378 23.2093 23.4458 -2.56976 0.100529 -4.0423
1114 1 -17.3877 -0.49069 11.4809 0.947555 2.46586 -0.672354
1115 1 21.6188 22.7994 23.2133 2.20608 1.9627 -0.582388
1116 1 -13.9905 1.88997 6.32527 0.464427 -3.19741 1.78218
1117 1 -3.52663 15.7593 8.82147 -7.01881 -1.00892 6.46035
1118 1 18.9013 -1.93734 -14.9349 0.591204 -0.565608 0.459852
1119 1 8.47285 -12.9789 6.32921 -5.52089 -0.630864 2.09477
1120 1 -5.35527 -12.1788 -1.50894 0.760822 1.96966 0.673094
1121 1 12.318 -3.20693 -22.02 -4.14466 2.74959 -0.999179
1122 1 -10.6538 23.2323 -1.04535 -3.54253 1.70138 -1.88212
1123 1 15.3874 -7.13128 0.848266 0.149172 0.60645 1.17081
1124 1 -2.51743 11.3817 -17.1072 3.32078 -0.773391 0.298174
1125 1 -22.694 7.16861 5.73939 -1.27061 6.91455 1.05999
1126 1 -0.511616 -13.5806 -11.5175 -1.34819 -1.44322 -6.11757
1127 1 13.3323 16.8817 -9.44223 1.03831 3.37096 -1.60167
1128 1 0.628953 11.8637 -0.399061 1.7863 0.603175 -2.09784
1129 1 2.08148 -8.82522 22.8544 0.707799 -1.51017 0.992928
1130 1 -4.88844 14.6477 -16.3717 -5.88574 1.53305 1.1525
1131 1 18.1821 -10.232 -3.24569 0.193185 3.06784 1.79147
1132 1 23.1185 -5.16412 18.1441 2.62687 -5.79921 1.1217
1133 1 9.85642 11.2746 19.19 -2.23549 -2.14454 5.24571
1134 1 15.4303 -22.5426 19.8866 0.496391 -0.907024 5.14009
1135 1 4.94872 -1.79763 -23.3144 1.12446 2.09458 -1.73723
1136 1 -18.1126 -20.8199 23.4995 1.85892 1.81854 3.96813
1137 1 5.92881 4.27188 4.39329 3.25744 -5.51483 1.89794
1138 1 -20.8643 -24.1215 5.7423 0.122032 0.401953 1.69319
1139 1 -9.27496 11.0353 4.06755 0.92556 1.26355 -1.46002
1140 1 17.8939 -10.4325 -21.1076 -2.22619 -1.44042 0.607557
1141 1 -20.8909 9.71611 11.4076 0.026552 -1.5472 0.644323
1142 1 7.81993 15.6796 10.6524 -6.60985 -2.34228 -3.66241
1143 1 2.48776 -10.2502 -11.6603 2.27633 2.18442 1.46331
1144 1 19.106 -0.319782 -12.6828 -3.38011 -1.53529 -3.92718
1145 1 2.02577 22.0093 23.1721 2.99618 2.57569 1.01659
1146 1 9.88377 18.8116 19.2553 -1.99793 -0.498261 -2.46538
1147 1 -6.06498 10.1171 -1.60403 -3.09638 -0.0063804 -1.49087
1148 1 -10.5895 11.016 13.3713 -1.34468 -5.25591 1.72913
1149 1 2.30106 -16.0067 10.4585 -0.119352 -9.11262 -0.354661
1150 1 -13.9111 15.7452 10.1556 2.46515 3.47074 4.26726
1151 1 -20.0546 -23.0946 17.0683 -2.87321 1.32224 -0.960579
1152 1 -15.3393 14.5175 18.405 -4.08535 -1.61161 0.464503
1153 1 -2.8618 -21.1708 -0.2318 -0.426669 6.47367 1.59576
1154 1 3.982 12.9863 -21.3352 -2.01844 -1.28002 -10.0378
1155 1 7.88916 -21.2102 14.7992 -3.11052 -0.103844 -2.89165
1156 1 -15.0354 -11.4647 -23.2982 -0.210063 4.9173 0.128763
1157 1 2.3257 -0.0736392 -10.9919 -5.32401 -0.322392 -7.16365
1158 1 -17.3771 1.89895 18.6462 2.21291 4.16003 -5.81385
1159 1 19.0297 -7.80936 13.5021 2.84013 -2.47069 -0.804786
1160 1 -10.6729 7.02772 -9.88188 -6.94383 3.52723 -3.86767
1161 1 -7.04849 46.2707 -19.9932 1.42595 2.93409 -2.07023
1162 1 9.84235 9.2672 2.51238 -2.11426 -2.54259 -5.05246
1163 1 -19.0004 44.9547 12.1752 3.53904 -4.48103 -0.528726
1164 1 -19.4 -13.9824 10.3055 -0.757823 -3.54661 2.09458
1165 1 15.0084 23.1045 -0.258437 3.30699 -3.44302 7.01298
1166 1 -16.7133 25.3772 17.0208 -2.51262 1.35695 1.54035
1167 1 -0.511645 14.8323 18.8268 2.85833 -5.95289 -1.34086
1168 1 11.9227 -10.4805 -2.41192 6.85167 -0.968862 -1.89274
1169 1 13.8863 -8.69902 21.4056 -0.110246 1.63401 -2.75095
1170 1 3.99787 15.8151 10.4556 -0.425998 -2.43054 -7.88386
1171 1 20.5486 -0.536149 -9.11585 3.95005 -1.60145 0.619005
1172 1 -22.0389 -16.2857 -17.0353 2.39389 2.98752 -1.81735
1173 1 8.17085 -20.0329 21.6764 0.728573 6.58964 3.97459
1174 1 -20.3848 -21.3181 -18.7726 -1.38987 0.383532 4.1454
1175 1 -11.0554 14.6623 21.5769 -0.999574 2.79826 1.10531
1176 1 -1.7979 -13.2944 14.3379 2.29523 2.87041 -5.24037
1177 1 8.40379 3.198 -16.8709 -4.78372 -2.55992 5.63616
1178 1 -5.08475 8.08585 8.7887 -3.24033 3.95752 -0.89259
1179 1 8.34952 -7.42617 -9.22857 -0.715241 -2.86294 -5.59308
1180 1 -9.30921 44.7138 -12.6763 8.16468 0.133163 -1.93108
1181 1 9.21255 18.51 -10.0574 -2.27436 0.636355 2.34216
1182 1 20.9262 8.07335 0.658662 1.66686 0.75499 -4.54762
1183 1 2.27585 -6.13965 -13.4075 -1.43371 2.89037 -0.957483
1184 1 5.98278 19.9556 23.2729 -0.745054 -6.38507 2.55788
1185 1 15.1524 13.6538 23.0342 -0.733076 -2.9146 2.16278
1186 1 4.97419 -9.3153 -0.213242 0.539675 -4.20473 0.0642649
1187 1 -13.2723 16.9095 -7.74059 0.602105 -1.06354 -1.14084
1188 1 4.05172 -1.91451 0.321448 3.62597 3.21516 5.03031
1189 1 13.8508 14.5488 4.12445 -1.29784 5.99004 -1.08137
1190 1 14.6132 -1.91288 -16.8342 -2.32527 -0.106196 -1.64877
1191 1 -4.10607 -1.35839 -20.1537 -2.53177 -0.803188 -1.12202
1192 1 -15.1433 0.115543 -10.6761 -1.02005 -2.92233 4.24465
1193 1 10.0182 -1.61368 19.9237 -0.592928 -2.26474 3.3187
1194 1 7.37932 17.3231 -5.80738 -2.43232 1.95273 -0.21273
1195 1 13.8594 -9.89075 -15.7839 0.24146 2.62805 3.47088
1196 1 5.8404 13.3389 -10.934 1.27815 -3.6849 -2.13685
1197 1 -18.422 17.9012 20.9737 0.961124 -4.19652 3.26294
1198 1 20.208 -23.9525 9.82324 4.04124 -8.86912 -5.27413
1199 1 -15.1052 6.18122 -11.5635 3.12843 -1.13647 0.740432
1200 1 11.9562 -11.7363 12.3682 1.15974 -1.40266 -3.94828
1201 1 23.1954 -20.0521 20.0092 0.185444 4.89662 -1.81488
1202 1 -15.4349 -0.967736 -5.09857 -5.06064 1.30032 -2.41433
1203 1 -14.9617 -13.2917 -15.959 -2.9088 -3.55987 2.1515
1204 1 -2.56994 23.3275 1.12476 3.91698 1.00306 0.900027
1205 1 -4.70957 -19.4133 12.7926 0.0244749 -1.99608 -1.64142
1206 1 -23.2426 -21.2818 -22.6446 -4.21329 -6.07418 -0.385507
1207 1 15.5361 -6.12504 -17.8973 1.69429 -3.24521 4.53454
1208 1 22.5526 -5.91526 9.19134 0.916187 -3.03276 -0.608098
1209 1 0.176498 -6.34536 -22.7633 -0.00739511 -0.342875 0.294534
1210 1 -4.26152 21.8207 -2.59541 -2.11223 3.60572 1.7062
1211 1 -17.8119 -10.7609 10.9317 1.7606 1.1594 -2.87107
1212 1 19.6131 5.90275 -8.74422 0.636023 5.72167 0.973871
1213 1 -22.6427 -16.6349 18.0399 1.8753 -1.34015 2.19961
1214 1 16.3678 -2.10894 -0.404262 -0.139438 1.26276 1.71102
1215 1 6.13408 8.62531 -9.3475 0.0954975 4.1623 -2.12746
1216 1 12.9015 -3.93336 -9.15692 -0.731632 2.30282 -7.50118
1217 1 16.2871 -15.107 2.62389 -0.126758 -3.19952 3.23239
1218 1 15.1503 -4.30807 -11.1477 -0.0198359 3.67303 -3.5709
1219 1 13.4183 14.5493 9.46579 1.02632 -7.84527 -3.79868
1220 1 -21.8929 23.3342 15.4765 -2.05509 1.79371 2.04342
1221 1 2.06937 22.9608 -19.7167 7.10005 3.20245 -0.352537
1222 1 19.1904 21.407 12.3231 0.405374 -0.214463 2.07299
1223 1 -22.8371 9.01879 9.20781 -0.281398 -10.3807 4.39264
1224 1 12.9758 -8.49776 15.1737 3.2443 0.833403 -2.57647
1225 1 1.70062 -20.5799 19.7548 -2.69093 -5.74419 -3.83528
1226 1 -22.0043 15.4515 2.35444 1.18179 0.178875 -1.05214
1227 1 -2.71765 -6.96018 0.313522 0.0487442 -0.421871 -3.42506
1228 1 -22.6389 -20.8371 -11.7563 1.19163 0.378229 -5.66889
1229 1 19.7755 -18.7835 -0.473683 -1.67798 -2.38052 -0.423793
1230 1 -13.602 -18.8042 -8.93989 -0.151888 -2.26474 3.70068
1231 1 -20.4789 -9.03995 -4.47274 -0.248383 1.68151 -4.41812
1232 1 -20.2861 18.477 23.0644 -0.386721 0.27703 2.93616
1233 1 -7.65581 0.534007 -18.4451 2.1244 0.434773 -2.89475
1234 1 14.9084 14.0025 6.72825 1.28889 1.16971 -1.15984
1235 1 10.5331 16.0292 2.31211 5.30816 -2.44289 -4.34925
1236 1 -5.4839 -20.5245 15.4701 7.99345 -2.47788 0.972505
1237 1 -17.9754 23.0577 14.3776 -4.91784 5.86979 3.58474
1238 1 12.0721 -2.16002 -11.2767 0.602963 -1.5345 4.89994
1239 1 -1.39268 -23.1523 6.69367 3.18603 -8.74535 3.33768
1240 1 -5.15585 -22.8329 2.38176 -1.82216 1.07082 -4.49334
1241 1 11.4448 15.2633 -19.6982 -2.75945 2.77621 3.21065
1242 1 7.77558 -18.7904 -14.8366 -1.6574 -0.0698676 1.46313
1243 1 9.54329 18.8696 -21.0043 2.6231 3.09425 2.73294
1244 1 -16.5521 1.86201 7.31878 -0.749873 4.66975 0.0695318
1245 1 -18.4425 11.8841 -22.1151 -5.38829 -2.12257 -3.16551
1246 1 -5.00588 -16.071 4.8086 1.35458 -1.55727 4.76275
1247 1 -3.95151 -3.85895 -9.0425 4.41987 -3.53371 -1.84286
1248 1 10.4671 5.33654 18.0762 -0.855029 -0.693887 -1.30676
1249 1 7.65795 13.4151 -20.0402 -2.62873 0.783562 -2.65935
1250 1 6.51451 2.74198 20.9997 2.29991 -6.26417 0.607073
1251 1 21.9791 1.31285 22.6275 -0.753379 1.7576 0.431258
1252 1 22.238 -20.3749 0.299786 -1.30929 6.36014 -1.28916
1253 1 12.3966 22.1394 -2.74099 -2.8556 4.27071 0.348654
1254 1 -20.7283 -20.0626 4.92077 -0.434186 -0.173194 -1.93754
1255 1 -4.99635 -9.60756 9.05093 -0.051371 -3.83837 -2.72632
1256 1 6.38296 -19.8793 -21.0558 2.65102 -2.27972 -0.82321
1257 1 -5.11547 -23.9135 -12.4867 1.98448 -1.07579 0.58051
1258 1 -17.0696 10.7301 21.6673 3.57078 2.79971 1.96694
1259 1 19.5298 -11.1168 7.36037 -1.79183 -3.31693 -2.0739
1260 1 4.38509 -11.2658 -15.6009 -1.20868 5.20618 -2.19131
1261 1 12.1564 -8.8324 -9.36934 -1.3678 0.869997 -0.317914
1262 1 14.9928 -14.8978 -5.20646 0.363379 -1.91 1.20748
1263 1 -14.4843 -4.32627 -3.84252 -1.93738 0.0135485 5.96292
1264 1 -22.5714 -9.28966 -2.56221 1.01383 -2.1003 0.761023
1265 1 -6.44798 14.7601 -11.7402 0.538827 -4.18117 1.39719
1266 1 17.5335 -7.85578 6.01207 -3.82534 3.15291 3.39036
1267 1 -23.969 -14.2406 3.47969 -0.95742 0.601801 2.84084
1268 1 -21.8314 -13.4241 -16.2654 7.7814 5.46561 0.198828
1269 1 9.89568 -7.7796 22.1369 -0.982338 0.889066 -3.69391
1270 1 21.7515 15.21 12.5747 -1.15285 -0.896201 -2.36001
1271 1 -0.713465 2.56118 17.5468 2.88232 -1.71293 1.0611
1272 1 -23.8588 9.7951 13.621 -1.44386 1.46668 -4.07146
1273 1 18.5977 6.07528 19.7395 3.25579 -0.16862 5.84599
1274 1 21.6067 18.4596 -16.7151 1.17855 5.25596 0.0284051
1275 1 2.43195 4.79116 11.0155 -1.47709 -3.72757 -0.570062
1276 1 -0.0383692 -8.73279 -19.7477 0.399259 1.01266 -2.09318
1277 1 -9.52488 25.0317 -5.51316 -2.42116 1.07197 -5.56997
1278 1 15.6544 -6.30857 -21.3662 2.00622 0.136312 -0.980799
1279 1 -21.6366 16.1356 -11.9222 -1.47268 -3.2591 6.9393
1280 1 1.66715 -3.26568 -3.68099 3.07212 1.33763 1.34949
1281 1 15.5231 -11.8447 20.4421 -2.0093 -3.80121 0.894503
1282 1 12.3232 -20.312 -2.82932 -3.84221 -4.81203 1.81319
1283 1 6.26733 -20.8832 -13.5859 -4.33876 -1.76005 -2.69265
1284 1 6.23099 -11.7714 0.361965 -3.02313 3.10548 5.53146
1285 1 -12.418 24.7252 16.9571 7.28289 -1.30006 -1.12892
1286 1 -6.28945 5.64354 -14.2509 3.52845 1.58898 -0.342914
1287 1 10.5597 -19.2341 20.6038 5.38509 8.49284 2.38788
1288 1 -0.784906 -6.143 -13.7206 -5.29697 5.87703 -5.87367
1289 1 20.065 -10.1418 -6.75979 -1.93696 -5.38818 -1.45866
1290 1 1.55305 7.46056 8.6336 -6.84036 -3.06846 -7.95206
1291 1 -18.8123 16.3641 1.06207 0.959435 0.6372 2.33881
1292 1 -5.07168 18.996 -1.44544 3.20021 -1.61213 0.610486
1293 1 -8.24483 -0.289423 -1.74316 -0.693496 -1.59004 3.64803
1294 1 15.119 -11.8098 -7.94663 -5.22653 1.38667 -2.6049
1295 1 13.7656 4.41378 -1.85023 -4.4568 1.66426 -4.66498
1296 1 -8.15611 -11.6824 3.83055 1.961 2.195 0.148194
1297 1 15.3594 16.1314 15.4869 1.56702 2.42971 1.59859
1298 1 -0.561337 -7.24515 -1.53111 -4.52399 0.766533 0.205282
1299 1 -10.3922 -9.82432 -5.05019 -4.446 3.18209 3.99471
1300 1 5.72101 -1.65855 -2.10899 -0.336956 5.04757 -1.90371
1301 1 10.4371 15.1692 -12.755 -1.93477 0.127646 -0.134774
1302 1 -2.61554 -2.72278 -22.4005 5.19943 3.22454 3.71329
1303 1 -5.5468 -8.17656 -14.9091 3.00585 -1.87921 -2.27117
1304 1 3.98103 -0.431382 -4.32214 5.1472 0.977818 -0.593549
1305 1 -5.87604 4.71903 11.918 0.583773 1.61246 1.54924
1306 1 7.22016 -21.9929 -0.729212 -7.22595 2.4248 2.28462
1307 1 -14.0014 45.4307 -4.37491 -4.02016 0.497942 -1.66291
1308 1 -19.7441 -0.996165 6.0539 -0.682839 0.257335 2.73345
1309 1 -2.83983 -9.63463 -6.03966 0.877951 1.11353 -1.48137
1310 1 1.5786 -17.8786 -4.45847 -3.82681 -1.26755 0.280516
1311 1 2.10708 18.6578 -15.3614 1.86425 -1.15665 -0.0370686
1312 1 -16.4967 -7.23095 7.81396 -1.42839 -5.75037 1.85799
1313 1 17.1881 18.9294 22.2479 3.14305 -0.923939 3.06786
1314 1 -16.0542 9.88083 -18.8823 -5.04425 -5.8927 0.61641
1315 1 -19.3368 -14.3639 -21.6742 -3.78759 -1.81187 0.343645
1316 1 21.0902 -11.567 -14.9431 -0.366307 -3.11799 1.43041
1317 1 -12.482 8.06546 -12.8001 0.468143 2.46213 -3.0471
1318 1 22.1744 19.2734 -0.386972 3.47272 -0.128219 -3.40996
1319 1 11.3419 21.6298 -0.152713 0.697558 3.11355 2.12803
1320 1 16.2191 -8.21329 -12.0775 -0.0985672 -2.76242 -0.715785
1321 1 9.95174 -21.1996 -8.8308 -0.784505 0.836557 1.93643
1322 1 1.04001 -16.6309 -7.07084 8.32441 2.97453 2.71902
1323 1 14.9238 -13.3448 14.072 -1.57097 2.25367 -0.677142
1324 1 -9.79958 -21.0265 -19.4598 -2.24309 0.22914 3.42938
1325 1 -5.74149 16.9662 4.45019 -0.594068 0.481262 3.58888
1326 1 -16.9867 -18.7021 21.7016 -1.00242 -3.07707 1.96445
1327 1 -9.1526 21.442 -22.5607 -4.63372 -3.28094 0.384658
1328 1 11.154 16.155 5.05374 0.214178 -7.19151 3.71506
1329 1 22.4794 -14.559 -2.50864 -2.70654 1.4337 2.66258
1330 1 -9.58458 14.9515 -5.57814 3.31991 0.678677 -2.41157
1331 1 -18.1232 6.14342 -1.78147 -3.08164 -0.386156 4.48964
1332 1 13.5414 -20.5354 -22.7581 -2.51929 0.450307 2.48009
1333 1 -1.78049 9.80771 5.78245 -1.34234 -1.24471 -1.12922
1334 1 14.9359 -9.56485 -9.73625 -1.20398 -2.10366 1.82105
1335 1 -14.4539 27.583 -15.7582 0.118003 3.69199 5.79296
1336 1 2.57512 19.7205 -6.66997 -2.99434 -2.57156 1.85604
1337 1 6.75062 -20.6305 8.14435 1.36903 -4.70326 -6.05607
1338 1 0.178533 5.89898 -0.343227 4.84009 1.20646 -4.04019
1339 1 2.13592 -18.1834 21.4558 -4.70643 4.18324 0.116347
1340 1 -20.1706 18.9845 10.7422 -0.305692 -2.00486 -1.40009
1341 1 3.72912 9.23861 11.8877 -0.981928 -0.0733481 -5.22051
1342 1 4.10362 -24.2461 -18.1352 2.5059 -1.40281 6.95565
1343 1 -13.2123 -6.88805 -3.42571 1.69747 2.22457 -0.336824
1344 1 21.821 -10.7569 5.69057 -1.30827 0.437354 -2.61466
1345 1 22.0017 2.91199 -16.7967 -3.52209 -2.3971 -0.541022
1346 1 16.0792 -5.62146 -15.2282 -2.4945 1.27348 0.138123
1347 1 -16.8741 -12.0718 -18.9802 -2.09343 -2.58823 4.75949
1348 1 2.87621 12.2134 -14.6708 0.929114 0.00708188 4.6066
1349 1 1.9385 -12.3194 8.66595 2.23492 -1.45779 4.94719
1350 1 -15.5734 0.275588 -2.35468 5.62163 -2.71064 -3.46934
1351 1 20.0923 -15.4658 17.8377 6.90767 0.498267 2.29471
1352 1 4.94324 24.3915 22.6628 -1.77947 1.79977 -0.349448
1353 1 6.37984 23.892 -1.44877 3.58058 -1.3383 -0.780347
1354 1 -0.935338 -9.04862 -13.9782 1.1518 2.08304 3.42914
1355 1 -5.33339 25.7836 17.8607 -2.0052 -1.56764 2.33501
1356 1 -19.5949 -12.097 -1.77328 -0.655283 -3.18335 -3.49825
1357 1 -19.9002 -11.6114 -11.6563 -1.1762 -1.54653 2.93865
1358 1 -11.7761 24.817 23.832 -5.27179 2.27732 3.14352
1359 1 -21.5341 46.5993 21.9405 -0.297362 8.50141 0.904101
1360 1 17.9736 -13.44 6.59086 -0.773556 -3.64231 -2.11015
1361 1 -6.06284 -21.8108 4.85468 2.13629 -1.45882 3.11633
1362 1 19.7625 21.6962 7.49452 -1.20924 -0.498551 3.33348
1363 1 -14.1633 -11.2642 -19.5922 -2.97528 1.93869 1.86163
1364 1 10.9869 -12.5103 -13.1029 -1.35908 -0.399653 1.84944
1365 1 5.61535 -5.99411 -19.0797 -1.54812 -0.0647555 0.661891
1366 1 20.7139 -16.1052 0.238718 -4.13001 -3.03954 -0.936385
1367 1 -9.75605 -11.7716 10.816 -1.54248 -3.37212 -0.901831
1368 1 -18.4237 17.9432 -1.29875 -0.877889 3.07823 -8.3915
1369 1 22.2605 2.81946 -3.23976 1.27274 -4.85622 0.493753
1370 1 -1.71501 -11.3787 22.1067 0.511548 0.0664038 0.149756
1371 1 -20.6709 10.9369 -2.53675 -1.42164 -5.48716 1.89812
1372 1 -8.96834 11.6041 6.87985 1.86917 0.635104 -2.61641
1373 1 -14.9674 -6.83406 14.3057 0.904307 1.63164 -7.16443
1374 1 -19.4197 23.8831 16.8646 1.78203 2.12003 0.5296
1375 1 19.3726 -9.5704 4.66232 -1.63076 1.70293 -0.846734
1376 1 4.683 7.26363 -7.10865 2.42655 2.90893 -0.619706
1377 1 -14.4885 24.1018 -23.3869 -2.18215 1.5942 -1.31755
1378 1 8.73536 -9.81346 3.31029 -0.0178013 2.03624 -2.2596
1379 1 -18.1387 -18.7716 5.36396 -2.25051 4.13301 2.68995
1380 1 14.6694 21.508 -6.41057 -0.842665 1.86574 -2.9164
1381 1 18.7355 17.4251 10.0591 -1.64901 0.741517 -5.51841
1382 1 14.8639 -12.6873 9.74978 -3.28971 -2.31733 -0.275552
1383 1 -5.92452 44.1511 -16.2857 -0.0500192 3.69971 1.96702
1384 1 0.0525657 20.3825 -13.9009 -0.997506 -7.60418 1.78167
1385 1 -18.3417 22.1902 11.7187 1.40801 0.69664 2.19196
1386 1 -8.71524 9.02493 1.60692 2.10818 3.59695 1.0931
1387 1 -19.4629 -0.179292 -0.851279 -3.32682 2.79205 -2.35498
1388 1 10.7759 -4.76245 18.5003 -1.59458 -2.77514 1.93403
1389 1 18.7523 -6.28761 1.65202 -3.29624 0.516374 -0.780959
1390 1 4.81672 -1.37697 12.154 1.16031 0.282052 6.73141
1391 1 -12.8695 21.8866 20.8779 0.477715 -0.531441 -1.45405
1392 1 20.5366 3.17968 2.82632 -2.90493 3.23558 -2.80988
1393 1 -0.452251 -6.00151 1.96946 2.68528 0.382409 2.45956
1394 1 5.0269 7.06978 1.7259 3.34328 -1.54724 -1.50817
1395 1 1.00795 10.2024 -7.52647 -3.05943 -5.39351 -5.67038
1396 1 -18.5235 -9.21238 8.28779 2.00674 3.04549 -2.32471
1397 1 2.45814 20.984 -9.08712 -6.7657 1.26481 -1.47896
1398 1 2.91835 21.529 -4.63348 -1.32545 -0.0344927 -3.79177
1399 1 -1.42021 -22.8509 -2.12644 -0.298308 -4.46101 0.162977
1400 1 -14.1531 16.3979 -22.2728 4.02911 1.83038 -1.0631
1401 1 22.7955 -22.9203 20.8533 -0.542334 -1.48464 -0.103843
1402 1 -19.2031 -4.71866 -15.8225 -3.38107 0.739702 -2.00034
1403 1 17.1255 46.2176 14.5134 -2.08191 0.176076 -0.560644
1404 1 18.7977 -9.89647 11.189 5.26922 2.99064 2.75581
1405 1 19.7747 21.3208 -22.838 0.520579 -3.896 6.07489
1406 1 -9.25221 2.69242 -11.9652 -2.67437 1.38485 3.074
1407 1 -21.4028 9.35813 -0.013916 -2.73024 0.367739 -2.99526
1408 1 -6.46292 -4.20662 -10.9468 -0.989946 7.46758 1.51961
1409 1 -2.5351 5.15356 -21.9847 1.75968 0.607557 -4.57697
1410 1 1.58835 -22.0972 -19.6842 -1.17818 -2.37524 -0.383859
1411 1 17.6389 -0.9269 -22.2248 0.137492 0.801451 -0.288242
1412 1 -20.8597 13.4685 -12.0282 -3.83989 6.73646 -11.3662
1413 1 -15.2848 2.58362 -20.4508 4.95009 -2.86675 -1.54462
1414 1 4.57418 23.5451 4.85556 0.00948852 -2.63499 -0.720455
1415 1 -5.48783 -22.7227 -0.523689 0.529003 -4.62709 4.27382
1416 1 -22.9167 -7.83958 8.45446 3.19106 1.87216 -3.9746
1417 1 10.6124 5.36238 10.9683 1.01873 -1.22954 -1.01438
1418 1 15.3454 -9.99591 1.98823 1.05635 -1.68868 -2.00252
1419 1 8.29135 21.5835 -4.31651 0.896566 5.22788 1.47302
1420 1 -10.6401 20.3353 -20.3919 3.47081 1.68785 1.28908
1421 1 22.5232 -13.3803 6.82126 1.22099 -1.94088 -1.69919
1422 1 -11.2554 -19.7852 -15.2017 -2.53595 1.56861 3.98381
1423 1 8.14783 21.1374 -17.4385 -4.58393 -1.7073 2.41311
1424 1 20.5558 13.0402 -6.80017 -1.73995 -3.88599 -0.543331
1425 1 1.22843 4.55895 -12.216 -0.976136 2.2041 1.81998
1426 1 3.55971 -18.6978 1.46212 0.206097 1.44952 2.85733
1427 1 19.7784 -14.599 -1.8625 -0.472235 -1.94318 0.523737
1428 1 -5.26378 -13.814 22.4793 -1.50947 -1.9561 5.549
1429 1 -20.9228 -16.2878 4.26993 -0.202152 -2.27234 -3.79548
1430 1 3.35332 15.2916 4.51003 0.817643 -4.27456 0.753705
1431 1 -9.10818 1.06943 -9.44987 1.31324 2.74131 -0.296944
1432 1 -12.3645 7.80633 22.4937 -7.48023 1.79713 1.13951
1433 1 -17.5481 -11.7327 -16.0722 -1.48368 -2.69427 2.87237
1434 1 -23.8418 6.58462 20.2455 -0.728515 1.80089 2.79446
1435 1 17.0694 21.6257 -4.40403 -1.37877 1.74928 -0.68238
1436 1 -17.2622 -4.44848 -13.7565 -0.81713 1.13816 -0.38262
1437 1 5.59691 15.5641 -21.1043 -0.138596 3.02868 -1.26457
1438 1 -2.90637 -2.50426 -11.4812 -1.49813 2.91742 -4.8039
1439 1 -18.1228 12.7619 -12.4978 -5.62396 0.532298 0.416551
1440 1 -21.8702 14.9694 -2.12842 -0.389296 2.75251 -3.08172
1441 1 -18.4926 -17.3928 16.1204 1.3421 0.345408 0.174368
1442 1 -20.9655 -3.47911 -5.89573 -1.5777 0.779635 -5.19659
1443 1 16.7628 -13.2834 18.1228 0.556389 -1.62835 -4.70407
1444 1 12.7709 21.1679 -23.1636 -2.12697 -4.39323 1.57207
1445 1 14.3384 -21.4885 8.4357 0.828891 2.84982 1.10494
1446 1 4.65107 -9.03113 -9.73974 -4.6989 -0.954413 3.32498
1447 1 22.8412 -9.95762 -21.3764 -0.0152911 4.30506 6.00024
1448 1 -16.3405 4.44109 5.73686 -6.38529 1.96116 0.432856
1449 1 10.3988 -4.18797 5.16181 4.31812 3.91189 4.19443
1450 1 -6.833 -2.73575 -7.70147 0.882208 -7.07961 1.66047
1451 1 11.844 18.6708 -11.4825 4.73094 2.84164 2.06851
1452 1 -4.75094 44.7686 -18.7664 -2.65493 -0.592574 2.66131
1453 1 0.412199 -21.4112 -8.65517 -3.53029 -2.14092 -4.18112
1454 1 8.4785 -12.937 -0.767838 -1.14995 2.8138 -1.07919
1455 1 -11.9256 -18.2735 -5.42546 -3.63116 -0.827009 0.202568
1456 1 -15.3667 17.3258 12.4592 -0.80948 -0.657738 -1.04542
1457 1 -22.6489 0.869104 -18.7113 -2.62427 3.06933 -0.283624
1458 1 -20.3522 14.7205 8.7871 -4.26951 -4.01382 -2.051
1459 1 -12.0897 -14.2664 -1.77681 4.01712 3.67925 -1.67288
1460 1 -13.7974 9.10799 -14.9464 2.31892 3.19095 0.423871
1461 1 -14.7165 17.669 22.8757 2.6912 2.09836 0.739626
1462 1 -9.63773 -16.672 9.15726 -1.58259 1.88503 -0.12444
1463 1 6.8799 -0.805046 14.0049 0.933509 -2.43687 -1.18384
1464 1 3.67659 -18.5703 5.95337 -3.58166 -0.087078 2.47626
1465 1 -19.7279 26.3503 -12.203 -0.183149 -0.0272469 2.45666
1466 1 -17.0112 -5.28068 -3.83917 0.784032 -5.95847 3.66883
1467 1 22.5027 -15.8869 -14.7262 3.19725 7.8785 3.62554
1468 1 17.7247 24.9233 14.8067 -0.0810102 2.62517 2.44585
1469 1 19.4019 12.0733 6.24642 -6.74925 4.1605 0.487478
1470 1 -3.24642 -11.8111 4.70092 -0.828425 3.59616 -2.62868
1471 1 -1.16163 -7.6782 -7.2615 -4.49397 0.303661 -7.48891
1472 1 22.1383 3.21118 16.8958 -9.24859 3.74632 -0.4189
1473 1 16.7212 -21.4189 -14.3667 1.17828 4.12674 -1.31563
1474 1 0.276208 22.4862 -22.2238 -0.340577 -1.11985 5.25373
1475 1 -20.4293 -23.8663 -4.40833 -2.32661 3.4597 4.56179
1476 1 -19.4452 14.1067 -18.6701 0.129631 -1.42524 -3.26553
1477 1 19.5543 -1.36232 1.09652 -2.8296 2.86495 0.104545
1478 1 0.594269 2.61836 2.69236 0.724925 -4.30894 -1.2353
1479 1 10.2703 -11.6283 9.99294 -0.0483275 5.15187 1.38293
1480 1 0.979113 10.5832 -4.74239 2.79476 0.365216 -1.7835
1481 1 -8.69208 15.9756 -3.01336 -6.7518 4.02346 0.712197
1482 1 4.86299 23.3966 -20.352 0.413277 0.799442 2.96623
1483 1 11.9242 -23.2362 -18.8794 -1.59119 0.649986 1.2901
1484 1 -3.98363 12.158 7.41435 2.75528 2.06353 1.91744
1485 1 6.64045 -11.2852 -23.6632 1.16347 1.54551 -0.246892
1486 1 -17.4172 -4.63518 17.4303 -0.0885401 4.18708 0.545812
1487 1 -2.05609 5.10173 -13.9565 -7.28143 4.01671 4.12928
1488 1 -17.9786 -15.0149 14.643 -1.77168 4.5574 -2.63996
1489 1 22.419 14.9567 -0.689826 2.4002 -3.79859 -1.44905
1490 1 -20.7599 7.21575 -3.02628 -1.37938 0.00163025 -4.31634
1491 1 16.0842 4.47947 -8.58622 0.471486 -2.23962 1.61206
1492 1 -12.282 14.5968 11.9756 1.87739 -5.55822 -1.67783
1493 1 -1.03565 -8.66867 -10.9617 -2.13737 1.7039 -3.16894
1494 1 -11.5024 5.56085 -20.0415 4.40949 -2.44594 2.77851
1495 1 -17.7361 -8.06108 22.7819 -2.68816 -3.19998 0.280239
1496 1 -3.6547 9.52311 -10.1591 4.00529 2.09254 2.97359
1497 1 14.4199 -11.4163 -18.5045 -0.238085 0.896608 -3.53449
1498 1 -13.6035 7.78356 13.1056 2.5278 -8.32523 0.274778
1499 1 18.4681 5.53377 22.642 0.472816 1.81918 0.279533
1500 1 -16.7646 19.2977 14.5588 1.95987 2.86137 1.2819
1501 1 7.67759 14.479 -17.3879 -2.203 0.034875 4.75487
1502 1 -22.8439 -5.07313 -7.29596 2.29033 -3.2019 0.334735
1503 1 9.62592 25.4898 -22.1457 -0.982149 1.53308 -3.18528
1504 1 -2.14124 -22.7086 -7.24748 -1.61966 -4.55335 0.0164184
1505 1 18.8394 -23.9299 -20.8399 -1.25634 4.92658 2.35593
1506 1 14.6084 13.4548 -3.38134 3.43294 2.45008 2.82141
1507 1 -20.7385 21.6838 -4.79217 -1.96126 2.1789 1.03582
1508 1 21.7446 -10.7339 -4.65811 6.02033 1.82278 -3.29739
1509 1 10.9627 21.5706 -10.9362 1.81596 4.79518 0.644359
1510 1 -15.3285 -10.909 -0.0783689 -0.394441 -0.0968167 -0.260246
1511 1 -21.8041 -4.12828 15.5203 3.33752 -0.232998 -3.14782
1512 1 -12.1448 -11.5849 -1.81343 0.452776 -5.96017 2.46803
1513 1 -19.2933 1.64341 16.5331 1.81943 1.48837 -0.841436
1514 1 -13.2143 -2.27122 -7.86903 0.326722 2.43185 1.89822
1515 1 -3.89294 -20.365 17.875 -3.12645 0.686259 -0.22832
1516 1 -10.0116 24.0949 -21.8693 3.45121 0.316825 -0.285877
1517 1 -22.517 -15.0252 -8.79102 1.36097 1.54238 -4.32696
1518 1 0.581034 14.5894 23.0361 0.219872 -1.83146 3.6409
1519 1 -11.97 -18.2521 1.89366 -1.15424 -4.2202 -2.94498
1520 1 10.6673 3.66549 -18.5601 0.757148 -3.33688 -0.0700463
1521 1 -9.08483 -8.4157 17.5425 -2.37669 0.75056 6.54925
1522 1 -16.0993 -0.384783 -13.4155 -0.699691 0.644109 0.272935
1523 1 -6.75128 6.99862 16.259 -4.34133 3.2264 -6.73122
1524 1 1.00255 -19.3888 7.53844 3.55516 3.02524 1.00392
1525 1 -8.54619 -6.01652 3.79792 -0.342281 1.67053 -0.483313
1526 1 17.6206 23.8466 0.595845 2.44815 2.14847 -1.62885
1527 1 2.19754 -0.289579 -6.7681 0.446743 -0.128237 -4.12621
1528 1 12.0466 13.3074 16.2529 2.78907 0.890295 3.37747
1529 1 -7.11315 2.64699 13.6802 2.61357 3.98575 -2.69895
1530 1 16.239 18.422 4.93821 0.0848154 -0.108496 0.63231
1531 1 8.36796 -7.69084 9.52067 -3.35646 1.87761 3.56858
1532 1 18.8316 -6.87642 -18.2487 -1.51789 -5.16763 -1.0824
1533 1 10.778 22.9866 11.7759 -1.78163 1.96228 -5.81134
1534 1 -15.8816 -6.5401 10.5301 -1.62006 3.95336 -0.000568064
1535 1 1.17703 -9.37308 13.859 -3.48847 1.81604 -0.95197
1536 1 -9.71922 3.48365 -23.2856 0.67821 3.4565 3.22219
1537 1 -3.22088 25.9427 -16.519 0.0962048 4.89364 -0.893792
1538 1 4.88385 18.5693 16.4176 -1.19293 -0.948805 -0.0407781
1539 1 -0.110421 7.95682 -20.3433 0.76645 2.18243 0.721417
1540 1 -21.4782 5.31561 23.7634 -0.276428 5.77932 -1.29972
1541 1 7.36744 -20.8784 -10.7809 2.76347 1.22438 -2.04638
1542 1 -20.9378 -2.31166 17.5977 1.30984 0.235463 3.03077
1543 1 2.75084 0.794206 16.5478 -0.547912 4.55054 1.02244
1544 1 -4.59835 21.056 -19.0682 2.6233 -3.64803 0.588268
1545 1 -4.6146 -13.4272 13.337 -3.15 -1.98997 5.7637
1546 1 -14.8809 -12.4712 19.5665 -1.3194 5.62417 1.96005
1547 1 18.5939 -4.08214 -0.0411453 -2.6907 -2.26581 -1.33226
1548 1 19.4595 -22.9724 -7.76386 -2.31611 5.12496 5.49009
1549 1 -3.47436 -3.1999 -16.9987 -1.38775 -3.1837 1.14083
1550 1 -0.328616 -11.2026 -9.69816 -5.31927 -0.985937 3.52555
1551 1 11.1458 -2.84277 -4.90151 3.28705 4.52287 -6.38501
1552 1 18.2162 8.92019 -17.0754 3.51852 -4.69428 -0.275893
1553 1 -10.4938 20.4518 -15.6402 1.99822 2.58319 1.84742
1554 1 -8.93925 -7.6742 -17.8435 2.22987 -0.987052 3.55645
1555 1 -21.0934 -3.05473 -3.11904 2.26266 1.32625 3.75171
1556 1 -23.9563 -18.9541 -10.0421 6.41131 3.38924 -0.634465
1557 1 9.611 -24.282 -17.1582 -8.20854 -4.29582 2.12707
1558 1 10.1676 -16.8453 -0.280981 0.807125 -2.62647 -1.19622
1559 1 21.3636 17.2928 2.87531 0.259845 2.05374 1.25531
1560 1 -18.7873 -19.8035 19.4988 7.49833 0.309382 0.564186
1561 1 20.0722 17.8505 -4.13378 0.432448 -1.6543 6.66574
1562 1 -0.709605 -3.60417 0.103236 -1.18486 -5.88399 1.09529
1563 1 -5.27958 -4.61871 12.5509 2.51168 -0.452712 3.17249
1564 1 8.08181 16.5512 -8.42492 -2.24547 3.28017 -1.62463
1565 1 -4.30737 15.2226 -13.5861 -6.52939 -5.94791 4.64509
1566 1 -0.240665 -7.54567 6.98187 3.11202 0.380296 -0.564279
1567 1 2.24127 -11.516 -22.2 0.416041 2.8323 4.2726
1568 1 15.9829 21.9444 -9.73838 -5.27223 0.694535 -4.48029
1569 1 9.10001 12.2561 2.56525 1.69668 1.02414 -0.0599904
1570 1 -23.3691 5.77379 -13.5247 -1.59123 4.53576 0.499716
1571 1 -1.03143 -12.0111 -0.684163 1.86296 -2.63167 1.42962
1572 1 -0.334088 -16.3933 11.3845 -2.2371 0.771427 3.59736
1573 1 -11.1762 -13.2767 17.2804 3.14058 -2.3016 -2.18981
1574 1 18.7254 -18.4489 2.76921 -5.53579 -1.70131 1.04368
1575 1 -15.1083 15.3502 4.3577 -1.7953 2.33085 1.25588
1576 1 13.0476 18.0086 -18.8155 1.14416 -0.750315 1.67936
1577 1 17.3194 46.0757 3.57106 -1.42698 -0.235807 -1.0567
1578 1 16.3048 -2.432 -9.50792 -2.24251 1.83212 -3.90165
1579 1 -6.78789 14.903 -6.11584 7.65181 1.58951 -1.07315
1580 1 -15.5532 -23.8966 -8.11463 0.453474 0.513197 1.54519
1581 1 -9.43103 -5.54469 11.5855 1.58125 -2.80874 -1.60284
1582 1 -13.25 8.90563 -1.06536 -2.61243 -4.13748 5.79273
1583 1 9.96047 -4.93283 -3.21505 -5.60916 -1.38148 0.20125
1584 1 -6.40566 -1.5777 17.983 -1.12801 -1.98136 5.91442
1585 1 -8.5847 -13.2179 20.807 4.53139 3.51364 -0.530053
1586 1 -18.363 -23.8405 -0.872446 -0.101052 -1.67539 -1.65589
1587 1 17.5661 -5.6892 -11.6515 1.12487 2.87961 -3.12397
1588 1 1.71794 20.1973 -20.4566 0.586186 3.68184 -0.0937129
1589 1 -10.0424 -20.9744 -3.86067 -2.29766 2.5848 -1.14401
1590 1 20.5526 9.83764 -13.694 1.98202 0.635612 -1.68135
1591 1 14.7336 13.5622 0.388124 -0.585702 -0.790637 0.74942
1592 1 19.3633 8.6649 15.4911 -2.67855 3.1724 2.4691
1593 1 -0.322111 24.6171 -16.4956 5.17493 5.28423 -1.20844
1594 1 11.0524 3.16494 -2.16944 -0.843113 3.23497 5.28098
1595 1 8.006 14.5297 -5.09117 4.11975 5.39817 -2.20276
1596 1 -5.15155 -0.505168 -17.4222 0.81732 1.10681 -1.92209
1597 1 18.818 45.8102 5.85439 -3.07087 -4.60192 2.17715
1598 1 5.45776 14.5453 1.68421 -2.33391 0.301057 1.60811
1599 1 -21.7806 -2.68899 11.5182 -1.06223 -0.472607 3.94141
1600 1 14.3428 -15.2208 -15.9597 -1.61635 -5.56485 2.08075
1601 1 5.53799 13.7547 -15.3755 0.558721 5.14035 4.33887
1602 1 -19.6414 -11.9844 -18.0051 0.287606 -0.98698 -0.0337265
1603 1 5.1068 -10.6831 -12.9093 -1.93467 2.70472 2.19437
1604 1 20.9807 -14.9929 -18.1313 -0.0443224 0.31443 1.83743
1605 1 -1.89898 -0.713269 -9.64237 3.52824 -1.72909 -0.43018
1606 1 -20.8404 19.0563 4.44104 5.57224 -0.2865 3.63779
1607 1 12.1576 -23.0149 -15.8905 -1.38064 -2.81269 -5.18269
1608 1 23.1624 4.16917 6.84348 -3.05365 2.87584 0.317064
1609 1 -21.0513 23.5913 -17.0022 -0.770055 0.661426 -2.42013
1610 1 -10.7777 21.8277 -12.9684 -1.15891 -2.09652 3.74617
1611 1 6.50676 10.2606 -3.66773 -2.28069 0.666921 -5.18197
1612 1 -22.4136 -19.4522 12.0176 0.265856 -1.22719 -2.74314
1613 1 -1.37697 -15.1656 -1.16832 2.34556 5.58693 1.4047
1614 1 -14.0113 -11.3926 4.80214 0.573845 3.55171 0.901909
1615 1 -2.74778 -16.4932 -14.3292 3.40388 1.81867 -0.475607
1616 1 16.2074 -12.6771 -20.3135 -1.12642 -0.555385 3.2157
1617 1 -13.0758 -13.3626 -9.09955 2.62445 -2.55287 -0.0176835
1618 1 9.25805 17.0757 16.0782 -5.50814 -3.01227 2.46961
1619 1 13.58 15.2765 17.4744 -0.775001 -1.70762 0.139334
1620 1 14.8166 -8.79381 -5.21186 -1.84345 -1.88351 1.92064
1621 1 -15.8719 4.33823 12.3207 -6.84859 -1.76827 -0.801458
1622 1 -15.1608 21.9066 14.8758 0.292537 3.93541 -2.16043
1623 1 -9.90349 -15.3404 12.558 4.08398 -0.834722 3.74542
1624 1 5.60922 20.9197 -19.0339 0.43499 -1.32403 2.87971
1625 1 12.7566 11.8191 -12.3637 -0.150314 1.37347 2.97445
1626 1 14.8519 -1.37383 13.211 3.05972 1.47461 5.30949
1627 1 18.7383 -6.87409 22.8555 2.23206 -2.28306 -0.4109
1628 1 19.9359 2.13792 0.0573141 -2.96666 4.02622 -0.805146
1629 1 -6.1403 -23.7279 17.4393 -2.09368 3.74053 1.07593
1630 1 10.7626 -10.876 21.2044 0.637197 -5.45001 -3.34799
1631 1 -23.4796 -19.5986 8.30579 0.605527 -3.32995 -3.24127
1632 1 -6.17828 6 -21.2733 1.56278 -1.99436 -0.230534
1633 1 20.091 19.0888 -20.0012 -7.35442 0.756599 -1.65913
1634 1 -17.3126 -10.9115 -21.4187 -1.79393 0.070576 0.881965
1635 1 7.75119 -13.7467 -12.1265 2.86026 -1.46678 -1.52843
1636 1 17.6967 -11.5553 15.7565 -0.248245 -0.480175 -0.528732
1637 1 -1.39283 21.5039 -2.58321 -0.0980663 -0.612854 0.0076319
1638 1 16.3457 -3.40418 -18.9027 -4.50142 4.88868 -1.63044
1639 1 13.3709 10.888 17.5219 -1.42846 0.648229 -0.467393
1640 1 -15.9874 -23.8689 -12.5566 -2.63924 -2.18206 -0.297233
1641 1 19.6459 -12.5535 18.518 2.90712 1.56973 -2.21435
1642 1 -2.543 22.9703 5.15067 -0.358866 1.39946 -2.86876
1643 1 -6.55237 24.7649 -9.72308 -1.89343 2.5355 0.741002
1644 1 -16.9968 2.3555 10.3702 -0.25748 -1.60808 0.770683
1645 1 -5.09609 -4.67198 -5.90365 1.57924 -1.65781 -0.199106
1646 1 -22.2046 -6.72618 -19.4198 0.906691 0.802518 1.97664
1647 1 17.6421 11.7517 -16.8123 -3.41791 -0.396168 2.37558
1648 1 -20.3216 -16.3593 -23.198 -0.135111 -4.89124 4.28788
1649 1 -16.3417 -6.50639 -9.37827 0.325903 -1.22076 -0.153834
1650 1 11.4544 -3.78396 -13.5005 6.79176 0.606895 1.43624
1651 1 15.4889 -20.1673 -1.28373 -6.87051 -3.81031 5.83109
1652 1 13.0361 5.24717 -19.3748 -2.00964 2.42573 -3.9403
1653 1 13.7891 46.2872 1.4534 -1.49131 -1.22649 -9.66952
1654 1 6.49384 -18.5302 11.8934 0.679534 2.92818 -2.77331
1655 1 -4.15507 14.5642 11.2962 1.57615 -3.70046 2.44045
1656 1 -5.03484 13.6573 19.2857 2.21068 0.342493 4.03237
1657 1 15.6611 7.72798 -11.6225 -2.99346 -2.6853 1.0193
1658 1 -18.8255 21.3496 6.65356 -5.46981 0.593873 -2.69832
1659 1 -6.08678 -23.0568 7.44119 3.21366 2.42596 -4.70319
1660 1 3.95673 -11.2098 23.1135 0.948382 1.02285 3.72134
1661 1 23.028 -1.54275 16.2342 3.63804 -4.12857 -3.80706
1662 1 -8.1597 -23.0647 -9.72893 2.0179 -1.62197 2.42071
1663 1 -15.5225 -0.911274 0.0930413 -1.80816 -1.72931 -0.1958
1664 1 3.42568 -15.6174 -15.0489 3.80291 -5.09468 2.5051
1665 1 -6.23479 8.96905 18.1923 4.99352 3.65742 0.511048
1666 1 16.5401 -9.77714 -16.9106 5.00863 -0.105632 8.32958
1667 1 -12.4056 -1.82893 6.59178 2.12824 4.7476 -2.08278
1668 1 -9.31308 19.4075 7.34306 0.915183 0.525649 0.56679
1669 1 15.6802 -24.0181 -13.6032 2.56339 0.335833 7.67512
1670 1 2.92393 12.8013 -4.4631 0.0124562 -3.41905 0.00970101
1671 1 -14.7086 12.4711 22.4028 3.62889 4.48901 9.2903
1672 1 2.01799 11.9118 23.3321 -0.460786 0.0988877 -3.59039
1673 1 0.838327 -17.103 -0.359942 -2.02776 -1.39599 -0.173793
1674 1 2.32621 -4.82918 -6.00784 0.849768 -3.28039 -4.8174
1675 1 4.24974 9.51215 14.8119 -0.811537 -1.50491 -1.58663
1676 1 -18.4922 2.05263 -4.82292 -1.48872 2.88815 -4.27614
1677 1 22.816 -15.9014 9.9912 -2.3943 -0.890538 0.930254
1678 1 4.41101 24.4635 -17.5396 0.0823479 -2.73619 -1.12553
1679 1 -8.53534 23.522 19.4939 3.0304 1.70831 2.14486
1680 1 -22.6946 -16.5155 -20.3724 2.27845 -1.17201 -0.688194
1681 1 -14.2997 -8.25893 -20.3089 -3.36649 2.36009 4.94456
1682 1 9.48682 8.78681 -0.304932 -2.96898 -1.74541 2.97655
1683 1 14.0177 25.707 -17.0441 -0.342739 0.173364 0.296144
1684 1 4.4203 15.9093 17.7903 -0.136654 3.00388 -2.68139
1685 1 -21.6618 17.2399 18.9393 -1.68438 -2.32106 2.00804
1686 1 12.1355 -9.46897 23.5475 -1.28176 -0.132695 -1.42733
1687 1 19.5741 -14.9627 -13.6844 -2.24174 2.1476 -0.9117
1688 1 -18.6738 -2.52784 -12.0429 -0.988492 -1.53103 1.10302
1689 1 3.31639 -23.0534 -1.68785 1.63343 0.990892 3.41486
1690 1 -5.83449 -23.0841 11.7013 -3.02028 2.23951 6.07979
1691 1 -16.1558 -10.518 6.60403 1.7458 -0.999097 0.727749
1692 1 -6.65347 21.6146 -6.65208 -0.915281 3.10789 -5.26771
1693 1 22.9356 11.5677 22.4368 -0.266913 1.83792 -2.79531
1694 1 -15.3887 4.453 -9.3421 1.86371 -4.14112 -7.08505
1695 1 18.8182 46.5341 -10.1455 1.9803 0.886218 0.710679
1696 1 13.9055 1.21757 3.26283 -3.77222 -1.27516 -0.0831147
1697 1 -11.8258 -22.1081 5.13465 -3.2072 -3.18239 -4.84069
1698 1 -9.91768 10.0449 -2.31764 -2.38062 -2.08373 -5.88213
1699 1 11.638 0.89612 12.769 2.10663 0.196826 5.0646
1700 1 13.4062 -0.23647 -14.7425 -0.744967 -3.38426 -0.154591
1701 1 10.3946 23.5945 -4.04984 -0.711277 -0.605201 -2.61906
1702 1 4.2701 -20.998 9.92989 -2.79537 2.93654 -0.71638
1703 1 3.28512 2.9421 -15.3165 3.97214 3.22026 4.00348
1704 1 -8.2655 -8.92144 4.91888 -3.75601 -1.24218 -1.07833
1705 1 -0.699387 25.7454 19.5141 -6.23103 1.95091 3.17475
1706 1 9.34441 9.29658 -20.7805 2.05577 -4.62896 1.35271
1707 1 -12.1748 -8.34447 17.1423 0.407591 0.117765 0.253981
1708 1 -7.37941 25.6641 16.044 -0.0673532 1.41777 3.28165
1709 1 15.6653 18.9115 -0.944701 4.95549 -7.98833 -5.25155
1710 1 -7.50345 -19.763 -13.4746 -3.49902 -3.81701 -3.09187
1711 1 -1.74501 2.82139 3.92646 1.66276 -1.03302 -0.0470418
1712 1 9.58551 14.7687 -21.8811 2.20923 4.0091 -1.75524
1713 1 21.611 17.1486 10.2749 -3.90801 -2.05508 -5.47772
1714 1 5.47827 -0.121822 -12.7707 0.480378 4.31153 1.45525
1715 1 10.888 25.7437 18.3774 -3.81093 -1.06996 -0.21664
1716 1 15.5716 45.5033 23.5503 1.51293 4.96388 -0.661569
1717 1 11.3744 -16.4012 -2.95249 -0.961577 0.135318 3.48827
1718 1 7.11654 -18.1657 -12.1966 0.322511 -4.13925 0.991382
1719 1 22.7103 8.62501 -1.46391 -2.24555 -0.20429 3.83494
1720 1 -3.64624 -21.8318 8.24912 -0.254114 2.54077 3.56773
1721 1 6.38036 3.87186 11.3425 -4.62881 1.69824 2.39803
1722 1 21.2745 45.8356 14.2022 -4.14861 1.37262 2.17491
1723 1 -23.2877 19.6731 3.03347 0.439404 -0.606982 -2.41935
1724 1 -16.6258 45.7943 -5.69553 -1.78221 -0.325091 3.03331
1725 1 -15.7965 9.27501 -21.6232 -3.44571 -1.54834 1.32105
1726 1 17.4218 21.3729 23.4863 -3.17439 1.2047 0.905726
1727 1 22.2824 -7.00965 -20.8127 2.85843 3.02589 0.352803
1728 1 -21.9636 -9.30918 -20.5113 0.475729 0.766586 1.25262
1729 1 -14.359 10.5778 13.4911 -0.267296 1.25091 -4.51366
1730 1 -3.80216 -8.49443 -21.0168 1.92176 3.091 3.06556
1731 1 21.1244 4.5259 -1.09475 2.23706 -4.24734 2.50654
1732 1 13.5137 -13.6882 7.42641 1.48192 -1.92896 -2.73107
1733 1 -9.33267 -13.8954 5.55997 -2.1863 -2.98584 -0.445009
1734 1 -7.94347 25.2751 -20.4796 -4.88838 1.60676 -3.55662
1735 1 0.988097 19.5565 -17.7698 0.230436 -0.834271 -3.65177
1736 1 18.5349 2.19642 10.935 2.57877 4.09135 3.75301
1737 1 -18.6573 0.810646 -8.32979 1.18509 0.054895 7.26872
1738 1 6.82812 11.6291 -22.1562 -2.77891 0.139375 1.29373
1739 1 -8.29209 -16.7575 15.8345 -2.77602 2.48482 1.46637
1740 1 3.11748 21.0048 18.9307 3.63405 0.256285 -1.73187
1741 1 11.3095 12.3182 21.4422 2.20674 -0.704637 3.72212
1742 1 0.712246 -7.84641 20.2473 -2.14539 1.15041 0.689503
1743 1 20.2985 -17.2733 6.73522 2.62392 0.342996 -0.426715
1744 1 13.5482 23.7977 -7.52645 -1.53237 -0.303587 1.22862
1745 1 7.33619 11.0114 -8.06297 0.752718 0.845583 -1.80181
1746 1 17.2534 23.9917 -13.6425 -3.03848 4.93527 2.03284
1747 1 5.4027 -15.2088 -8.03119 -3.0935 1.89506 -4.00107
1748 1 15.5608 -0.288669 -4.13166 -1.91366 5.58532 -3.4882
1749 1 21.3126 11.3097 12.8167 -1.58618 0.124858 -0.446915
1750 1 13.8574 26.9737 11.0073 -5.53141 -2.19953 0.284717
1751 1 0.256353 -11.5327 15.519 -4.20235 0.0829907 -3.10651
1752 1 -22.9276 16.7005 -18.4363 2.44665 -2.87075 3.65839
1753 1 -20.5783 -14.7491 -19.2276 4.0776 0.119401 -3.73353
1754 1 23.1863 11.5923 -20.508 -1.1512 2.51352 0.580495
1755 1 -9.9921 -1.32762 -10.4335 0.2092 5.32738 0.128358
1756 1 -17.6497 4.69172 8.40121 -0.0458264 2.66282 -3.83362
1757 1 18.0222 -18.0187 -6.9956 -0.151125 -3.3717 -0.0902217
1758 1 21.6835 46.3402 5.58317 -1.72596 0.279662 1.52642
1759 1 22.685 9.12738 11.1433 -5.5474 0.882209 2.21231
1760 1 -17.0944 -13.4274 -23.3594 -1.68647 -0.849794 -3.34729
1761 1 22.4847 -19.6041 -21.9426 1.49561 -0.174477 5.59452
1762 1 5.66264 19.6427 7.29697 0.628007 0.0180289 2.76703
1763 1 -4.26707 2.39204 14.0303 -5.28898 1.25592 0.30784
1764 1 -15.7872 19.3136 -11.7177 -1.246 2.00416 2.40422
1765 1 3.61756 -16.1474 -5.8055 2.00364 3.17531 0.931402
1766 1 -16.9978 3.96872 16.4454 0.636858 4.45267 -1.93696
1767 1 8.24378 26.2253 19.2009 -1.28088 0.394258 -2.76803
1768 1 12.2182 -1.04852 7.91859 -1.15683 -2.03805 1.74914
1769 1 -22.8847 18.5699 14.329 1.05816 -4.90303 -0.13901
1770 1 -6.54874 -1.83793 -23.6449 2.78337 1.45885 -1.52348
1771 1 -0.196583 22.0557 10.2531 -4.33164 3.6724 4.3204
1772 1 13.9264 -22.1334 0.365773 3.5758 -6.22984 0.451791
1773 1 17.549 15.4456 11.8291 0.844511 1.0128 -2.7466
1774 1 17.3741 -20.3271 21.3147 1.71303 -1.68715 2.27792
1775 1 8.54481 13.2563 -11.8559 0.234763 0.974053 2.49485
1776 1 10.9256 10.2047 -4.86359 2.00606 0.268129 -3.74067
1777 1 -22.7081 -12.4167 16.0466 2.31909 2.19291 3.51953
1778 1 -17.5524 -8.4321 -11.4571 5.44 2.77325 4.82187
1779 1 4.75343 3.93653 -8.91738 2.78054 1.507 0.736784
1780 1 6.68027 5.17176 -7.19093 0.378916 -2.84888 1.45468
1781 1 6.5939 19.5608 -21.4977 -6.74839 -0.913628 -0.39327
1782 1 -23.3338 -16.378 -11.2126 -2.70948 -0.931403 -1.41013
1783 1 14.3574 4.66988 -6.24086 2.3066 -2.2912 1.2779
1784 1 -10.0707 15.3688 15.3036 -3.44213 -4.88565 2.37418
1785 1 -6.52232 5.9666 -8.48994 1.78564 -2.63113 5.1781
1786 1 -4.97204 2.43731 -6.55969 4.39919 3.14003 -0.884764
1787 1 7.00489 19.8248 -11.3391 -2.94637 2.90365 -0.105406
1788 1 -13.8138 -16.4222 16.9802 0.0428404 -0.156622 5.59223
1789 1 22.3271 -1.85164 -5.64071 -0.759944 -0.533106 5.46071
1790 1 7.19036 1.50055 -14.5445 3.31995 -3.29826 2.77537
1791 1 1.65095 -10.4242 -14.4274 -3.908 2.9984 1.34989
1792 1 -13.6094 6.72181 7.77955 -0.839322 -0.893007 -0.502874
1793 1 20.3627 7.86701 -22.3735 4.4096 0.168299 1.00573
1794 1 19.5314 1.40563 -21.8374 2.87497 4.65927 -1.06524
1795 1 19.0195 -2.54844 -10.7783 0.461558 -0.546909 -0.1557
1796 1 -21.0711 -12.5104 -22.942 -3.69117 0.926081 5.21993
1797 1 0.14111 18.4982 17.0294 -0.499443 7.87418 1.13904
1798 1 16.7578 -8.28638 -19.5561 4.16228 -0.396485 -0.612287
1799 1 -12.5297 11.6793 -15.9854 3.62963 1.17266 -5.44667
1800 1 -0.10095 4.39292 14.0784 1.30969 -2.10217 -1.3217
1801 1 -7.27762 -19.456 -7.62358 6.01485 2.81681 -5.62835
1802 1 -14.0751 -21.622 -12.4578 3.411 0.130284 -0.87762
1803 1 -12.7676 14.1903 -8.3286 1.51726 -5.19108 -1.09822
1804 1 -0.700945 44.7142 -17.2153 1.96744 -3.9051 -0.85486
1805 1 10.4987 1.97735 -5.10222 0.136363 1.19304 -2.2056
1806 1 8.52037 -5.69768 16.7216 -0.0371414 3.71614 -0.507092
1807 1 -15.9123 -8.54093 -22.7521 -3.70463 -4.314 -5.02882
1808 1 22.7161 -14.1465 17.0008 2.04627 -3.96619 -2.32514
1809 1 8.4145 16.8961 0.35387 -4.41718 6.58676 1.25397
1810 1 11.4998 -23.3176 -7.9464 -0.354357 -1.83982 1.88506
1811 1 -0.409348 4.78329 21.2177 -0.366169 3.32278 0.711768
1812 1 -11.0969 -5.16905 -19.4959 2.35832 -0.528704 -0.408064
1813 1 -16.7879 9.64424 18.3486 -5.12159 1.54282 -1.05646
1814 1 11.079 3.32943 -9.23419 -0.947839 -2.29477 0.928733
1815 1 16.5239 -9.67215 21.893 1.25743 2.25271 2.88329
1816 1 1.76193 18.2017 -9.95921 3.986 -8.09136 -2.11975
1817 1 -0.672501 16.4024 -16.6282 -1.95402 0.931524 2.1455
1818 1 -23.1456 -11.4242 6.37362 0.610302 -1.32114 1.2913
1819 1 -13.2115 -11.0529 17.8278 -0.359451 4.90371 1.49214
1820 1 15.2308 10.6501 -12.6778 1.30165 1.95018 5.31225
1821 1 19.959 24.6662 10.4614 -2.84626 3.05085 5.31221
1822 1 17.3941 -2.67456 -3.24875 -3.30165 1.4378 2.27439
1823 1 8.91327 -22.6713 8.31875 0.712237 -0.915379 0.419406
1824 1 -17.0563 -17.6138 9.41756 -1.26889 0.478227 0.883958
1825 1 7.45338 -11.9659 -4.78561 -5.44527 -2.2804 -5.58205
1826 1 20.7802 9.70448 2.79473 -0.835864 -1.94412 -0.487191
1827 1 17.6189 -23.1465 -3.21878 -4.72497 -0.154516 7.95766
1828 1 -12.046 -22.5412 -19.576 -0.147382 5.05733 -6.54409
1829 1 4.58805 20.0704 10.7233 3.79147 1.78559 -4.82652
1830 1 -16.7519 2.65583 -15.6979 -3.56529 3.2919 3.8947
1831 1 14.2731 -16.6698 -3.14411 -6.87737 -2.29537 -3.33172
1832 1 -21.0151 -13.9531 22.1012 0.585386 6.1236 -1.14663
1833 1 -12.6037 6.04054 19.3312 -0.689869 0.184428 -3.29746
1834 1 9.99237 -8.30887 -21.0879 0.558003 -0.326831 -0.00115946
1835 1 5.04363 23.0272 20.1412 0.0119465 1.12127 -3.28344
1836 1 -9.64867 44.8127 -19.9436 -0.00628893 -1.61327 -2.24925
1837 1 13.235 -24.1434 8.70196 -6.57611 0.27887 -3.67016
1838 1 18.3281 21.483 2.74994 -4.30626 -2.97671 -1.94321
1839 1 18.2517 24.3327 3.55178 0.867251 -4.03473 4.70468
1840 1 -17.6968 -11.1089 3.25075 -4.64398 -2.80208 -2.10466
1841 1 9.69952 -22.7561 -11.5826 3.20295 -2.60544 0.390131
1842 1 15.1611 -21.6653 2.9856 1.60769 0.927309 0.461477
1843 1 2.56316 -4.07647 -15.5904 -1.46158 -0.343475 -1.03127
1844 1 -3.32597 -1.427 7.62291 1.79718 3.77825 -0.359239
1845 1 22.615 18.05 -19.3115 -2.61461 0.958652 1.92599
1846 1 12.2325 -20.5473 6.73274 0.923045 -3.18303 8.98194
1847 1 19.4559 -18.6508 17.9922 -5.3071 1.10896 2.70084
1848 1 4.6272 9.98017 -19.1246 0.738814 -4.13829 -4.45934
1849 1 12.9049 -24.1495 -13.2881 0.437745 -4.67751 0.744021
1850 1 19.208 -20.0196 -8.57482 4.82271 0.643832 -1.14376
1851 1 -5.69702 3.58108 -0.0815877 -0.479854 -1.79925 6.11309
1852 1 -1.33733 -1.44379 -18.4686 0.86679 4.94947 5.65882
1853 1 4.47358 -11.4323 8.45316 1.10264 -2.17084 -1.11165
1854 1 2.78219 -23.7858 13.6001 -5.03415 0.167044 -2.10266
1855 1 1.62892 22.7056 -15.2686 3.59062 2.34383 -5.63616
1856 1 7.11586 -7.91981 -17.7873 -2.26175 -4.12982 -0.629179
1857 1 -1.0421 -18.9998 -1.09101 1.48872 -6.76845 0.141366
1858 1 2.99956 -18.2305 -14.1275 -1.04489 -1.59179 -1.80468
1859 1 7.50422 -16.8619 -17.3651 1.42365 5.63718 -5.13528
1860 1 6.31263 1.02854 11.998 1.17373 -0.549252 2.465
1861 1 -16.0765 -22.3442 -18.0569 1.55068 -1.663 1.41103
1862 1 -10.6778 -3.36814 -8.5986 -1.18445 1.35708 -1.66873
1863 1 -2.96749 -17.2496 -7.86344 0.415201 -1.08172 -4.04003
1864 1 -7.76022 13.0288 19.6861 -3.08677 -3.50646 -1.13949
1865 1 -10.1833 -3.60859 6.99743 3.30095 -5.00805 -6.85797
1866 1 5.57386 23.69 12.3623 -1.25072 -1.60136 3.92957
1867 1 6.47517 -10.662 -2.3478 1.9353 -1.83535 -6.41907
1868 1 -3.56195 1.16957 16.9437 -2.21527 1.70274 0.977197
1869 1 -0.643247 24.7016 16.7884 1.48446 5.9354 -0.663362
1870 1 -20.8448 10.5594 16.8119 -1.01032 -4.06194 5.09328
1871 1 16.0052 -12.6463 4.53156 -0.439593 -2.31828 0.0956062
1872 1 2.41249 -13.0414 -11.8141 -3.22855 -2.02342 0.420976
1873 1 -10.4851 18.9198 10.0585 -2.66707 3.00049 0.397424
1874 1 -8.64247 -17.0125 -21.8706 3.8221 -0.576331 5.60714
1875 1 22.0124 -7.41418 -10.179 1.50587 -1.61486 4.51217
1876 1 -21.9462 10.1611 -20.124 -2.07552 4.38946 -2.59367
1877 1 -13.9592 -4.64229 9.36305 -4.68384 -0.865022 3.44586
1878 1 19.8468 24.012 -0.930843 -2.54543 0.25288 2.25563
1879 1 -17.0682 -17.4248 -21.1582 3.51125 4.4443 0.289082
1880 1 -2.68903 26.0405 -19.3226 1.10041 -0.499471 -1.17355
1881 1 13.9172 2.04523 17.1246 -2.39846 6.29845 4.51768
1882 1 -10.5454 10.019 18.7275 3.97185 -3.08062 2.11241
1883 1 -9.15153 -14.7915 -4.95586 -0.341767 0.230329 -3.64685
1884 1 16.7363 17.0902 7.6131 2.29066 -2.13545 3.76404
1885 1 -6.79888 20.4917 20.4126 2.7142 -3.41752 0.419322
1886 1 18.6207 24.3541 6.76557 -2.29093 -3.54426 2.37033
1887 1 15.6862 -7.36055 14.9369 0.388878 1.70326 0.913112
1888 1 -7.63361 -18.3114 -10.9139 1.45603 -3.18135 -3.82828
1889 1 -10.1631 3.85365 8.91426 -3.07875 0.856988 -2.62868
1890 1 -22.4132 7.72463 22.6128 -2.22377 -7.94979 3.60971
1891 1 -7.44118 -12.9007 -22.1793 3.91861 1.42965 1.14061
1892 1 -2.53151 -16.6034 -17.213 -0.191626 -4.81268 1.65785
1893 1 3.95816 -0.884622 21.912 -2.40199 -1.50253 1.9058
1894 1 4.10582 -19.3114 -5.70432 -1.68243 -0.206598 -0.551586
1895 1 -20.1524 -6.02079 17.4502 -1.87031 2.57108 -1.87026
1896 1 13.8488 20.5367 0.879395 -5.73646 -0.375433 1.17928
1897 1 -12.7336 -23.7342 -7.97127 -1.25396 3.59357 -0.776435
1898 1 -21.1893 21.5089 11.0921 -0.572669 3.63147 -1.28887
1899 1 -7.2252 18.7602 -6.61788 1.61823 5.82532 -2.04701
1900 1 -12.4531 0.73927 8.32576 -0.873499 7.01404 -1.8414
1901 1 -8.95432 -14.0262 -18.3229 6.21599 -2.76174 -1.63268
1902 1 22.3986 -3.56353 -19.7351 -5.28337 -2.59796 -0.472449
1903 1 -0.135268 -18.0627 -16.6594 -5.23874 -3.07358 5.46347
1904 1 -10.0615 -20.1159 17.8892 -5.43033 -3.32491 4.71215
1905 1 -13.4995 10.4063 -9.71873 1.38931 -0.945964 -0.981142
1906 1 -20.9164 -24.2404 10.6519 -0.346991 0.862576 -1.32024
1907 1 -21.3649 -8.15305 13.4377 -1.29549 3.34992 5.61464
1908 1 -15.7368 -2.57685 3.77445 1.9941 5.16829 0.0988465
1909 1 9.45972 -9.069 13.1153 1.25421 -3.31272 -0.892272
1910 1 -9.85579 -11.1474 13.8222 -1.94236 -3.13997 0.348293
1911 1 19.6853 -1.4126 -6.26761 7.49296 -9.39053 1.35526
1912 1 -16.0362 4.03173 -1.1022 -1.47209 -3.78708 -0.743611
1913 1 -0.976834 19.1706 -0.745363 -0.546698 3.32359 -1.53013
1914 1 18.3616 7.94558 3.8994 -2.49077 2.22065 -1.30569
1915 1 21.5076 -23.0551 -13.5477 5.3473 5.08354 3.02388
1916 1 -3.37189 16.9347 2.79858 2.53094 -3.37385 -2.52605
1917 1 22.2321 24.4794 18.5432 -1.57102 -1.31558 -0.740629
1918 1 -20.5698 -0.0520317 -20.3143 -2.02229 0.440239 0.611898
1919 1 -18.2518 8.04921 -14.3083 -2.59486 0.262751 -1.16929
1920 1 -24.0238 -15.4045 0.714821 -2.01095 2.82984 2.04737
1921 1 16.5751 9.96525 -9.84585 0.578902 1.07766 -0.65831
1922 1 9.06493 16.9503 21.0977 -3.73467 3.13294 -1.94686
1923 1 10.2712 -1.01222 -8.94607 1.71633 -3.1542 -2.82907
1924 1 -20.9945 -19.4052 2.01154 -0.83529 -0.435584 1.21203
1925 1 21.5525 46.4143 17.1743 1.07302 5.62726 -1.42161
1926 1 12.6049 -1.65631 -7.172 -2.06459 -1.26105 3.3037
1927 1 -4.79696 -23.0736 -21.3183 0.434711 -1.65018 -3.22504
1928 1 22.8794 -3.50709 5.11727 -2.77849 -4.71795 0.920596
1929 1 6.20059 17.7323 1.82985 -2.77304 4.56706 -1.53547
1930 1 -7.95951 -16.7091 -18.8405 1.57928 0.910354 -0.0811139
1931 1 -9.14643 7.36041 -1.85404 -1.73684 -0.964745 2.86954
1932 1 -3.93758 20.5326 4.2194 0.803772 -1.60831 3.19208
1933 1 -1.64657 18.497 -18.3779 0.620163 4.46382 0.0129843
1934 1 2.97232 -9.15138 -2.03618 -1.27083 -2.54331 -0.0168864
1935 1 19.101 -15.4551 2.48173 0.292918 -1.72408 -0.614574
1936 1 18.6205 -22.8693 22.0742 3.45523 -0.497639 -1.85607
1937 1 1.949 4.14694 19.7931 0.301001 -1.09147 0.280065
1938 1 0.0633007 7.51483 16.8769 2.09073 0.366312 2.26809
1939 1 11.6619 10.1374 -0.985826 1.02662 -1.47514 1.96863
1940 1 -19.4029 46.3467 8.17273 -4.86572 3.12013 1.50074
1941 1 -1.67797 44.9582 -14.5321 1.31075 6.5667 1.91099
1942 1 -3.54113 10.0684 0.110517 2.07456 -2.52881 -0.992454
1943 1 2.56349 14.3653 -7.01582 -1.44557 -1.46128 -0.379452
1944 1 -17.6165 -23.2638 -3.73539 2.39462 -3.08672 3.01162
1945 1 -23.6043 -23.9726 18.5024 0.41864 -3.95707 -2.71142
1946 1 10.5784 8.36918 -7.22512 -1.14418 1.10205 -3.59288
1947 1 -17.5484 12.4597 -15.3487 -2.5457 -2.20206 2.41495
1948 1 8.97214 -2.48035 -14.9699 2.72459 4.15249 -1.43766
1949 1 -8.16537 -5.11579 -8.67015 -0.789299 -0.326455 2.48956
1950 1 19.5858 23.4018 -6.63386 3.95689 -7.64945 -1.45226
1951 1 -2.72852 -16.2828 14.778 1.54411 -1.17243 -3.3056
1952 1 5.67113 -15.586 -11.121 -1.38171 -0.768215 -0.507295
1953 1 18.208 -21.2303 -0.897586 -4.77873 2.41479 -2.3285
1954 1 4.93174 6.1915 10.0875 -0.493276 1.00584 5.30335
1955 1 -11.9668 -17.4013 20.3782 -0.323862 -4.971 5.41239
1956 1 -4.38754 5.10071 8.229 1.16182 5.34449 -2.00736
1957 1 13.9769 17.1762 8.41775 -4.02586 0.73384 -3.01052
1958 1 14.2781 6.71909 14.5575 0.961508 -0.421902 3.19823
1959 1 -23.6374 -3.90653 -2.21305 -0.599229 -0.32808 2.53115
1960 1 -17.6698 -4.9635 -19.9264 3.22971 -2.78656 3.54143
1961 1 16.1242 -15.8836 -7.60073 5.56188 -1.36195 -2.28332
1962 1 -1.66477 -11.7617 -4.7648 2.08637 2.39841 3.85573
1963 1 -0.0784653 14.8394 -0.0978965 5.92212 0.841201 -2.63586
1964 1 20.8412 26.4722 -15.633 -2.16731 -1.37628 -0.292883
1965 1 18.482 -0.506022 18.6805 -2.07402 2.67838 2.88333
1966 1 -16.9911 -13.7572 -12.7729 2.31514 -5.96131 6.56805
1967 1 -14.577 -23.8971 15.9129 -0.710109 -2.63611 -3.43142
1968 1 -22.3671 11.9985 12.3224 3.4849 0.68723 -1.85983
1969 1 -2.46184 -8.24129 10.044 -0.501499 -4.82479 -0.0750402
1970 1 20.9286 -6.0563 -3.37576 2.95092 0.219434 3.54528
1971 1 21.2163 -4.01869 7.61494 2.02072 -3.0317 4.32932
1972 1 -4.35444 -5.85326 10.2653 8.63968 -3.71725 0.787622
1973 1 15.1926 -19.8594 18.4331 -1.84441 -3.09217 1.32822
1974 1 14.8348 -11.1565 12.1832 -1.26634 -4.53768 0.179239
1975 1 14.5396 -17.9658 -19.667 -2.82899 -4.1331 -5.21878
1976 1 21.9888 -9.17 20.2769 1.60799 -0.21845 2.32854
1977 1 16.7019 -16.4436 13.2426 2.80539 2.33211 -0.560085
1978 1 8.37421 -2.60671 22.0324 -5.56494 4.42427 -2.27904
1979 1 -1.14391 24.537 11.7096 4.25241 2.52427 2.63162
1980 1 23.4574 3.238 -19.5395 -2.26308 -3.29043 3.44481
1981 1 14.9386 23.0589 -3.07449 -0.0171587 0.570175 -2.98978
1982 1 -20.9261 -2.447 23.0517 -1.75181 -2.52561 0.265692
1983 1 15.0162 -5.84752 -1.77878 0.658766 1.34359 2.33003
1984 1 1.46716 22.4532 20.4911 4.68096 -4.37666 -2.39958
1985 1 2.76297 -23.0522 -8.92653 2.86227 -6.43334 -0.686155
1986 1 13.0658 -5.15383 6.09472 0.0921438 -3.19169 -3.6223
1987 1 -20.6521 4.10386 8.58857 6.49698 -1.85453 5.31736
1988 1 7.6893 18.2496 13.1116 0.813662 3.93328 -6.46174
1989 1 -11.775 -14.0223 10.7806 -2.71868 -3.117 0.190411
1990 1 19.7174 -16.8435 -5.01003 2.13723 -1.88604 -0.633003
1991 1 -20.9064 46.3639 19.116 -6.11922 -1.36781 1.95693
1992 1 14.2278 22.3153 5.45317 0.750442 -3.30458 1.48762
1993 1 4.02075 11.3134 -12.1938 3.10641 -1.06015 -4.11281
1994 1 -22.7847 -17.3931 2.42655 -0.891136 -1.1292 1.74722
1995 1 1.43302 6.4933 13.1374 -1.09579 1.75752 -1.35784
1996 1 -9.36732 7.68822 22.6027 -2.12991 1.51009 0.160542
1997 1 20.8792 25.8075 8.05681 0.60457 0.362292 -2.44665
1998 1 -12.1651 11.5042 -1.46555 2.03483 -1.51133 -2.51076
1999 1 -2.54424 -9.35912 -23.5255 -8.11447 -3.10011 4.99962
2000 1 0.678769 0.83565 -19.2253 1.72383 -0.0343927 -0.32285
2001 1 -7.54894 -13.4555 -2.69962 2.64033 0.398114 -1.42115
2002 1 -24.0592 23.0327 -6.88814 1.12398 -4.72221 -0.47792
2003 1 9.386 -3.13118 -10.7129 -1.55997 2.46679 1.37438
2004 1 1.29385 -23.26 22.7055 3.46878 3.40197 1.3271
2005 1 1.44685 -5.33917 19.4565 1.88926 2.84434 -5.11166
2006 1 11.9783 -11.5625 -5.33459 4.27295 1.06667 0.854643
2007 1 -9.14435 15.0138 -12.2683 2.47704 0.0119357 -2.89097
2008 1 -10.3607 23.3841 13.6887 -3.30358 -2.86902 3.70193
2009 1 -3.03207 2.62017 0.976332 -2.3092 -3.69638 6.89187
2010 1 -7.79898 5.35511 23.7729 0.212166 4.60542 -3.5612
2011 1 -1.82363 8.48211 18.8965 -4.30408 0.835442 -0.880698
2012 1 19.1029 -22.9073 14.0672 3.29456 -1.59526 -0.0960197
2013 1 -16.36 23.4739 2.75398 4.81494 -2.72705 4.90851
2014 1 -8.49962 -7.53153 13.521 -1.19228 0.335285 -2.21096
2015 1 -3.88524 -5.81255 -1.92971 1.08709 4.83387 2.64482
2016 1 -5.92665 -17.1442 -8.72379 0.301081 1.13729 3.34211
2017 1 12.2614 9.77918 22.9504 4.76072 0.286023 -0.153555
2018 1 -18.2663 -3.64973 5.45311 1.33864 -1.20221 5.20046
2019 1 1.88375 25.1854 20.5247 -4.53895 -4.53438 -0.307701
2020 1 9.15751 -16.1462 -15.124 0.729472 1.74749 1.51478
2021 1 -3.82472 13.7571 14.3753 2.68496 4.72214 -0.835943
2022 1 17.1505 24.7017 10.0956 -3.61578 -0.30589 4.16763
2023 1 -20.4201 -12.3699 6.96846 -4.15701 2.1887 -2.54664
2024 1 9.69282 11.4075 13.7773 -0.989068 -2.18648 -8.50175
2025 1 1.08229 -11.2896 21.1671 -0.278812 1.78663 -2.16918
2026 1 6.3156 22.1407 10.0779 -0.562778 -2.47285 -1.25472
2027 1 3.60375 17.1414 -8.01986 -2.13985 -0.669608 4.42432
2028 1 -1.50819 -5.48049 -17.886 -1.35413 2.59219 -1.60912
2029 1 17.0225 -11.2338 -0.106911 2.22505 -4.88838 5.78006
2030 1 11.3139 -19.4222 -21.3421 0.426514 -4.03065 -0.592752
2031 1 -4.99231 -21.1444 -12.4577 3.37368 1.72224 2.14986
2032 1 -9.60433 8.69429 6.67314 0.685362 3.19913 -2.32031
2033 1 10.9393 12.7101 -1.52799 -3.34258 3.76791 2.0379
2034 1 -10.2554 -4.69058 -17.0504 -2.84632 -0.455044 3.02739
2035 1 18.9571 -18.0816 20.7572 2.32117 -3.67461 1.82626
2036 1 -15.4741 6.5176 -22.1141 -0.999639 -0.389703 3.71391
2037 1 -18.6829 10.9957 13.0265 -2.82231 -0.770289 -2.96215
2038 1 16.5125 2.46118 13.7102 -3.61337 -1.37333 0.836002
2039 1 9.52986 -23.1601 -22.5527 -0.426766 -3.35823 2.89653
2040 1 -5.73162 45.5732 -9.85847 -0.637316 4.08181 -1.73874
2041 1 -9.30668 -13.2642 23.4659 0.546993 3.0904 1.93868
2042 1 4.90473 -19.3851 22.3432 0.999151 -5.57812 2.23638
2043 1 16.3516 11.9191 14.1315 2.52506 -1.61703 -2.2519
2044 1 4.08347 -10.3268 4.25952 3.03178 1.24604 -0.342804
2045 1 7.98132 -19.5356 -18.6804 1.02763 4.93981 0.242804
2046 1 -8.26928 16.5753 17.0021 1.21092 -2.48029 -1.58693
2047 1 -4.98184 -13.7097 6.22345 4.75687 0.961784 -1.8929
2048 1 2.37659 13.7743 -17.9846 4.29517 -2.21282 -2.20268
2049 1 18.504 23.8042 -20.1835 0.572579 -1.292 -0.94763
2050 1 -13.3804 7.71007 -10.0491 1.99009 -0.29961 -0.855416
2051 1 -23.9976 9.57972 -5.98434 0.519804 -1.63145 -4.37269
2052 1 -8.90766 6.21416 -20.4342 -0.76902 3.62395 -4.22468
2053 1 -21.7807 12.5065 -18.5068 -2.7788 -0.346713 -4.11929
2054 1 15.6621 2.70634 1.45656 -0.65475 3.78971 -1.50617
2055 1 5.89648 17.89 9.59899 -1.606 3.97667 4.59583
2056 1 -6.54647 25.737 -22.835 -2.20389 0.84039 -1.50744
2057 1 16.0597 -5.08815 6.23994 -2.87573 3.13284 -1.54325
2058 1 19.6996 12.5639 -11.4507 -2.25562 0.0289512 5.26034
2059 1 6.92894 -9.97613 17.3833 -0.60139 -0.692599 0.806429
2060 1 -10.9957 -1.28536 -1.28338 -1.84049 -1.45773 -3.10283
2061 1 -12.4262 -23.8197 -22.1376 -0.147953 1.71079 0.000170967
2062 1 -15.302 20.6037 -9.26673 1.74279 0.486628 1.59115
2063 1 -9.97693 -12.7649 -20.807 5.641 -1.76036 2.17818
2064 1 -14.4457 -17.2816 8.60679 1.29451 1.584 -3.07752
2065 1 12.5128 -16.1168 20.9653 -2.55588 -2.80529 2.61217
2066 1 18.4125 4.87529 9.58356 -0.642209 -6.47397 3.66319
2067 1 23.3902 10.6237 19.8345 1.1512 1.81859 -0.432607
2068 1 -16.3603 8.25852 -6.81757 -2.12733 -2.4862 -4.19535
2069 1 -24.0404 -23.303 -11.8 0.500842 -2.4801 -5.18713
2070 1 -23.852 -0.988911 -1.46969 6.14181 0.846827 3.79279
2071 1 -18.2887 -12.5255 22.0745 -2.52645 -0.497612 2.30895
2072 1 -17.795 8.03527 20.6324 -1.29136 -0.538447 -1.54055
2073 1 -16.6347 5.08562 -19.8977 0.506359 3.43332 1.49917
2074 1 1.60393 8.54975 -12.6287 2.32973 4.22587 0.00518921
2075 1 -9.34944 -20.4068 21.9744 1.95897 5.93996 5.2527
2076 1 -16.1082 26.8732 -10.2466 1.94645 1.21063 1.94603
2077 1 -16.4639 -3.19285 7.99645 -0.0774083 -3.5889 -0.236483
2078 1 -16.5046 0.824199 -22.3595 -0.344833 -4.71466 1.94768
2079 1 3.87964 -13.5535 -21.2269 -1.23982 0.310623 0.866461
2080 1 -21.1862 45.6632 -18.1051 0.393089 1.71361 -0.443195
2081 1 23.4099 20.9474 -16.5595 2.58414 4.8213 -0.676267
2082 1 -10.2068 20.8324 3.84746 0.931672 -6.24919 -1.95834
2083 1 20.7411 8.54948 -8.62202 -0.599632 3.51532 -2.74008
2084 1 14.7604 19.3169 20.5813 -5.43001 1.54504 -6.09574
2085 1 -20.2104 -19.7869 -10.1758 -1.58041 -0.71278 -2.44809
2086 1 -11.2461 -8.66435 4.32232 6.1171 -2.12874 3.74422
2087 1 -11.3921 5.73259 -13.7681 1.89414 -1.02577 -0.245697
2088 1 7.65463 21.9058 21.5261 0.422849 3.92748 -1.90875
2089 1 9.36139 11.3872 -18.9832 -1.65294 -2.03544 4.55497
2090 1 16.6441 7.73265 15.8171 -0.00724912 -2.63387 -2.69608
2091 1 -6.82778 8.96171 13.9471 -3.98434 -0.819875 -1.9321
2092 1 -18.3301 25.8637 -21.2464 -3.379 6.63771 -2.8805
2093 1 -4.06819 15.2261 -5.02986 -3.92839 -1.48099 2.55561
2094 1 -24.0109 13.0281 -2.08611 -0.0884374 1.86369 -4.40181
2095 1 -21.6852 -9.1577 4.82579 0.866684 -4.15472 0.128537
2096 1 9.68613 -4.91154 2.43428 3.5036 -2.26806 4.0483
2097 1 -5.74313 7.46551 11.6727 3.84291 -2.36944 0.724577
2098 1 -15.7858 -15.9067 -4.44606 6.45607 -2.35348 -1.3617
2099 1 15.1682 -10.2261 8.67313 -3.30255 3.51427 -0.620317
2100 1 -1.17738 -4.63969 21.2326 -2.21252 3.08726 -1.48737
2101 1 -22.6929 -7.04783 17.6212 1.45761 3.60434 0.600941
2102 1 8.29688 6.9634 -8.73688 -0.355388 -3.25593 3.98595
2103 1 11.6736 -16.6457 -16.561 -2.4629 -3.8926 -0.759452
2104 1 -20.2764 -4.66399 20.0474 0.429931 2.74661 0.815533
2105 1 12.4641 8.25626 -13.2279 -3.00683 -1.02097 1.45423
2106 1 -18.6256 -16.6771 -18.6067 -4.37526 -3.1609 3.05637
2107 1 -9.10268 5.56636 -11.7114 -3.22587 -1.12675 -1.16921
2108 1 -8.38804 11.1182 -0.246348 -2.97665 -2.88193 -3.67409
2109 1 -3.50007 12.3164 21.3748 1.52207 -2.40188 3.69211
2110 1 4.70743 9.4937 0.421459 -5.36898 -1.08403 1.25601
2111 1 22.0725 -12.225 20.349 -0.0676904 1.35087 1.06092
2112 1 -11.0965 1.19462 16.4064 -3.2897 -5.54742 -1.35111
2113 1 -18.0517 -2.9887 20.2505 0.717949 -0.194196 0.803669
2114 1 -0.0475009 -23.8239 18.3 3.90245 -3.87388 -2.77045
2115 1 17.793 -14.5729 -11.112 1.01155 -0.310719 -2.18628
2116 1 18.1435 -3.98536 3.51068 -0.073194 -2.45927 0.871018
2117 1 23.2992 23.2509 4.99209 -5.20843 -0.790294 1.45704
2118 1 -12.8459 -1.8605 -3.75557 -1.32319 0.634608 -0.340661
2119 1 -12.3424 17.6647 2.64771 2.97869 0.597825 -4.05614
2120 1 17.83 -19.7718 9.80047 -4.82963 3.03953 -3.65353
2121 1 7.18356 -18.5601 -23.3975 -4.07359 -0.861231 0.0220669
2122 1 12.5906 4.09401 -14.1339 1.10587 -3.25216 3.06983
2123 1 20.6363 -9.25566 -17.1892 -0.918614 0.697077 1.92952
2124 1 20.0484 -5.1107 -19.9937 1.12447 -1.99337 -1.32574
2125 1 -0.0410442 -16.6923 14.1838 7.98696 3.5278 2.0548
2126 1 12.2553 -6.40959 -2.52677 -2.98659 0.746498 2.78761
2127 1 -23.4063 -10.7651 -23.8439 0.266138 3.49215 1.11612
2128 1 -18.3383 -20.8496 -5.04324 -1.96494 -0.483847 -0.723048
2129 1 -12.5169 -22.081 12.5435 -1.64968 0.235813 -0.271428
2130 1 -21.213 9.35354 -4.80719 -2.63492 -1.20516 -1.94275
2131 1 16.3713 -6.54175 3.49219 -0.0373413 -3.60547 0.937086
2132 1 12.301 -23.3791 -23.0978 -5.35502 5.263 -1.72581
2133 1 -12.3015 -10.1342 6.64932 -2.18153 -2.19061 4.04768
2134 1 11.1729 24.831 8.07536 0.678371 -4.05201 2.39191
2135 1 18.3877 13.1867 21.2672 5.97955 -2.43399 4.8955
2136 1 -1.0925 -21.7303 4.45998 -3.55018 -2.9522 -5.87061
2137 1 15.8925 17.2863 -23.0005 -0.67823 2.94576 -0.0148539
2138 1 16.6991 24.6374 -16.3111 0.524451 -1.22806 -0.66321
2139 1 -11.1714 4.3965 -17.5673 -2.48868 -5.6961 -1.65544
2140 1 12.3896 -13.1936 18.0317 4.65081 -6.26802 -2.09643
2141 1 -20.2482 46.5008 1.09849 5.12771 -0.662104 7.17867
2142 1 -15.8179 -7.00747 18.4924 4.40918 2.85927 1.22177
2143 1 19.7393 5.42876 -14.34 -0.662845 1.16638 1.62562
2144 1 3.62728 1.26343 7.4444 2.97902 0.326009 2.54656
2145 1 20.1494 10.8172 21.8227 3.31818 2.21194 -3.24507
2146 1 1.59874 9.84641 16.0806 -1.7565 -1.56231 2.12553
2147 1 3.8638 6.6748 14.9666 -0.927495 1.94668 -1.0063
2148 1 12.7787 -23.1824 20.5001 2.26045 -2.56747 4.36263
2149 1 18.008 -5.47713 -2.58033 4.97769 -0.222405 -3.81973
2150 1 17.9274 -11.1192 2.94803 -0.355468 1.8902 0.278388
2151 1 9.41265 1.21681 -10.7007 -4.38131 5.57258 -2.18783
2152 1 7.01657 22.8918 -6.35654 1.65631 -2.78183 -0.332209
2153 1 -9.53737 -11.0632 -2.72608 -2.24282 3.11423 -1.44505
2154 1 -10.6732 18.9327 -23.1347 -1.31595 0.765945 -3.52058
2155 1 12.2599 2.69448 19.4907 1.8304 0.116346 3.94462
2156 1 -23.0961 22.235 -9.4506 -1.11976 -2.18002 3.64437
2157 1 -3.09202 16.9796 22.2219 -2.02081 -0.476083 -5.74116
2158 1 -16.6933 15.5089 14.5476 2.76366 -1.92265 0.0876859
2159 1 6.16592 -21.4684 12.496 1.41703 -0.663567 -3.95153
2160 1 -22.6241 0.458832 19.3348 1.10936 3.58746 1.96536
2161 1 -1.68155 9.04323 -3.92023 1.07055 -1.2472 1.25142
2162 1 18.0686 11.7298 -5.78851 0.794869 6.17956 -2.86887
2163 1 5.01453 -11.5954 15.7491 -0.439578 -0.602951 2.85664
2164 1 11.8905 1.09934 -7.49201 -2.77918 -3.26695 1.99506
2165 1 19.3585 19.1907 -12.3918 1.4013 -4.00947 5.70323
2166 1 -15.0775 20.9423 -14.1698 -6.60641 -0.629722 0.289433
2167 1 -14.1861 -10.5068 -15.0032 0.411688 -1.6516 -3.057
2168 1 -17.8471 18.9812 3.47468 3.44834 -3.33447 1.94848
2169 1 12.5844 -6.26363 -17.9366 -0.355117 -1.2756 6.06026
2170 1 -7.883 -16.2021 1.95543 1.40681 0.339329 1.50218
2171 1 -3.75424 5.39757 5.48209 -0.491777 -1.8297 -3.09497
2172 1 0.0188328 21.6027 -4.90266 -3.06457 -8.9682 -0.159888
2173 1 21.8647 1.82204 -14.1114 -0.154484 4.80084 2.97509
2174 1 5.10723 5.85127 -2.81743 0.0998098 0.588938 4.52018
2175 1 11.0116 -23.682 10.1369 0.742732 5.27852 0.956609
2176 1 8.92827 -21.13 17.6349 5.12646 3.42441 -3.62769
2177 1 19.1047 17.522 14.4446 -0.968293 -1.32322 -0.99934
2178 1 20.9081 -17.6546 -9.36583 1.14261 -2.05894 -6.60284
2179 1 11.0838 -3.7749 8.09947 -3.00179 -0.17877 1.78385
2180 1 10.1116 -5.07842 -8.51225 2.25697 2.73219 2.84947
2181 1 -15.0186 -21.3985 21.1126 1.48654 4.51036 -4.05234
2182 1 -2.15425 -0.421071 12.4892 5.29151 4.561 -2.80187
2183 1 3.56301 -2.6683 16.1883 5.11191 2.94515 0.911218
2184 1 15.826 18.6531 -18.0836 -3.70682 -4.81071 -1.3148
2185 1 5.35019 5.42997 17.6068 4.44212 1.41031 -0.492008
2186 1 2.3953 -9.73686 -19.0187 -1.59089 -6.06861 7.70004
2187 1 13.1693 -5.62107 9.20035 2.79212 2.90552 3.28403
2188 1 -11.1536 6.89695 11.9268 -0.416103 2.85155 -4.26654
2189 1 2.47201 20.4479 -11.8908 0.846425 5.41525 -4.19347
2190 1 -1.24058 0.82889 -11.9194 3.6799 1.49743 2.61043
2191 1 12.4617 10.3728 3.21353 -0.93891 0.0624053 6.42529
2192 1 -0.405398 3.05625 -21.9214 4.268 1.84615 6.60208
2193 1 17.3441 -14.0339 -15.2099 -0.579024 -0.0266305 -1.39738
2194 1 -19.4823 4.77635 21.7916 1.7324 -0.642123 -3.66299
2195 1 -9.73845 -18.7739 -8.9343 1.56639 -1.49172 -6.90319
2196 1 -2.92566 6.1384 -11.5295 -0.594743 0.0912243 -4.75865
2197 1 15.2817 22.013 19.6348 1.983 1.5602 2.97446
2198 1 4.83692 8.18105 -4.40188 0.063838 -3.49901 1.58682
2199 1 -17.0622 13.664 0.656425 4.24506 -4.22239 -2.17886
2200 1 -2.12314 -22.9711 2.15005 -9.81536 0.708085 -0.102848
2201 1 13.9503 -9.1178 -20.258 -1.12996 3.16104 0.148884
2202 1 19.1955 -19.0757 -20.124 -1.44843 0.13752 -1.5743
2203 1 8.46122 -2.62924 -2.29135 -2.94872 3.98215 -5.42135
2204 1 7.19772 1.00405 -1.82553 -2.10756 0.760728 -0.904776
2205 1 -20.9078 8.90477 -15.7247 -1.05321 0.701509 -4.91106
2206 1 -3.54718 -9.95787 -14.2562 -2.26612 -4.52152 -2.80963
2207 1 -21.7134 -7.97085 -0.397391 -2.51632 -0.270714 0.699724
2208 1 16.0197 18.8555 -3.76383 -1.77182 0.094786 -5.3545
2209 1 21.0292 22.8117 20.4663 -0.737568 2.46486 -4.77678
2210 1 -23.9555 -19.422 -1.89604 -0.425006 -2.91261 0.89834
2211 1 -19.1795 3.82919 -20.6125 0.340058 1.2304 0.136461
2212 1 -18.2932 -4.31934 -6.09059 -1.40751 0.851214 5.35179
2213 1 18.933 9.12074 -4.35308 -3.40526 -0.398062 -6.63271
2214 1 12.9959 8.65258 19.0773 -1.62055 2.61623 1.52105
2215 1 10.3022 12.9716 -4.29884 5.82841 -4.91426 -0.528188
2216 1 0.28966 -0.654157 -14.0287 -4.5216 1.10952 -1.37773
2217 1 12.4878 -14.1282 23.3932 3.95351 2.21656 -4.06383
2218 1 -17.2156 -5.00448 22.2837 0.654183 -4.70199 -2.91548
2219 1 -10.913 -21.9564 15.8669 -2.72379 0.454319 -1.5706
2220 1 0.825677 14.2755 -14.012 -1.37868 -2.23311 4.08224
2221 1 16.9022 2.49398 19.1349 -0.362619 -0.612302 3.56824
2222 1 2.37953 7.84766 4.26938 -1.89651 3.77318 0.934554
2223 1 -21.8054 16.9539 -21.3188 4.98529 3.83162 -0.518559
2224 1 -15.1955 15.8749 -5.53378 -1.60856 0.228204 7.10883
2225 1 -0.245522 -19.5669 -22.9191 2.5267 1.62285 0.135654
2226 1 20.1164 0.948641 13.9321 1.25533 -1.68669 -1.745
2227 1 12.8968 -0.685469 -0.885638 3.92715 3.77119 2.42387
2228 1 -6.39511 -8.20112 -21.8723 -4.12295 -1.3423 7.14259
2229 1 18.1361 3.60718 16.4518 -0.794016 -1.36819 -2.30277
2230 1 3.88699 16.9977 -3.0054 0.750765 0.249716 1.43216
2231 1 -14.6399 24.987 11.7136 -2.69735 -3.63322 -3.35672
2232 1 -21.4769 26.3268 -14.376 -1.90816 -1.80831 -0.404856
2233 1 -11.6244 0.446623 -14.3495 3.46384 0.672751 2.18518
2234 1 -3.81266 2.19993 -4.147 1.11378 0.864134 -1.41268
2235 1 10.6278 -21.6759 12.2088 2.20092 1.49922 -0.836367
2236 1 21.8321 5.49119 -18.6339 -3.13949 0.65607 -1.20842
2237 1 1.14597 46.5817 -22.5283 1.04952 -2.68462 -1.67788
2238 1 18.0121 13.392 -18.9776 1.91585 -1.75085 4.60097
2239 1 -13.812 -10.7963 22.0098 4.38553 -1.0091 5.79139
2240 1 11.7618 18.723 14.693 1.69437 2.59279 1.97998
2241 1 -22.859 -3.15619 -18.0251 7.37083 -3.04029 1.08301
2242 1 -9.70255 -17.1412 18.445 0.391357 -0.575694 -7.06212
2243 1 11.1655 24.4283 -10.7103 0.121841 2.87679 -4.30448
2244 1 23.286 22.6706 -14.3143 3.66856 0.262062 -1.72425
2245 1 22.3111 -21.2798 6.67275 5.20232 1.46376 -7.75075
2246 1 2.26486 16.0325 -16.2058 1.5943 2.90186 -2.73621
2247 1 20.8868 -12.8265 9.30272 2.04944 3.96856 -0.286989
2248 1 1.45377 -7.36524 -10.9664 3.2588 0.0399958 -0.970982
2249 1 -15.7681 13.453 -17.2994 -1.59374 1.11981 1.35763
2250 1 -2.37359 3.85381 12.2482 -2.35776 -0.88961 2.80119
2251 1 -10.1943 -10.8462 -10.6877 -2.14627 2.74736 1.89378
2252 1 -23.2796 -13.2595 -0.990733 -4.26497 -2.38822 6.18418
2253 1 6.28075 -17.3109 -6.00013 -0.419987 -5.06784 -2.07725
2254 1 2.43324 19.8446 16.5905 -0.834644 1.69458 0.71181
2255 1 -2.18792 -2.17875 -14.5497 -3.24946 5.21486 -5.60884
2256 1 13.7964 18.8827 -21.8353 4.22698 -0.234932 -2.29373
2257 1 -0.840734 3.13012 -8.04082 -1.52461 -2.22285 -1.85913
2258 1 -11.6161 16.2247 -23.7166 -1.65971 1.54561 0.805103
2259 1 -21.29 -10.31 21.8152 -4.73919 0.0865254 2.63145
2260 1 19.7937 20.0596 -15.0664 2.88684 -0.542179 -2.33326
2261 1 13.947 -4.11046 -15.0035 0.400354 0.0782989 -3.08864
2262 1 18.9726 45.5825 -3.37792 2.09559 2.72014 2.80844
2263 1 4.72956 -15.038 -1.95457 7.73468 -0.490774 -3.7121
2264 1 -2.42868 19.522 1.80295 -3.3064 -0.515562 2.71527
2265 1 -2.22064 3.08744 19.9649 0.283409 -5.23586 -1.88305
2266 1 -22.086 7.31249 13.2724 1.13263 -1.74704 -0.0809532
2267 1 -9.7883 -14.4073 0.480537 -4.46865 1.33181 -7.24373
2268 1 13.5921 -2.17363 -3.50871 -0.986447 1.76974 6.35916
2269 1 17.8891 13.0683 -23.4558 -4.21704 -0.519483 -1.84608
2270 1 -7.07339 20.9434 1.20765 3.02676 1.38531 2.52802
2271 1 -23.1335 -17.63 -7.60384 -4.55122 0.320038 2.12519
2272 1 2.483 13.5925 11.3895 3.4065 -0.569511 -0.554193
2273 1 -21.6074 -20.7343 14.4688 -0.882192 -0.245912 4.35324
2274 1 -5.91511 0.600665 22.433 -1.98909 -4.85605 -1.17682
2275 1 -11.9091 27.5026 -14.8537 -0.996776 2.43495 -0.238044
2276 1 3.18553 10.6285 4.31172 -2.92407 -4.5916 1.45684
2277 1 -14.1803 4.04081 20.6885 0.849985 0.53182 -0.0884581
2278 1 -15.8322 -12.0998 -4.51101 1.03165 2.31437 0.249044
2279 1 -9.85226 0.49176 6.69337 2.88275 -2.9759 -1.25008
2280 1 14.983 -10.6541 -2.02713 -3.72298 3.63904 3.42865
2281 1 20.4184 14.8251 -23.6591 0.359947 1.09311 1.06603
2282 1 -5.81997 24.7538 8.90273 0.401334 -0.663494 1.54411
2283 1 -21.8518 -14.4553 8.40503 -3.33941 0.337178 -4.70822
2284 1 -20.1021 23.7084 -21.7603 -0.836045 -0.516389 2.20838
2285 1 -21.4609 18.3147 1.13782 -2.8774 -2.47994 -0.0929786
2286 1 2.01791 -12.4315 4.13302 2.03435 -2.44032 -2.64306
2287 1 22.0635 17.101 14.5657 0.453654 -2.34209 -0.905161
2288 1 18.8114 -7.71483 -7.05107 -3.73494 3.06174 -0.562011
2289 1 -2.83933 11.4188 -20.3178 1.58846 -2.39691 -1.04754
2290 1 17.5675 -3.06206 19.7145 3.27858 1.43546 -0.686174
2291 1 -0.832565 21.1165 20.3239 -1.4829 1.80445 -3.45081
2292 1 -12.5231 -10.1317 0.816851 -0.491543 -2.15713 3.65815
2293 1 3.93325 8.86214 9.06904 1.69594 2.48246 -6.65213
2294 1 -18.1565 7.80444 -19.8155 6.02361 1.40689 -0.0888434
2295 1 -16.7536 13.472 -23.7978 1.26738 -0.35932 -6.26205
2296 1 -20.2517 -9.45442 -16.9398 1.07901 -0.62779 0.744334
2297 1 12.0463 6.64443 -21.799 -0.17466 -0.659513 -1.09064
2298 1 -2.47272 -20.3357 -5.15081 -5.25195 1.74179 1.417
2299 1 9.86483 -12.6413 -3.33488 -3.49309 -1.04598 -0.628735
2300 1 8.3366 12.4263 -0.249617 -1.53825 -5.02057 0.63762
2301 1 7.71996 -23.0935 21.4172 6.97651 1.90447 -0.737097
2302 1 14.2095 9.82183 -15.0859 1.44959 0.506549 0.382524
2303 1 -13.3487 14.8306 -11.1738 3.47901 -0.110084 -0.307656
2304 1 7.83599 17.2997 7.38243 -5.44033 -0.0835959 -1.84775
2305 1 -15.4135 19.9695 9.8178 3.70444 -0.872179 -1.24677
2306 1 3.93692 -6.14219 21.0032 -2.10278 3.77089 1.97391
2307 1 -17.334 16.0328 22.7992 -1.46992 -1.61379 -0.335198
2308 1 3.46292 1.92295 -19.8543 2.79573 2.82066 -4.02049
2309 1 21.0718 18.7598 -22.8893 6.53595 3.21147 3.66437
2310 1 6.30075 -17.9867 8.90896 -2.44307 -1.21242 0.0174982
2311 1 5.06044 -0.484889 2.75107 1.06488 0.466356 -1.76365
2312 1 -18.9497 -21.7622 8.36609 -2.1133 -1.26903 0.829448
2313 1 -10.5915 16.1712 -19.4263 1.28117 -0.128153 -3.44035
2314 1 -17.8553 7.39564 9.34617 1.54162 -0.406844 -8.14183
2315 1 -13.9226 17.1233 18.9715 3.05261 0.313188 -2.37132
2316 1 -18.0965 -13.9373 6.01383 1.54988 -0.0669912 0.793845
2317 1 -4.7887 -10.9284 -7.91608 -0.677561 -0.191258 -4.73055
2318 1 18.8488 -5.60175 -5.33306 2.61483 -0.17315 -5.21892
2319 1 5.39143 -6.92439 9.48662 4.49196 1.47329 3.08284
2320 1 21.0748 1.42877 -19.3409 -1.13665 0.423207 0.258609
2321 1 -2.37851 25.3536 -23.7684 2.26189 -4.50349 -1.40852
2322 1 -5.07958 22.4165 19.4613 -2.25137 -1.16953 -0.0217002
2323 1 4.00554 -3.84979 -1.86935 -4.13257 1.80481 1.06791
2324 1 10.1118 -21.3751 -19.708 -1.16874 0.879872 -4.27802
2325 1 18.0258 -21.3465 -16.7901 -1.68304 0.685877 -1.58985
2326 1 20.7151 -9.99722 -11.6055 -0.632915 0.542193 0.847141
2327 1 12.0739 1.22379 -17.7583 1.15121 2.09869 0.128233
2328 1 -10.1716 -7.08917 -3.74585 1.59971 2.01187 -0.425773
2329 1 6.42688 7.83782 12.0631 -1.93521 -1.35472 -1.67021
2330 1 14.4688 -23.6723 14.8284 -3.22009 -1.15334 -0.452849
2331 1 -16.1301 -15.8341 11.6342 0.399186 -1.8544 -1.85488
2332 1 20.1017 -15.4902 9.36031 5.26305 -2.2948 -0.272423
2333 1 10.5073 -19.5653 -14.6158 -1.98638 0.207833 -1.70323
2334 1 -9.53795 21.488 16.0424 -4.55593 0.0871068 -0.336551
2335 1 -6.07909 19.5395 22.9985 -3.81433 -4.05757 2.34559
2336 1 14.6534 -12.6527 -22.5609 -1.92475 -1.96134 -4.21804
2337 1 10.08 0.649188 -1.40571 -1.73822 -1.10516 4.82421
2338 1 -0.805658 -3.64454 -20.1907 -2.06914 2.72855 -0.135478
2339 1 8.37791 9.70601 -5.86922 0.285832 -0.409051 -4.02343
2340 1 7.67795 7.11805 17.6895 -1.19863 -0.884325 0.975967
2341 1 2.38096 -17.6804 -19.8012 4.47937 -2.76939 0.513581
2342 1 10.9387 -13.8945 0.403801 2.72514 -3.3664 -0.974092
2343 1 8.18141 22.3617 1.43881 1.61105 -0.725655 0.715693
2344 1 13.042 24.3504 3.68537 -0.358909 5.15341 -4.61191
2345 1 6.75976 11.0415 -15.0186 4.61209 -3.26985 -0.161899
2346 1 -3.28183 -18.8955 10.062 -1.03446 1.29349 2.14856
2347 1 -13.7205 14.1332 -15.3994 -3.01508 -0.843795 1.47421
2348 1 6.44341 -1.1213 5.27277 -6.8337 2.69867 6.15611
2349 1 -9.55615 24.297 17.1111 -2.57104 -1.18833 3.70411
2350 1 9.7858 4.41894 -14.5642 -1.08022 2.16644 0.480183
2351 1 16.8211 12.8812 -14.0965 -4.16853 4.00329 3.42243
2352 1 -2.83843 23.2338 -19.5632 2.01317 1.77692 1.79855
2353 1 13.8048 -2.1499 5.72987 1.51226 -2.9083 1.67003
2354 1 21.6201 -18.6313 21.7455 -1.07495 0.894247 3.45856
2355 1 -6.53272 1.57294 4.59405 -1.01195 -0.566471 4.93634
2356 1 16.3949 -23.2132 -11.0296 1.33579 1.85973 0.190774
2357 1 -2.91165 -0.114922 1.10138 -0.67981 3.8882 -7.3462
2358 1 3.03721 -14.3564 -9.20497 1.52503 -2.27568 -1.37793
2359 1 9.48531 12.3959 7.23522 1.20802 1.65299 0.0855456
2360 1 11.3594 19.288 5.24207 2.96476 2.71762 1.95361
2361 1 -21.852 10.8181 -13.1579 -2.57849 2.76457 -2.36516
2362 1 -20.393 12.4955 14.5508 -2.03079 6.12404 -0.0964809
2363 1 19.6118 -12.1967 -0.387427 -1.11218 -3.85655 0.643898
2364 1 2.34452 -4.07503 0.484457 0.295142 4.65987 5.88025
2365 1 23.0333 -8.26594 -4.19326 -0.771745 4.51497 -4.92228
2366 1 9.46149 2.30037 2.49482 1.42497 0.0319948 -0.660014
2367 1 2.23474 18.053 14.0385 -1.6107 2.32272 -4.63199
2368 1 -4.83914 -22.1551 -7.70795 0.220465 2.83762 -5.25442
2369 1 19.4122 3.69217 13.5166 -2.79429 3.0868 -2.96984
2370 1 -23.2128 -9.7928 -8.03142 -4.55238 5.8707 1.42101
2371 1 17.6892 -21.1504 1.83692 -2.46864 -0.0467163 2.72047
2372 1 -23.9038 4.12569 -1.19999 -2.15622 1.99632 -6.95803
2373 1 14.0519 12.0524 12.7604 5.03946 -2.01316 1.55183
2374 1 -6.33812 7.35124 -1.55312 -3.28735 0.877176 4.61822
2375 1 6.96713 26.207 12.6317 0.606811 -2.81954 0.2452
2376 1 -16.1436 -1.34955 21.9276 -0.638603 -0.828078 -1.98018
2377 1 -6.19724 -6.83556 -4.34177 -2.76429 2.50718 -3.82865
2378 1 8.36064 0.811899 19.5406 2.62483 3.53238 -2.46656
2379 1 -22.5766 13.2995 9.89051 -0.316454 -2.17854 2.70378
2380 1 8.13674 -15.1793 20.9158 0.964129 2.02375 5.52826
2381 1 16.0608 -8.14543 -2.90835 -0.732575 -1.14824 0.969465
2382 1 -15.9184 17.9337 -16.5934 -0.27062 -3.28519 -1.21102
2383 1 21.0792 -19.8654 2.97367 1.13578 -0.1998 1.44377
2384 1 4.08627 -14.1958 23.6342 1.8718 -2.19358 -1.08521
2385 1 -1.82821 7.38821 3.0729 4.78591 -0.220674 -9.0707
2386 1 3.04169 -3.84005 5.44969 2.88645 -1.24807 -7.29044
2387 1 -11.1076 -4.53231 15.8277 -1.80426 6.70023 2.71398
2388 1 7.29967 25.9786 21.7428 -2.33871 -0.969279 -0.791154
2389 1 6.76329 -12.1666 13.0625 1.81745 -2.56678 -2.44228
2390 1 -22.7154 -7.72062 -6.10682 -0.289007 4.3117 6.73744
2391 1 -7.87027 -1.53203 7.2688 -5.53121 4.18707 4.78652
2392 1 9.39943 -21.8896 -15.4203 -2.58987 1.4196 -1.73819
2393 1 3.48616 -14.4678 19.7737 -5.49984 0.644551 -2.27782
2394 1 15.6457 12.8076 -6.11854 -5.95586 -1.6567 -3.05459
2395 1 3.12514 18.6049 20.3071 -4.04606 3.58378 -1.86728
2396 1 -15.1944 -22.1397 -2.77332 -2.91608 -2.26077 1.81008
2397 1 -14.6761 -5.62312 20.8643 1.85293 0.510561 -3.06789
2398 1 -8.13821 -1.62268 14.5931 2.3157 -1.13155 -1.04322
2399 1 -14.1487 -9.66022 10.9889 2.0313 1.019 6.4654
2400 1 12.9244 -6.71545 17.6917 -0.077981 -1.25861 -1.90078
2401 1 -17.9807 21.8402 -3.69235 -2.12091 5.0861 -0.400661
2402 1 17.0057 16.2602 -19.2499 6.61055 -4.63023 -0.92059
2403 1 -12.3381 0.400772 -21.6992 -5.21287 -2.12053 -1.94534
2404 1 -19.2987 -10.3579 -23.6078 3.74264 -0.425902 -3.582
2405 1 -2.40555 -10.6034 -19.8409 2.24087 0.513568 1.24403
2406 1 23.4189 9.90437 -12.6905 -2.21677 4.35947 -2.02422
2407 1 -13.7769 -13.3137 14.1053 -0.288193 3.25279 -0.855801
2408 1 -21.3017 -3.31697 -11.1759 -1.97227 1.3427 0.286605
2409 1 5.12686 12.3379 15.1565 2.05139 -3.54166 1.82913
2410 1 9.45127 -20.4544 -23.479 -0.442121 2.40712 -0.688707
2411 1 11.6793 12.5922 -20.5626 -0.389948 -5.97587 -7.06042
2412 1 7.92772 20.1268 15.0898 4.87733 -3.44446 1.16542
2413 1 -6.60268 21.3388 3.93534 -0.219399 -2.27697 3.03553
2414 1 12.984 -4.6934 -6.32594 -2.37881 0.316538 0.564437
2415 1 22.9693 -23.3023 23.5857 -3.22642 3.51228 -0.110393
2416 1 6.60966 13.1539 10.1696 0.849446 -1.78684 2.22601
2417 1 -3.90155 -3.60761 0.40687 -0.286199 -2.95456 1.2738
2418 1 15.8533 1.98049 -10.6063 -4.71687 1.2048 -0.425039
2419 1 23.1884 8.68393 -21.2323 0.629113 -3.18427 -3.65647
2420 1 -0.314151 -5.78592 -5.24904 3.32667 0.329694 -1.17633
2421 1 -23.4366 19.3534 -8.72788 0.531204 2.58712 -0.460002
2422 1 -17.8256 6.26052 18.4322 1.82291 0.205846 -2.83574
2423 1 13.7988 23.7603 8.29638 0.316 1.19083 -1.87786
2424 1 -22.6633 16.7467 8.16207 1.68751 1.83814 1.41053
2425 1 -17.7266 9.57025 -23.7566 -0.184209 -0.824898 2.73923
2426 1 -0.777684 18.8212 22.0181 -0.98453 0.799056 2.7173
2427 1 13.4892 4.36138 3.79777 3.12172 3.54944 3.15826
2428 1 14.2813 -17.11 14.4266 4.61951 -4.68444 0.099336
2429 1 -8.2847 -8.3783 -13.4886 8.14663 0.327574 -2.41984
2430 1 -13.3729 -6.05369 16.5567 -4.61733 0.496931 7.21779
2431 1 -20.6314 19.2985 -8.97231 -0.65795 -2.24941 5.11568
2432 1 18.7365 15.4009 -14.2214 0.0027274 1.00332 0.847667
2433 1 18.008 46.0668 18.7053 -1.05809 -0.77873 2.50406
2434 1 0.905855 -21.1093 -1.87979 -0.905754 -0.95307 -3.99501
2435 1 -16.576 23.5494 9.95301 -0.322053 0.125901 4.75063
2436 1 -8.0879 11.0438 17.8394 -4.84946 -2.48575 0.41101
2437 1 -13.617 -5.2406 12.1992 1.18401 -1.72811 1.92499
2438 1 -1.01962 45.3767 -21.1941 0.555436 0.070126 5.34741
2439 1 -13.8088 22.416 10.4877 2.71228 -2.61666 -2.4138
2440 1 4.87175 -2.49472 -14.5051 -1.2537 -1.98577 -0.129459
2441 1 22.4499 14.2858 22.0376 -5.8728 0.970922 0.631941
2442 1 -1.25592 -12.4142 -16.1824 8.19446 2.80726 -1.55384
2443 1 6.96175 8.50511 22.4604 -0.987005 5.48311 -0.936701
2444 1 11.2422 22.7662 18.6928 -0.266755 6.30122 0.47369
2445 1 1.05712 3.23256 23.2054 -2.89667 2.56633 -0.428919
2446 1 0.257714 -3.90445 15.0168 -3.44753 5.2966 -1.20419
2447 1 -3.04404 -15.7866 17.771 5.68623 0.51951 -1.73768
2448 1 -0.276221 -16.5887 -11.1224 2.35513 0.61785 -2.25354
2449 1 17.3022 45.2175 11.8505 3.21501 1.12775 -2.31374
2450 1 5.21541 11.0782 19.1326 3.31372 -0.601039 3.83246
2451 1 9.79834 -23.1356 3.45061 1.66444 4.40934 -1.45052
2452 1 12.7725 16.6276 -16.0858 -0.64882 -0.622874 1.82429
2453 1 0.0892708 12.0811 12.4922 2.9451 0.788367 0.852207
2454 1 -7.28546 12.1015 -19.4914 -0.952408 1.0804 -4.93745
2455 1 12.4721 11.0283 14.8575 -3.69973 0.20487 3.4101
2456 1 19.1077 19.2628 20.0984 -1.94329 0.0041665 -7.04789
2457 1 -4.23294 2.16643 11.2523 2.24712 -3.18712 -1.44682
2458 1 -24.0072 20.906 -2.40993 0.654693 -0.986044 -0.338675
2459 1 -18.9149 17.1701 -7.74203 -3.54424 2.82816 7.68499
2460 1 8.56509 7.36444 -17.4617 1.71939 -0.962337 2.11468
2461 1 -23.3249 20.5668 -5.19967 3.35843 0.936983 -1.03146
2462 1 -14.1894 25.5884 3.26053 -3.41955 1.93489 0.529381
2463 1 -11.8866 -21.5063 -23.5904 1.59801 0.75188 3.30891
2464 1 6.82794 15.1654 -13.1255 -2.36928 -2.96384 -4.02341
2465 1 -5.03538 -14.1579 -11.3284 0.352305 7.48853 1.63783
2466 1 3.18367 2.19249 -2.91232 1.01874 -0.97959 -0.0940172
2467 1 3.44175 -18.262 9.15659 -2.73997 -2.88126 -1.78471
2468 1 -19.2921 44.9563 -5.58848 0.314601 0.405409 -0.891265
2469 1 13.0522 46.034 22.6356 -1.53371 0.386572 2.44634
2470 1 14.6906 -18.4105 -11.083 -0.11514 1.13955 0.97734
2471 1 -4.0407 26.3539 -21.8777 -1.01223 5.17704 1.82569
2472 1 -18.3556 4.48483 13.715 0.562852 0.248723 -0.115409
2473 1 11.5749 10.3333 -8.88584 -1.38617 -3.75637 3.58186
2474 1 -5.03885 -9.11736 -17.546 -0.444776 -0.56852 -0.376795
2475 1 -17.5295 12.0649 10.678 -3.21425 -0.507865 -0.794757
2476 1 -5.80448 -20.2016 -20.0856 -0.369866 -3.62382 -0.560327
2477 1 12.7735 6.68165 -3.40407 0.759472 3.54124 -0.660835
2478 1 -3.08017 -23.0456 -4.31156 1.41669 4.79881 0.116839
2479 1 -20.7887 -3.31459 2.42667 0.853442 2.38814 4.04087
2480 1 -0.107801 19.1841 -6.38281 1.90706 1.08735 -0.901616
2481 1 -14.1195 -8.3609 -9.7498 6.4899 -2.64801 2.68623
2482 1 9.18936 -7.46177 1.48965 3.55343 -1.28112 -0.00434241
2483 1 -0.822747 12.2406 -10.441 4.31463 3.95209 -0.482581
2484 1 2.00353 -17.0129 -9.84573 -6.29473 -2.83897 -5.36872
2485 1 1.0654 -16.7776 4.33004 0.65967 0.194246 -0.137055
2486 1 -3.17082 -19.2257 7.20083 0.926065 2.9632 -3.6266
2487 1 2.86658 19.0262 -0.785141 0.913936 -2.08988 0.746915
2488 1 -9.04653 20.5425 18.5646 0.0591541 0.660082 3.15167
2489 1 5.02483 20.9414 -13.127 -1.12314 0.219839 0.667756
2490 1 -10.8358 23.9954 21.2928 2.28681 -0.756167 3.52777
2491 1 12.6307 -22.8501 -4.29953 1.64155 -0.532472 0.471752
2492 1 22.9904 14.6447 5.03678 -2.62972 0.17364 1.10564
2493 1 20.714 22.006 -20.1516 1.34758 4.48226 5.53401
2494 1 -10.9191 -15.4246 -21.0711 -1.14468 0.625916 1.27991
2495 1 12.9919 -13.4681 -9.17 -0.326405 2.62975 1.75593
2496 1 3.66608 0.57838 -22.4815 -0.0140042 0.740662 4.6346
2497 1 2.73311 7.71717 19.8204 0.392177 -1.9682 -3.34217
2498 1 -5.21934 7.58861 5.85849 1.55067 3.41727 0.118727
2499 1 -23.3047 -16.9524 7.59948 4.22976 0.142189 -0.80465
2500 1 10.0421 22.2973 7.35823 2.04976 -2.71027 -2.77356
2501 1 4.96956 14.4242 8.23448 -0.732863 -2.71939 -1.10558
2502 1 -5.63252 -11.8596 11.0746 -3.12969 0.652374 -3.03459
2503 1 17.1588 14.8094 -2.69536 -0.833638 0.498372 3.61989
2504 1 8.93455 11.8897 9.71296 0.847719 5.69618 0.233049
2505 1 -9.93848 19.0999 21.9232 -4.45687 0.95721 -1.40314
2506 1 21.9854 10.9426 -7.76702 1.89526 1.28337 2.17788
2507 1 6.74844 -4.22213 -15.656 -0.796569 -0.171949 0.727748
2508 1 10.8873 23.2466 -7.07959 -2.76156 3.63507 0.619272
2509 1 -4.10858 -6.48252 2.78656 0.941378 -1.41782 -3.36751
2510 1 -21.5526 4.43079 -3.23112 0.246737 -4.7386 -1.03137
2511 1 2.49101 5.93972 17.5265 -4.67135 0.794382 1.04836
2512 1 -8.78095 13.1043 14.0437 -0.00450728 -1.16795 -0.811569
2513 1 20.1802 6.63067 8.50757 0.085023 -1.551 -1.73413
2514 1 -22.5206 14.9283 22.7614 1.54951 -2.68939 -1.17917
2515 1 0.527658 -18.5277 2.10594 -2.78319 2.93879 -7.11915
2516 1 7.14937 9.8823 -17.73 -2.1956 -0.979485 0.176658
2517 1 -11.1108 -13.4586 14.4334 1.1485 -2.27898 4.76149
2518 1 -0.543459 -0.531676 -0.443485 4.42879 1.56331 -1.36094
2519 1 -24.0702 23.761 13.922 -3.42254 -1.68807 4.25001
2520 1 -24.2295 -0.775768 -7.86725 6.47587 0.917565 -3.72378
2521 1 10.7195 6.90862 13.1829 -1.77485 4.29618 -2.68584
2522 1 0.129838 10.8509 2.34714 -0.0401486 2.79584 1.95576
2523 1 -15.0503 46.5899 -23.398 3.38769 3.66653 -0.561543
2524 1 11.5031 22.6431 -19.2497 -3.36759 -5.19296 2.19239
2525 1 -12.7523 -16.1767 -7.70725 0.47325 -0.582865 4.92908
2526 1 -11.6178 -3.5053 -14.8379 0.110271 2.05493 1.3344
2527 1 3.47477 5.77101 7.3065 -0.142447 -0.189833 0.748456
2528 1 -8.42332 14.5489 7.12017 4.34207 -1.31786 -3.26994
2529 1 -17.8237 -8.12865 -3.28624 3.24964 1.38449 -0.463756
2530 1 5.49236 -14.8441 -16.8528 -2.94038 1.88885 1.81292
2531 1 -18.5746 -9.23134 -14.9192 -3.28956 -3.78782 -0.630539
2532 1 -16.1446 -13.4337 3.84173 3.12903 -2.61512 -4.52188
2533 1 -14.853 22.9655 -1.88192 -2.57814 -2.37889 -1.35274
2534 1 -19.2674 -9.35788 -1.12508 -4.91754 4.31836 -0.633979
2535 1 15.9764 -4.5814 15.1461 0.252613 -4.63197 2.3389
2536 1 -21.509 -18.6978 -22.1895 6.41563 6.27745 -1.0915
2537 1 -2.53007 -24.2382 14.8547 -3.38063 -1.06501 0.751152
2538 1 -4.81974 3.44345 -21.4461 -0.860648 1.48432 0.297217
2539 1 13.0272 -12.8413 20.6617 -3.33969 -2.43972 3.60622
2540 1 20.6441 -9.5782 15.6148 1.43023 -2.96998 0.11571
2541 1 7.0475 8.5193 15.372 1.10098 -3.07875 -0.417857
2542 1 -11.379 -7.88321 -19.7154 -1.17987 1.7773 1.21074
2543 1 -15.1825 -7.55017 -7.0779 -7.37296 0.116759 5.51293
2544 1 10.9484 4.26616 6.87203 4.76283 -1.90861 -2.81487
2545 1 -10.702 9.65526 -20.1573 -3.87082 6.11961 -1.55037
2546 1 -16.2551 7.69862 14.4095 0.467631 -0.414784 1.56546
2547 1 -10.9449 -0.951842 4.16334 -1.68437 -3.35615 1.20332
2548 1 15.4563 -5.35196 -8.31173 -1.72622 -5.7755 3.76277
2549 1 10.6505 11.1114 -16.3347 -4.35226 -4.44845 4.57035
2550 1 -20.9935 -18.5431 -19.0908 2.31646 -3.40441 0.791069
2551 1 -6.78663 11.0318 -14.9827 -1.90094 1.1587 -0.886312
2552 1 -0.846512 -15.4354 7.45685 -1.15951 -2.30304 -1.14162
2553 1 2.07144 24.5238 16.1924 -4.13649 4.9425 2.47563
2554 1 17.7471 24.4507 -4.94743 -0.630303 0.769262 2.27671
2555 1 4.95428 12.9581 -8.03364 2.29852 -1.10213 2.83162
2556 1 -7.61322 -13.3917 9.92729 0.711927 0.636232 3.9228
2557 1 18.0311 45.9085 -14.5042 -2.98027 -2.69976 1.05731
2558 1 -19.7742 9.14359 -21.5188 -0.367693 -3.50523 -2.50284
2559 1 -15.843 7.38596 6.21692 -4.48958 -0.258412 -3.0529
2560 1 22.2395 -23.6851 7.99409 -2.72058 2.49395 -3.98173
2561 1 -11.3844 -1.49735 11.5455 5.49293 -2.48656 1.01009
2562 1 -22.9665 -3.85199 -13.7238 -3.73793 2.71295 -0.433364
2563 1 19.6506 -4.99583 -22.8173 -3.70268 2.86372 -0.293166
2564 1 -8.90455 -14.9157 -8.98038 1.2205 -0.0785822 1.81598
2565 1 11.3926 18.0793 11.8943 3.86486 -1.28914 -5.16483
2566 1 -24.1194 -11.3583 13.6704 -1.26204 -1.22466 1.0854
2567 1 -14.5157 -0.694467 -17.5716 -0.0523043 -1.20417 -2.6279
2568 1 20.6511 -10.8641 -19.7629 2.2766 -0.862588 2.27133
2569 1 -22.7233 -20.3391 -14.4727 -3.09285 4.38413 -1.96931
2570 1 -22.4142 17.2422 -15.7406 1.43343 -1.58988 -2.00152
2571 1 12.5005 -1.86471 21.6156 2.26157 -0.517527 1.53487
2572 1 -20.9295 -19.2912 -7.34139 -1.74193 -0.577549 1.31544
2573 1 20.866 46.6171 -5.30188 1.20912 -1.04167 0.284094
2574 1 -18.714 44.9506 -10.3384 -1.42193 2.32505 -3.14518
2575 1 3.54396 16.6992 2.09607 -2.23045 -1.10024 2.85422
2576 1 20.9715 19.519 13.523 -2.33864 0.260039 -0.489529
2577 1 13.1563 19.7216 -4.38702 -2.37258 -0.450724 -0.745831
2578 1 -17.2073 -15.4075 -2.28835 -1.36561 -0.972118 -6.34156
2579 1 -8.64908 13.5806 2.76587 0.436162 2.82231 -3.07193
2580 1 -24.0243 14.1542 -19.4041 4.24181 -3.59602 4.87952
2581 1 -8.02308 17.0381 21.4047 -0.81216 1.60637 -0.0833587
2582 1 11.1452 26.4289 10.4993 4.20208 -1.70372 -1.06173
2583 1 5.26095 19.9491 0.0330891 0.490523 -0.187867 -0.473673
2584 1 -11.358 -22.0974 -11.753 -5.31328 -4.59951 -0.337195
2585 1 17.1992 -15.8949 17.1869 1.48333 -3.63927 1.36046
2586 1 -12.8252 15.4932 14.4793 6.82863 -4.39598 -3.65972
2587 1 18.5253 -21.3234 6.23209 -0.0834951 9.74721 2.35964
2588 1 15.8309 3.18181 -20.3359 -0.000689921 0.327359 0.138711
2589 1 -0.45516 -5.04024 8.53974 -5.43419 -0.251701 -3.88983
2590 1 11.9428 0.651405 -12.4878 -0.269236 6.52363 -2.21379
2591 1 -5.11474 -23.142 14.6053 -1.61376 -3.03486 0.988627
2592 1 -1.05742 -17.86 6.19873 4.74994 4.85864 -5.39917
2593 1 -21.4064 -8.52185 -23.2971 -2.19534 -3.58363 0.318386
2594 1 -23.9662 -9.13475 15.9618 -4.39992 0.568918 -3.00619
2595 1 -2.59071 -18.6968 -19.1391 -2.02396 -3.26164 -3.09987
2596 1 -13.2906 13.4665 -20.656 -0.729745 2.48962 3.6958
2597 1 -20.175 -2.6272 -17.0274 -1.09645 2.51568 -0.163644
2598 1 19.7435 -1.41049 -3.16074 -1.19357 -3.27555 -2.80507
2599 1 -7.04388 4.37192 8.98723 -0.411342 -0.0732629 1.66835
2600 1 4.13636 21.477 2.13662 0.747266 -1.54083 0.442135
2601 1 -3.88705 9.30271 3.83304 -4.5137 -2.35288 0.0731351
2602 1 -5.89779 -10.3924 -3.57054 -0.889817 -1.28197 -0.529955
2603 1 20.9622 20.3289 -3.14005 5.21561 4.36122 -7.41703
2604 1 13.1681 -12.1484 -0.262629 -1.46818 -4.51644 2.07162
2605 1 -18.5063 9.13589 -3.31423 1.49453 -0.233466 -2.36313
2606 1 15.1378 16.3125 20.1087 -0.934637 -4.74795 -4.65198
2607 1 11.5891 0.466844 -23.2772 -0.743587 -0.976271 -2.10074
2608 1 15.1549 -19.1415 22.8237 -2.88682 0.863608 2.12249
2609 1 -14.2866 -7.48142 -17.3897 -0.671118 -1.65458 -0.674085
2610 1 0.335294 3.78209 -18.9692 -3.58364 1.0695 0.635731
2611 1 -22.2037 25.1781 -20.6522 1.39701 -1.49801 -3.90532
2612 1 -13.7962 -19.3665 17.1338 -1.89038 3.93412 -4.5961
2613 1 -23.2722 3.79518 13.187 0.245081 -2.05231 3.42918
2614 1 -10.5656 12.6177 -20.1741 -0.0228022 0.837006 0.668597
2615 1 -1.10632 0.187458 15.4434 -2.7504 0.414191 0.307233
2616 1 22.5417 -4.87523 -8.96215 1.54653 -2.56827 0.394224
2617 1 -9.6878 16.0185 -14.9837 3.77966 -1.46397 -0.0690088
2618 1 -5.00856 -17.0218 -11.5605 -1.68155 -0.948399 1.03412
2619 1 0.327823 12.8068 -22.0766 1.09594 -0.816683 2.75667
2620 1 -9.36173 16.8982 5.39406 2.53504 -3.90035 -1.01832
2621 1 3.56401 -21.2308 2.65205 -0.974696 3.68467 4.24614
2622 1 -0.132997 -20.4654 22.1813 3.33333 2.49546 -7.67598
2623 1 -21.5727 19.6628 -22.2822 -2.40702 -1.2456 3.70636
2624 1 -19.8784 18.8142 -5.48712 2.0504 3.88421 -2.27753
2625 1 -6.63709 -0.298913 -20.9017 -0.118831 -0.861571 -3.43099
2626 1 -2.74894 5.6797 22.9705 0.224336 2.38086 0.167784
2627 1 14.5317 27.8811 8.24183 -1.30916 -0.111202 -1.13889
2628 1 12.912 -6.06348 -20.7909 -5.8112 -4.14327 -0.273665
2629 1 -21.9342 -4.33195 4.76259 4.11437 -0.520578 -3.90204
2630 1 -13.7687 -8.91 19.7046 0.944168 4.67695 1.59445
2631 1 18.0915 15.9107 1.90746 3.20593 -1.36551 -1.91554
2632 1 15.8787 0.689032 -18.5594 2.91234 -0.457338 -1.48573
2633 1 -5.19647 -17.5134 -19.7789 0.686585 2.45929 0.101867
2634 1 -5.44412 11.1342 -21.4865 -0.0793369 2.30269 4.94681
2635 1 -2.24888 11.5866 -23.1345 4.20523 0.59455 -4.27841
2636 1 -14.8935 -19.9199 12.8371 3.15333 1.03022 -6.25055
2637 1 11.6841 -17.1576 -19.4843 -1.87931 0.044921 0.222145
2638 1 16.1523 1.51168 -7.41769 2.65706 0.388865 -3.88459
2639 1 -2.04462 -8.8704 20.6294 1.7216 -1.53906 -0.673509
2640 1 5.05778 13.008 -18.2826 3.48221 -5.66178 1.41649
2641 1 -24.0037 8.45994 -15.1288 -0.0783724 1.65232 0.202323
2642 1 -3.54098 -20.1853 4.5801 3.3236 -3.00316 1.37303
2643 1 -1.52416 -16.0804 -22.8786 0.344902 0.549185 2.72821
2644 1 21.0588 -20.1879 -13.535 -3.89566 -3.74842 2.33951
2645 1 7.38423 46.0095 14.591 -2.75508 -7.9229 -0.709236
2646 1 -5.42464 11.4844 -4.10215 2.33888 -1.6941 1.18748
2647 1 -7.9587 5.64001 2.4279 0.186872 4.75798 -1.71052
2648 1 21.0688 -0.778244 4.93778 -6.83973 -1.02595 2.71783
2649 1 -17.7057 21.7353 -8.14263 -2.67074 0.770299 2.54208
2650 1 -2.72222 10.2148 14.2555 -0.764369 -5.6306 2.02029
2651 1 -17.3236 -19.4915 14.5943 7.15152 4.34258 1.95816
2652 1 -21.3412 -6.04467 -14.4036 -0.155404 -1.62995 -0.557888
2653 1 -9.25319 11.0718 -4.86395 -3.06608 -0.760981 -2.15663
2654 1 17.7784 -8.40872 -0.423796 -0.0251389 -2.74081 -5.31344
2655 1 -5.44958 -10.5226 0.717524 3.78981 0.81594 1.68252
2656 1 -8.06186 7.71096 -18.1624 -1.08851 -0.195707 3.37268
2657 1 -10.4812 -7.91235 10.0533 2.97532 2.87697 0.0508273
2658 1 -4.59292 1.11621 19.783 2.71956 -2.44451 -1.8997
2659 1 16.0856 -7.47656 -23.8518 1.77034 -0.878233 -0.800263
2660 1 -12.5454 25.3391 14.1519 -1.14229 -2.05879 5.24461
2661 1 5.43725 5.51004 20.3664 -0.470792 -4.90648 -2.87121
2662 1 -21.9883 -23.6291 13.5112 0.857981 0.913433 2.39714
2663 1 -7.41697 12.2308 22.5962 -6.58762 2.44215 1.26895
2664 1 -16.7501 19.9764 21.9317 3.64932 5.52968 -7.51208
2665 1 -20.6168 3.96601 2.20922 0.359839 2.23944 -2.43893
2666 1 20.9149 46.5317 0.355223 1.90757 0.108336 -0.864908
2667 1 -9.184 -3.42394 -4.80452 0.883586 -1.81574 -0.604739
2668 1 -6.28812 -15.3375 -23.0479 0.342785 -1.48609 2.34088
2669 1 -0.912751 -7.26516 16.6587 3.48698 0.5124 -0.685685
2670 1 -24.144 25.4599 -15.3527 -5.52757 -4.40308 -0.393803
2671 1 10.379 21.06 20.8909 -0.470546 4.82977 -0.152239
2672 1 6.4827 -4.48879 9.23711 0.206546 4.96584 -2.61549
2673 1 -13.5372 -24.1805 -2.10572 2.13939 1.38864 -1.58106
2674 1 -7.25544 -20.749 -3.45898 3.39588 -6.89821 -1.4426
2675 1 17.6005 5.65636 -11.0241 -0.799579 1.33236 -2.20848
2676 1 21.7061 23.2175 -17.4969 -0.660662 0.538917 2.30645
2677 1 -0.120238 -21.2986 0.949742 4.43031 -7.46934 -1.38663
2678 1 6.96167 -21.0274 -16.6035 -2.29157 -0.74512 1.57259
2679 1 6.38542 -2.87712 1.73543 0.194853 0.804222 4.60727
2680 1 11.7546 -7.18397 -7.14873 -1.69236 3.09233 -0.103498
2681 1 -15.9937 -8.35304 -15.3702 -0.701944 -0.00133773 1.1414
2682 1 -20.8288 4.68923 11.9948 -0.829645 4.22812 -2.11917
2683 1 -16.548 5.52203 -17.0882 1.66414 8.43393 -6.12265
2684 1 22.4097 -11.8606 3.26117 6.0551 -2.77538 -0.043609
2685 1 -2.30957 -5.56732 6.29305 2.28855 -1.79007 -1.52903
2686 1 7.30049 -22.5294 -20.4605 -7.03834 1.66592 -1.9351
2687 1 19.7118 -16.8421 -15.947 -2.42369 1.18734 -5.32351
2688 1 -18.1797 -2.50466 0.441206 -1.09427 -0.0407928 1.40741
2689 1 -8.66913 -0.561333 -7.17555 -3.34421 -4.10958 -1.5619
2690 1 -13.6591 -14.7462 -21.571 0.893255 -1.32911 2.58662
2691 1 -18.1321 46.2903 19.5837 0.994868 0.746742 -1.83382
2692 1 3.81493 -0.246563 -16.1794 -3.52734 1.17395 4.08695
2693 1 6.78488 17.1617 -17.0601 1.64969 0.897305 -2.44704
2694 1 -6.64138 -7.8717 19.2523 3.45495 -1.51058 -0.868011
2695 1 14.5092 9.199 10.6838 1.88365 1.87453 0.845042
2696 1 -22.5514 -16.0797 22.5557 1.74321 -3.73949 2.12113
2697 1 6.66311 -3.85428 -4.24834 0.849072 -2.88715 3.56477
2698 1 15.284 -16.3002 21.6578 0.925986 1.62805 6.14734
2699 1 -16.3697 16.1473 -2.8446 -0.538292 -1.37696 2.04205
2700 1 -8.09896 -20.6382 3.64029 -0.891863 0.922943 2.33701
2701 1 -20.9942 23.416 -0.443197 3.29541 -0.681879 0.621779
2702 1 -8.66243 18.3315 -19.1464 -4.24508 -2.3232 -1.19487
2703 1 10.3355 -6.44586 -13.2276 -1.79823 -2.01585 1.1794
2704 1 2.00301 -23.0417 1.17556 1.97299 4.28835 -3.92304
2705 1 -2.62191 -3.54744 9.84604 -1.93132 1.74456 2.22579
2706 1 5.15681 -22.0046 20.5267 -3.07461 -0.766568 0.744704
2707 1 -10.1 -11.8598 2.04033 0.464529 -0.905865 1.61674
2708 1 -14.2255 -0.290021 -23.6533 1.77792 -0.391124 -1.32688
2709 1 22.87 -2.48669 18.7235 1.90304 1.8066 1.25093
2710 1 -4.64666 16.3185 18.1488 5.44772 5.75197 -1.83558
2711 1 -12.7216 -6.89348 -22.4473 -1.74707 -2.7679 0.770142
2712 1 17.647 14.3065 7.22318 1.59577 3.08325 -1.47484
2713 1 21.1066 3.99104 -7.30364 2.13072 -0.501304 -4.29977
2714 1 -19.0296 4.52539 -9.66122 2.43807 -6.71278 -5.03963
2715 1 -13.159 13.4813 20.0938 -2.49684 -0.807209 -0.0492348
2716 1 17.4714 12.9976 1.51673 1.86234 -0.636824 0.417142
2717 1 9.29869 21.4118 10.143 4.81429 -4.14572 -1.99726
2718 1 11.0215 -11.0223 -21.8802 0.943717 3.58878 2.28948
2719 1 20.1697 -12.9563 2.38208 -5.71279 -3.93298 -4.41154
2720 1 -14.1269 -14.2686 -18.443 1.88947 -4.878 -0.659188
2721 1 3.8982 -10.9373 13.2272 1.60042 2.12732 2.42945
2722 1 -8.32758 19.6399 -9.55111 3.15324 1.92969 5.64123
2723 1 -5.75065 16.5281 13.0694 -0.445174 -1.16878 5.50807
2724 1 -7.59151 6.85092 7.59294 -4.60294 -7.83478 -1.53297
2725 1 -3.85747 8.4889 -17.241 2.40975 3.56512 -1.18532
2726 1 -10.3187 -6.63345 23.7904 -2.602 -0.148628 2.37556
2727 1 -10.6771 -18.3113 -2.62632 3.2518 0.790699 2.05161
2728 1 22.365 -0.935702 11.4221 -1.71509 -0.693497 2.15444
2729 1 -2.20552 43.5111 -19.2582 0.897275 1.37293 0.135554
2730 1 -7.62159 -16.0799 11.094 -0.515187 -7.57286 -6.36829
2731 1 21.6423 25.2627 -7.1008 -4.52016 -0.26982 -1.64861
2732 1 -0.805223 5.22024 5.16001 -4.05769 1.77629 -0.388431
2733 1 -8.90621 10.2988 -18.1281 1.98964 -2.22575 -1.68975
2734 1 16.6725 -7.52568 17.891 5.18931 0.376592 1.09947
2735 1 -5.39476 8.4551 -14.7549 0.192063 -1.26731 1.40345
2736 1 17.1662 15.5842 22.5435 -0.0177907 -1.93316 -6.1493
2737 1 -20.0705 -19.6922 -2.8846 -2.92649 -5.21802 3.72886
2738 1 -5.14152 11.1009 13.416 1.31922 -4.3215 -0.328048
2739 1 -11.9475 -7.09099 21.2901 1.49359 -5.06705 -2.72764
2740 1 -10.7844 -16.1028 -18.0365 4.75722 -2.28175 -2.82368
2741 1 -7.46925 8.61917 4.241 -2.23628 -2.32884 2.46136
2742 1 -12.8249 15.0741 5.95336 0.554055 3.51417 -0.139659
2743 1 3.88623 -20.5111 -10.0412 -1.73862 2.38756 0.130893
2744 1 -14.5767 -18.4657 -20.5225 3.80111 0.926472 2.31072
2745 1 -12.1696 22.5332 1.30638 1.0476 5.51087 1.1967
2746 1 4.87785 -13.667 -4.42278 -3.73139 1.43275 -1.41386
2747 1 1.57996 3.39955 16.1405 1.75344 -2.45176 -0.099142
2748 1 -4.74467 -0.870311 -8.73982 3.83709 0.652802 -2.68021
2749 1 -14.0009 -8.04386 22.9731 -0.989101 1.62725 -4.3881
2750 1 -14.4469 23.2731 -20.7887 -2.84208 0.894622 -1.92684
2751 1 10.523 -22.6176 6.09585 3.55061 -0.932108 -1.28896
2752 1 -7.02598 17.5901 -11.3676 1.01877 0.120624 2.40928
2753 1 -1.61789 -5.76364 13.3804 3.00392 1.93231 -1.47793
2754 1 -13.6543 24.761 0.332846 -1.57449 -1.54408 2.4796
2755 1 1.28741 -14.0866 14.5592 0.629098 -3.31929 -2.65354
2756 1 21.8164 11.7728 17.8248 -1.61998 -6.16405 -4.07898
2757 1 16.4103 -17.5406 19.4343 -1.15825 0.938498 -0.323084
2758 1 -19.8131 -14.2903 -9.46987 3.1733 -1.49757 -4.72331
2759 1 -18.9413 -15.9879 8.13532 -5.40879 0.0145689 0.981827
2760 1 -2.2558 14.3234 -17.4504 -3.16344 0.424254 3.72361
2761 1 -4.7253 -10.1438 19.717 4.53594 7.09395 -3.35843
2762 1 -10.6514 10.8177 9.43874 -0.0374951 4.24411 -2.46869
2763 1 -7.91096 -10.5984 15.8411 -0.688112 1.2257 -0.546738
2764 1 9.82912 19.2633 -13.6697 -1.82519 2.43026 -4.76558
2765 1 9.21874 -15.2557 -19.4699 2.40776 -1.35341 1.45117
2766 1 9.16577 5.93548 15.3771 -5.48938 -3.35548 -0.540903
2767 1 -13.5462 -17.388 -22.9787 -4.84685 2.60866 -1.72928
2768 1 -8.30782 23.3167 0.699994 -1.12725 1.10136 0.811746
2769 1 -14.7457 17.3969 15.4873 -0.307088 4.25417 -0.0426987
2770 1 -23.8901 11.9431 3.56847 0.311474 1.49784 3.67103
2771 1 -17.3609 -16.3337 -16.122 0.267814 0.939906 4.24234
2772 1 -14.7511 20.3069 -17.8429 0.198892 -0.961654 1.86011
2773 1 9.5186 24.1778 3.42088 5.45001 -2.49703 -0.231255
2774 1 20.7453 -1.26617 -18.5476 3.19182 -2.67767 1.00047
2775 1 -2.91292 -19.2781 15.0626 1.16527 -1.05507 -1.60806
2776 1 12.221 5.83704 -11.781 1.96692 -1.3552 3.4204
2777 1 -11.9356 17.7199 6.68727 -4.27941 -0.849591 -2.41808
2778 1 -19.8147 19.4022 19.1217 1.04881 -0.710295 4.97247
2779 1 17.4777 17.2896 18.8516 2.66529 2.38166 2.07643
2780 1 -11.9507 1.04843 -6.29969 0.202277 -4.90079 3.46379
2781 1 9.67464 25.3676 12.7255 1.66654 5.28494 1.40979
2782 1 9.0169 -12.6797 14.9168 1.29199 -0.975706 -3.76131
2783 1 11.3432 -9.3806 -13.228 1.38064 -1.18675 -1.63322
2784 1 -10.9247 3.96811 0.0460107 -1.40569 -0.282229 -2.78538
2785 1 21.4371 -6.48895 -15.9459 -0.84376 -3.498 -0.131605
2786 1 7.52243 -3.7615 4.16509 4.202 2.56383 4.3644
2787 1 -14.9985 15.0796 -0.586574 3.59409 2.45063 -1.55869
2788 1 -21.5081 17.0512 12.4274 -0.469738 -1.30988 2.49968
2789 1 9.50149 -6.98257 -5.47491 -1.84376 -5.74369 1.57452
2790 1 -7.80277 -5.84983 -15.5275 -0.525757 -0.460932 -3.79095
2791 1 22.7589 17.0136 -4.62703 -0.464138 -1.36447 2.08154
2792 1 -4.73183 -2.99716 5.68977 4.03103 1.30279 -2.4944
2793 1 0.460075 3.44542 6.96937 0.458527 -3.68005 -1.76682
2794 1 5.30106 19.162 -6.59132 -1.76985 2.72236 -0.0139468
2795 1 20.4369 15.0385 -16.6208 -0.962141 -0.134815 3.82551
2796 1 18.6646 -17.3467 10.9793 7.05296 5.12378 -0.590533
2797 1 18.7816 -9.93571 17.8806 -1.66494 -1.69998 4.41567
2798 1 -21.2259 0.983721 -5.14088 2.75649 -1.0276 3.74802
2799 1 2.31408 -19.3888 -7.97842 0.875124 -1.04702 2.42751
2800 1 -10.8812 -15.4229 -15.2225 0.13575 -0.30757 6.20716
2801 1 3.01061 19.3587 8.18406 -4.24507 2.98042 0.694932
2802 1 7.96282 9.07577 -11.686 -4.81279 -1.01399 -0.700154
2803 1 23.1165 -7.90254 -18.2751 0.962709 3.53338 3.73109
2804 1 -16.088 17.9697 -7.74254 -1.229 -0.295659 1.53396
2805 1 -18.0423 6.69894 -11.642 1.26271 -1.52959 -3.5707
2806 1 -3.87604 19.4109 -16.7715 -2.39935 0.381049 0.802276
2807 1 -21.8258 19.0016 -1.61825 1.33043 4.51242 1.91148
2808 1 5.2627 45.8457 -13.3765 1.6977 6.16641 4.21777
2809 1 -12.5688 19.0252 16.9477 -1.90453 4.07467 -0.893108
2810 1 6.10865 24.8535 -15.1999 0.799112 3.07042 -3.67282
2811 1 -11.69 12.9113 4.53395 2.29754 -3.15322 0.0202235
2812 1 -10.0561 0.591003 -23.384 4.06991 3.34338 5.18851
2813 1 1.76086 -12.6228 -16.0488 -0.051529 -1.39218 -10.7307
2814 1 20.8709 -4.09438 -6.92361 -2.07484 5.23919 -4.87936
2815 1 22.6027 5.96732 4.482 -2.16387 0.0930574 -3.45688
2816 1 -0.662103 -14.9554 19.0801 2.50392 -2.42415 1.79468
2817 1 8.36565 -14.6384 -22.0589 -2.70916 3.3368 2.98557
2818 1 2.80175 -6.95898 2.91346 6.8762 1.13791 -8.1267
2819 1 17.2613 14.0132 15.5737 -0.585999 1.13608 -5.61609
2820 1 -15.2989 25.9996 5.61789 1.02996 2.89136 3.06961
2821 1 11.9887 -6.32934 -10.7033 -0.123592 4.49523 -0.490668
2822 1 -14.6009 -3.56042 6.02393 2.64279 4.2148 1.4406
2823 1 11.8303 -15.9306 4.59396 -1.25166 -1.52665 0.0577697
2824 1 7.75527 14.8227 17.285 -0.937333 0.279455 -0.870089
2825 1 14.2721 19.5291 -8.56178 -0.216541 5.72296 1.26638
2826 1 10.0406 -18.8509 -3.56317 -5.8647 9.53446 -2.42712
2827 1 4.92038 -8.72648 21.8493 0.950541 3.25421 -4.48455
2828 1 -0.387012 -8.01302 -16.8814 0.518921 -2.71677 -0.411736
2829 1 18.2371 -23.624 7.93158 -4.13992 0.428025 -0.861495
2830 1 -22.9163 7.05042 -1.04634 -0.78341 -1.83816 6.35406
2831 1 19.4333 2.60132 -13.3864 2.47468 -0.181215 0.644703
2832 1 -20.3742 -22.4858 -11.2339 3.09199 -1.06703 1.54888
2833 1 -21.5203 2.1924 4.55513 -0.464066 -0.646626 -1.85978
2834 1 -9.88668 -17.7841 22.3761 -4.37992 1.06574 -1.0895
2835 1 -3.29337 4.95062 2.57165 -2.10566 -7.43029 -1.08378
2836 1 -12.2239 20.869 -5.95664 1.9379 -4.51668 -2.59957
2837 1 -16.2339 10.0568 -9.26538 1.21936 -5.90052 1.71518
2838 1 19.2543 -7.26485 16.835 -1.17294 0.32831 4.04151
2839 1 -19.5443 -2.35206 -22.0264 1.26865 -0.976013 -2.56014
2840 1 2.60166 -19.343 -23.4576 -2.33141 -8.04904 -5.57613
2841 1 19.7834 -19.1667 -3.39696 -4.27894 5.53726 -0.112671
2842 1 -3.11968 -12.6052 -9.68311 -0.371542 3.92473 -0.242723
2843 1 16.9436 7.53941 23.8528 0.0746521 -3.68944 -5.43321
2844 1 22.264 16.4508 7.41309 3.2203 -3.79625 -0.628815
2845 1 20.7097 4.03385 -22.7081 0.595642 -1.77328 3.02721
2846 1 -20.5752 1.1769 1.36728 -2.8448 0.670991 1.09178
2847 1 6.93732 14.7721 -1.0028 0.854018 -0.895785 -1.86086
2848 1 -17.6491 -21.8847 -11.7965 -0.602665 1.51569 -2.33006
2849 1 -19.8808 46.0561 14.6757 -2.5362 -0.88405 1.94423
2850 1 2.92985 1.83258 -8.61531 -4.79988 -2.79123 -1.09806
2851 1 -5.69547 24.9369 20.3724 1.41956 -2.33714 -3.00418
2852 1 1.77868 -7.1709 0.0519953 -1.20726 0.49531 1.13334
2853 1 -3.12569 25.4749 21.2728 -3.2013 3.93782 -1.37285
2854 1 5.61393 -8.62525 -5.81412 -6.63629 2.54981 -1.11487
2855 1 -19.0728 -8.81005 -20.6039 5.32845 1.12116 1.87226
2856 1 16.8719 -18.1245 0.264525 1.52843 -1.58722 -2.51107
2857 1 19.67 8.51447 10.8349 -0.4963 6.41646 -1.68469
2858 1 9.52293 -2.68166 -21.8522 -5.09243 1.4155 5.55307
2859 1 -21.3838 46.2367 -20.9932 -3.03981 1.12194 3.93786
2860 1 -21.2586 7.79276 17.9261 -6.2411 -2.77841 -0.383117
2861 1 13.4535 12.9944 19.4581 -0.840054 2.60957 1.06016
2862 1 11.1479 -3.60627 -18.148 -0.366541 -1.66132 0.699246
2863 1 21.6578 -19.5263 -19.0597 2.69339 -6.82168 0.663957
2864 1 -16.1533 13.1485 15.8567 -2.01974 -2.67213 1.29576
2865 1 6.99062 10.1488 -1.0646 0.596307 -3.05164 -0.992306
2866 1 -19.5878 24.8292 -7.68257 2.52775 3.59923 -2.00936
2867 1 -19.7209 20.0904 -11.5035 -2.18471 -0.585322 0.288648
2868 1 4.64116 -23.4567 17.9511 -4.64502 -0.282415 2.33504
2869 1 -21.1714 -18.2675 16.1369 2.14085 2.3135 -5.98885
2870 1 -10.6682 13.6289 -10.3381 1.82667 0.489343 3.01322
2871 1 -14.5365 21.4153 22.9863 2.0606 3.53229 2.64979
2872 1 8.51092 9.13782 10.163 -4.12062 -0.276347 -1.90701
2873 1 -10.4996 1.8598 3.95121 -2.77314 -1.94862 -0.171829
2874 1 0.966729 -14.4592 -13.8789 3.26121 3.33404 2.51283
2875 1 19.2207 -7.16966 -9.75884 0.774693 -5.54523 0.401881
2876 1 20.3898 -22.6546 -23.1676 0.2584 -2.517 -0.17045
2877 1 7.90773 -7.30059 6.77124 -0.078078 -1.55088 0.77726
2878 1 -17.9062 22.5898 -10.8404 5.9767 1.45167 0.728889
2879 1 2.25626 17.5359 6.00688 -1.16566 0.053418 3.32286
2880 1 -0.676913 -1.07634 19.8334 -2.67003 1.23699 1.88284
2881 1 -17.9563 17.0017 -20.7296 -2.63745 2.0891 -4.6909
2882 1 -19.0185 -17.0488 19.285 0.0925632 4.02653 0.961781
2883 1 13.1336 -15.3908 -0.655878 -3.98474 2.62149 -4.79633
2884 1 7.18587 -6.21474 -21.5322 0.0826647 -1.31027 3.12543
2885 1 -9.61993 4.06562 -5.2474 0.680297 -0.672128 2.61128
2886 1 12.5752 24.2214 0.837333 -0.360034 -0.368149 1.53711
2887 1 22.4188 17.1248 21.1668 -0.017355 -0.558135 -5.38846
2888 1 -12.7585 6.66609 -22.487 -1.35453 0.784722 3.9608
2889 1 4.54697 -2.29471 9.55369 -3.06407 3.86755 0.180848
2890 1 -3.86779 -5.44101 -22.3679 -7.35002 1.37357 -0.747038
2891 1 7.67927 -3.08998 16.9899 -2.87953 1.56417 -1.92521
2892 1 21.1249 19.5763 -8.24367 0.763393 1.08727 1.59923
2893 1 -11.1895 -15.5188 23.7491 -1.42396 -1.11731 -2.57896
2894 1 -9.3826 6.68793 15.4998 -4.29722 5.10863 -0.976512
2895 1 -18.7449 22.8292 19.541 -2.79114 5.73042 4.91551
2896 1 -12.7994 5.00886 16.5856 -1.15304 3.31565 -1.8238
2897 1 -4.01592 16.1591 -2.01712 -3.34904 -0.382436 0.742075
2898 1 -9.55154 -9.89955 -20.8044 3.71319 -5.68507 -4.03451
2899 1 -4.72433 -22.5588 19.7595 1.66867 3.16861 4.66636
2900 1 16.4885 3.10549 22.3239 -4.53408 -5.94064 0.821097
2901 1 -9.92633 -18.9227 -17.756 -3.08487 2.09822 -3.41529
2902 1 23.0537 -0.650231 -20.4927 -1.96421 -2.44843 -3.62802
2903 1 -13.7443 -14.7446 7.21625 -3.98979 1.5486 4.75359
2904 1 -5.03842 13.9194 -0.265685 4.15898 2.80117 -0.179386
2905 1 -18.0442 24.8783 21.6495 -2.38503 -1.2008 -4.89665
2906 1 14.0003 1.09659 14.5265 -1.52087 4.64856 0.105598
2907 1 -16.7135 24.1273 -7.03749 1.50012 -0.178827 4.45171
2908 1 -1.19488 10.8114 20.4255 2.8084 0.83801 -2.05321
2909 1 -9.30763 -4.66791 -21.6376 -2.29585 -1.51932 -1.31647
2910 1 -14.0509 9.98769 21.0513 -5.48036 1.74401 0.700654
2911 1 1.0347 5.54606 -21.2568 1.23816 -3.08208 -0.430226
2912 1 12.3497 -14.3596 -6.42315 2.1921 -1.99156 0.526846
2913 1 16.7991 4.13684 -2.73707 4.44829 1.51105 4.08557
2914 1 0.0555434 1.47453 13.1819 -3.07734 -2.84458 -3.24055
2915 1 -12.6495 -13.7485 22.0249 -0.243638 -4.14244 -0.353723
2916 1 17.1716 16.6095 -4.77417 -2.82109 0.595466 1.45125
2917 1 -6.15279 10.2359 6.67142 1.42608 -2.50773 -3.30641
2918 1 15.8266 6.19004 -4.56857 -1.53729 1.63187 1.20496
2919 1 -23.3776 -16.7711 -1.90858 -0.471974 4.72836 1.82588
2920 1 22.7088 13.6986 8.5473 0.0568166 2.19881 0.283745
2921 1 -16.633 19.736 7.38085 -3.15851 -2.69525 1.55486
2922 1 -14.1348 -20.0395 23.4061 0.898529 1.7353 -0.0720344
2923 1 -15.4385 1.15247 20.5199 -1.93444 1.59947 2.1976
2924 1 -4.59993 -16.4361 21.4532 1.07561 0.326343 1.25681
2925 1 16.9517 -9.95061 13.5138 -2.38113 2.54116 1.75745
2926 1 -7.81781 7.92193 -13.2458 -4.21085 2.90372 3.43109
2927 1 10.83 3.90286 0.715183 2.66158 -2.95037 0.0689235
2928 1 22.6309 44.3934 -12.0964 1.57749 -1.18063 0.14487
2929 1 6.43043 -11.405 3.16562 6.03882 -2.81783 -2.61084
2930 1 -18.5085 8.81581 -0.627518 4.73402 0.162612 2.89873
2931 1 1.00069 -9.35853 17.9878 -3.33387 3.3792 0.101376
2932 1 7.40332 18.6886 17.6829 -4.26743 -0.00932165 -1.06627
2933 1 20.4951 -7.03242 10.942 1.81149 2.06614 -2.01409
2934 1 10.963 1.59772 -20.6795 -7.93983 -0.625549 -2.83143
2935 1 5.79595 23.6362 1.32471 -3.85371 -3.24392 0.492836
2936 1 -23.0245 6.62006 -8.9608 1.14787 -3.73736 -1.01033
2937 1 -18.8767 3.93105 -12.6961 -3.46243 0.0704017 0.951871
2938 1 -9.23243 -3.79305 -1.61439 4.70716 0.0249231 -0.574104
2939 1 -13.0664 19.6224 4.78672 3.30152 0.20176 2.63484
2940 1 16.3255 15.9863 -0.360232 7.07906 1.39367 -1.54636
2941 1 -7.04188 3.99326 -10.2725 -4.28514 -0.213465 1.32743
2942 1 -21.6798 14.4614 20.1423 1.60192 1.00544 2.70342
2943 1 23.082 6.16903 12.1116 0.326651 0.335816 -0.178847
2944 1 9.80137 -23.3248 14.2541 2.41306 8.14499 8.62672
2945 1 -7.70512 10.8738 -8.62338 2.1237 -2.7986 1.86956
2946 1 11.2367 1.46462 9.93797 -4.50098 -4.74694 2.85473
2947 1 19.2676 -15.4335 -22.527 0.488287 1.44239 -1.98983
2948 1 3.67149 -19.7349 -1.33219 0.397083 -3.18512 -2.38008
2949 1 -5.87108 -20.961 -23.0011 -4.67507 -5.32131 4.2612
2950 1 -19.0677 16.7339 5.09232 -0.378954 -2.60823 -0.434746
2951 1 14.4797 -17.4691 -13.9122 1.69774 1.62319 -2.19157
2952 1 -11.8181 23.026 -20.0071 0.699839 -1.90091 -0.621841
2953 1 17.7364 4.00919 0.00709128 1.31908 0.4415 0.1316
2954 1 -17.669 -0.80215 8.54341 1.60832 -0.599634 -7.54568
2955 1 13.8311 -11.5045 15.7964 -1.01567 -0.754693 1.72336
2956 1 -14.6194 20.0461 -1.19954 -4.41024 -2.60777 1.33754
2957 1 1.84967 -18.7765 13.8105 -2.88961 -2.64637 -2.38753
2958 1 6.10447 -6.79212 -10.7535 2.92065 1.25621 -4.35173
2959 1 -17.6724 19.7332 -21.5038 -0.416888 3.73663 -1.4784
2960 1 -13.2878 -3.48303 -19.8595 3.18799 -0.938726 -1.41659
2961 1 -12.6701 -12.1301 -22.1207 1.7408 -2.91042 -3.73749
2962 1 -9.54502 -1.50826 -14.6742 1.72991 -1.05834 -0.916963
2963 1 -23.5626 12.4875 -4.99739 1.493 -5.70086 -0.737274
2964 1 -0.153592 -22.1862 -21.8235 5.48694 -3.92959 0.586379
2965 1 16.7557 -0.223532 -16.0005 0.744356 -3.34519 0.997789
2966 1 -2.6514 -22.9454 17.165 1.96933 -0.0682858 -3.29343
2967 1 1.35989 12.4456 8.99101 -4.07322 -7.53057 -0.820588
2968 1 -3.73132 -16.4684 0.217484 1.66928 -8.78501 -2.83617
2969 1 -3.36506 -1.51451 18.5874 -3.06954 -4.05784 -0.227528
2970 1 20.7368 -12.6533 -12.3426 -0.242272 2.57347 -1.66354
2971 1 -5.02118 20.0951 10.4651 -2.54069 -4.27451 -2.13393
2972 1 -10.0822 9.0407 -11.7034 1.76603 -1.90673 1.24669
2973 1 -12.3722 17.2716 21.3451 -2.54886 -1.56412 3.36364
2974 1 22.3011 -0.259582 20.3276 0.9692 0.60453 2.73326
2975 1 14.9169 11.3339 -1.55042 -0.636147 4.16931 0.439344
2976 1 -17.5869 21.7609 -15.0413 -0.0182961 -3.3037 -8.06749
2977 1 2.90471 -9.56687 1.7704 -0.0335948 -1.31604 -4.73517
2978 1 12.2723 19.2179 -15.0648 -0.724878 1.58056 1.86357
2979 1 5.7398 2.92533 16.5782 0.0812594 -0.875599 -0.592552
2980 1 -3.5683 13.3069 -2.84089 3.94196 2.88333 1.14046
2981 1 -14.0992 8.39308 18.5345 3.45883 0.731562 3.97109
2982 1 -12.2647 -6.77701 8.44097 5.25386 -2.97894 -2.17413
2983 1 -9.6208 14.5611 -21.9829 -0.353768 4.03456 -2.362
2984 1 0.977789 -0.826571 -21.7341 0.921062 -1.81816 -1.09282
2985 1 -14.0537 -12.4501 11.5372 -2.0701 -0.125858 0.9462
2986 1 -6.43549 21.4201 -21.4541 3.21843 2.0979 0.557189
2987 1 -20.2751 45.2198 -8.06984 -1.81045 -1.23155 0.813817
2988 1 1.64823 -23.0073 -6.11172 -0.0218115 3.18091 0.698617
2989 1 20.3179 20.9036 -10.5169 -0.722445 1.99852 5.72563
2990 1 12.719 -20.4233 16.5588 2.71056 2.5398 1.77323
2991 1 3.64792 2.41668 11.8952 -0.372453 3.40855 -2.62018
2992 1 22.5455 12.6973 -11.9236 -1.64113 -0.0847251 -3.03921
2993 1 -23.5925 17.7414 16.9505 2.94127 1.75135 0.405948
2994 1 19.2231 -0.618522 11.8471 2.5613 -2.65158 -1.74607
2995 1 -3.32339 10.3137 -5.74494 1.73297 3.35366 2.3354
2996 1 11.6343 6.26478 4.75335 0.0849346 0.147758 3.46367
2997 1 -5.64882 -17.7353 7.09531 3.92231 0.117502 1.50396
2998 1 3.78529 -17.3289 15.2263 0.787099 -2.06506 0.388943
2999 1 14.7299 -19.4741 -3.94618 -2.49336 -1.70685 -0.287888
3000 1 -1.03891 14.4859 14.9954 3.26749 0.0728204 -2.37263
3001 1 11.6659 13.8706 6.99765 0.965053 6.39758 -6.3632
3002 1 -19.898 15.4389 17.6221 -4.2726 -3.24862 0.0505031
3003 1 14.7648 14.6735 11.8489 -2.72271 1.36802 -2.54276
3004 1 16.8751 19.9947 -15.7828 0.76378 0.266299 -0.447045
3005 1 3.09274 4.73722 -4.33946 2.02933 -0.938146 -4.79025
3006 1 19.7588 5.81231 -20.4838 -1.36868 0.506791 -2.32034
3007 1 -7.67168 -22.3584 20.7187 -2.63768 1.21913 -4.08725
3008 1 -3.19491 -20.6582 21.5147 -0.350879 -0.122313 3.2848
3009 1 -14.4139 -22.0217 8.89801 4.1275 3.473 0.390831
3010 1 -15.7142 -20.5842 -15.8717 1.29703 -4.426 0.319408
3011 1 -7.55147 -1.75808 -12.1974 2.50715 2.64013 3.12637
3012 1 3.30267 -24.2352 -20.8091 0.476358 4.94088 1.12137
3013 1 10.0477 -16.9007 22.221 -0.798302 -0.25484 -0.590051
3014 1 20.937 13.7846 19.8186 3.23514 0.903403 0.521708
3015 1 -1.45719 13.6457 8.3034 -3.21261 -1.70488 -3.29464
3016 1 16.8461 -14.1391 -23.651 -0.829735 -1.33273 -7.35933
3017 1 -12.9054 9.77856 -22.0416 -0.248803 -2.69141 1.12128
3018 1 -23.0056 0.388893 -13.9088 4.5908 0.685874 4.37058
3019 1 -18.5025 -22.8081 11.0491 -1.48758 3.83079 3.73844
3020 1 -14.1821 -8.74055 8.22525 -3.88402 -0.422924 0.0299504
3021 1 -18.1776 26.0611 -3.37087 2.95922 -3.39728 0.688666
3022 1 15.5579 -13.8077 0.0335741 4.67676 -4.27512 -2.39204
3023 1 4.88977 19.5401 -3.75484 -0.647742 -2.7211 -1.28844
3024 1 -22.6136 7.4194 1.94796 -4.93444 -1.12112 -0.635943
3025 1 5.17299 45.6747 10.0904 0.974349 -0.511713 2.27918
3026 1 1.02225 -22.2615 7.37687 3.38699 4.76243 2.21384
3027 1 13.387 4.95307 10.6822 1.19307 0.127764 -0.6086
3028 1 -18.8224 14.1104 21.0591 -0.291935 3.67972 6.34274
3029 1 6.53969 5.64595 14.0321 -2.63046 1.43235 -3.89228
3030 1 -18.1486 17.8123 -12.2237 -5.58926 -1.74293 1.16389
3031 1 23.1598 -12.266 -19.3064 -2.87717 0.887913 -5.43168
3032 1 17.826 -11.604 -7.65565 0.311092 -4.62857 3.24524
3033 1 -10.5733 4.22217 5.95758 0.322591 1.25365 4.61926
3034 1 -11.5995 -7.04186 -16.1416 -2.54274 -0.27276 -2.14532
3035 1 19.5039 16.39 6.61075 1.92051 -4.8591 -0.360689
3036 1 12.4232 19.4082 22.2005 -3.70558 0.0339062 -1.79711
3037 1 -3.78675 -9.63322 6.28041 5.11779 -2.29586 5.40493
3038 1 -15.9 45.9954 -18.0553 -2.15492 -1.07618 2.67199
3039 1 19.251 45.0824 16.2162 -2.48182 2.44366 3.69007
3040 1 8.29812 -18.5145 14.4364 -1.06676 -3.8588 -4.04409
3041 1 -20.4152 21.2042 -1.97663 0.0493134 -2.24144 -3.6696
3042 1 -6.30783 22.2817 13.367 4.36134 -2.4836 3.23607
3043 1 6.74887 -12.3892 -16.8075 1.19547 0.0740637 -1.05185
3044 1 -6.43542 17.2471 -4.19731 -4.27352 -0.932061 2.6051
3045 1 1.4689 -3.03458 3.01834 3.51839 1.2646 3.45186
3046 1 18.771 -11.8103 -16.704 0.327701 5.18435 6.96493
3047 1 6.39072 21.1359 3.77588 6.55085 -2.4808 0.809451
3048 1 6.60535 -10.6122 20.3424 3.79746 2.76462 -3.67059
3049 1 -9.5183 -23.8651 -15.9959 0.538793 2.25805 -4.41841
3050 1 2.28113 -23.7689 16.3749 -0.919124 -4.13176 -0.0827661
3051 1 -18.7875 -0.619348 -13.9883 4.31938 0.787141 0.977019
3052 1 -21.5507 14.9323 -14.5041 6.55059 0.495883 -0.116214
3053 1 20.7688 -22.311 -1.2904 4.47499 -2.7945 -1.9697
3054 1 21.3374 -2.78472 21.3138 -0.787139 1.4994 4.60365
3055 1 19.6261 3.2329 5.6339 0.973432 0.349383 -1.66545
3056 1 -23.5823 13.8983 14.0306 -1.41328 3.60597 -0.391431
3057 1 18.5631 10.0533 -23.7908 -1.8991 -1.70945 0.973269
3058 1 10.2602 -5.7257 10.1959 3.03275 0.567809 0.304861
3059 1 -10.5786 -20.5196 -6.61335 2.35328 -1.57518 1.55464
3060 1 -23.5719 25.5748 -2.97949 -0.970184 -1.17216 4.70837
3061 1 -10.1546 25.5421 -15.9489 -5.21889 0.156219 -1.20249
3062 1 -11.7054 15.4367 -16.9769 -2.56813 -2.301 4.49355
3063 1 9.0396 21.9354 -12.8978 -0.328888 2.75403 1.99826
3064 1 -0.162593 10.9131 -20.008 -5.814 2.48364 -2.11803
3065 1 7.54389 -10.8728 -11.47 -0.577654 -1.08577 -2.35524
3066 1 22.5277 -3.74902 0.892839 -3.13105 -0.472889 -0.651335
3067 1 17.2992 21.3258 -12.2811 3.70322 -5.51941 -0.543515
3068 1 19.797 15.726 -1.71728 0.814608 -3.7104 -4.84538
3069 1 7.46319 -8.17952 -3.44965 -1.69897 2.80274 -6.8429
3070 1 20.4599 -7.52663 -0.836683 -0.548296 -3.60239 0.165977
3071 1 -4.34384 -0.560458 -4.0414 4.34892 -1.29689 2.00685
3072 1 -0.163323 9.77996 22.8878 1.99488 -1.32474 3.68234
3073 1 1.41483 21.3241 -0.263268 0.402056 2.08442 1.31877
3074 1 -7.4152 -8.30379 10.0851 -2.99131 -1.0752 2.2199
3075 1 18.971 10.025 -20.6015 4.39953 -1.45995 -0.336357
3076 1 -11.4401 21.1671 11.6827 -3.78454 0.431335 4.00478
3077 1 -12.7868 45.4195 -9.94268 0.73633 6.00266 0.728984
3078 1 -19.0195 4.48619 -15.8365 -1.61044 0.223939 -7.0158
3079 1 13.8397 -3.38519 -0.773503 -4.21439 -8.5244 -3.24265
3080 1 -20.2519 11.5852 -6.18916 2.4555 0.508552 2.8362
3081 1 -17.9743 9.24313 7.04509 2.97923 3.90582 2.01498
3082 1 -4.00784 2.97247 23.3569 3.19956 -0.465914 -3.86171
3083 1 9.04832 -12.2189 -9.17963 -0.121464 -0.227405 6.53271
3084 1 -14.3382 -20.9891 6.48405 -0.228227 3.1576 0.237529
3085 1 -16.1258 -2.87846 -7.22419 -1.06436 -6.54115 -0.926075
3086 1 13.9298 19.3636 6.29142 -2.61784 0.0769988 -1.47578
3087 1 -10.319 -19.1202 10.8222 0.971843 -1.13271 -0.441739
3088 1 8.254 3.21872 15.5227 -3.25907 1.65176 -10.3977
3089 1 10.9501 -19.5129 14.2787 -1.16122 2.70502 -2.95056
3090 1 17.3317 -3.21028 -6.19256 1.8009 -0.378892 -2.48474
3091 1 -6.46183 3.71423 21.6586 -2.69437 -1.01499 -0.520916
3092 1 -8.87185 -4.35325 22.3587 4.35121 2.30578 -3.19375
3093 1 -12.6437 3.2712 -21.1497 -2.18377 6.44512 -2.99259
3094 1 14.6243 4.10752 20.133 6.00867 1.85313 -3.22384
3095 1 -15.6326 -13.5719 0.88511 1.89692 -3.56628 -2.5322
3096 1 7.6109 5.33115 -23.075 4.2768 3.39645 3.17137
3097 1 -6.50342 -12.2854 -19.3107 1.14185 -4.37546 0.353956
3098 1 -9.30269 -18.5324 5.18955 2.81066 0.599077 1.27905
3099 1 -21.4241 10.0782 -23.8654 -1.10864 1.39251 0.204269
3100 1 20.2974 -10.2749 -22.6343 3.20011 -1.61144 2.47143
3101 1 22.8029 -14.7364 -20.5505 -0.0840591 -5.04153 2.00357
3102 1 3.77979 3.5065 -23.8666 -1.53388 -0.882514 0.525083
3103 1 -6.59363 -10.5597 -23.6309 -1.40428 -4.13148 -5.42119
3104 1 -20.3524 -6.91107 8.23303 -1.28793 1.64231 -0.260978
3105 1 -23.2429 -5.23572 20.6987 3.68133 2.23832 -1.1892
3106 1 2.72095 -11.2673 -8.76731 -1.42204 -4.25981 5.55008
3107 1 19.4063 -12.1317 21.5448 0.394317 5.96869 -0.791669
3108 1 10.1418 -16.2782 -7.33249 2.60327 0.495216 3.64808
3109 1 0.843591 -0.210012 3.57543 2.88944 -2.60492 5.40223
3110 1 9.02513 5.70413 -0.459447 2.89086 3.94839 -4.23491
3111 1 10.7499 -19.2429 -17.4978 -0.86413 -5.2995 -1.02031
3112 1 -0.388536 -12.5056 -20.8124 -5.53154 -0.310065 5.42403
3113 1 9.59759 -12.929 -17.8076 2.00113 1.2222 1.26316
3114 1 4.77212 3.19069 -17.7535 4.30886 -2.30368 1.04269
3115 1 -20.1171 20.6232 -14.6379 1.62312 3.88886 -2.71362
3116 1 -11.2722 16.813 -2.04844 -2.59328 -4.45787 -2.46571
3117 1 17.4578 -12.1795 -5.01243 -4.9165 0.0774692 3.18747
3118 1 4.82973 6.62197 4.61522 0.645732 -2.43618 -0.309963
3119 1 -5.6255 -8.07614 4.9555 1.59112 0.304105 -0.738789
3120 1 -12.4188 -9.65805 -17.4553 -2.03514 5.26479 -1.66511
3121 1 2.31601 -20.8548 15.7118 -3.1333 -2.32701 -0.155951
3122 1 -12.9147 25.5712 19.5841 2.1556 -0.174465 4.07813
3123 1 13.2825 16.5475 13.4076 0.775733 3.81575 1.40319
3124 1 -15.2552 12.7408 -9.02775 0.0714154 2.1789 0.881039
3125 1 -0.795515 -14.3951 -5.93053 0.377585 0.322847 4.9957
3126 1 0.636462 7.34567 -8.44803 -1.81615 -2.9209 -3.34349
3127 1 17.22 6.2889 1.70448 6.66452 -3.60328 2.28157
3128 1 4.00085 7.82902 -15.7321 -8.21984 3.3031 1.06482
3129 1 -3.17363 -11.9029 9.27453 2.96182 4.59276 1.15647
3130 1 21.6643 -9.7864 9.8734 1.06377 -3.44222 -7.81026
3131 1 -10.5754 12.9901 0.52853 1.85101 -0.922486 -5.70687
3132 1 4.82967 11.5811 2.25237 3.00796 4.60508 1.77125
3133 1 -1.86863 13.609 -14.6431 -0.714412 -4.34597 -0.530215
3134 1 18.9548 6.00171 -1.89672 -1.66771 0.0194983 -1.28146
3135 1 -16.8398 -12.7108 -2.02279 4.12904 -4.89193 1.28456
3136 1 -16.6203 46.2731 4.50749 -0.514702 2.85976 -1.41163
3137 1 2.15812 -8.0198 -15.6206 0.338193 0.0328315 -2.38989
3138 1 17.0645 -4.70123 22.0243 -1.52799 -3.16869 -3.50028
3139 1 5.54882 9.16436 -13.3586 1.71414 -3.98743 0.752371
3140 1 2.69402 17.4962 -19.1463 3.95485 -0.400894 0.762057
3141 1 8.86757 -4.08923 -6.04802 -2.17348 -1.68063 -8.44963
3142 1 1.60835 25.5647 -18.4789 -0.248348 -3.38503 -0.313815
3143 1 -24.1179 23.1704 -20.633 3.07339 -1.64109 -2.08115
3144 1 0.893163 12.5097 4.42582 1.19023 0.749136 1.19923
3145 1 20.1868 -19.8976 8.13029 0.8183 0.598636 3.48596
3146 1 -0.265053 6.96907 -11.0725 0.248788 -0.891692 -1.09389
3147 1 -2.53712 -18.2213 -3.12292 -2.07841 -3.55118 3.70177
3148 1 8.45111 -10.1185 6.09921 3.53327 -0.240851 -1.05609
3149 1 11.3386 5.75825 -16.5969 2.85679 -1.593 -1.66552
3150 1 -20.2805 14.1894 4.29609 -1.16286 0.560918 -0.722471
3151 1 -11.0341 43.9687 -17.4238 2.50946 -1.35888 3.27313
3152 1 -13.5205 19.6083 -22.8432 -6.77214 -0.955457 0.676534
3153 1 16.9238 6.9818 -21.0597 -2.41855 -2.59172 -0.169669
3154 1 8.41473 19.4564 2.02686 1.66559 -1.09492 4.10254
3155 1 -5.44139 -12.1985 2.92068 -3.31022 1.63765 1.84186
3156 1 18.731 -3.64924 9.33776 -1.86476 2.02521 1.68282
3157 1 11.4806 2.33347 4.53869 0.224132 -7.29304 5.84055
3158 1 22.0797 -19.6837 -7.41593 -2.87548 -1.687 1.96268
3159 1 17.8292 1.8533 -3.62432 -3.5056 4.87517 -2.15468
3160 1 -9.34554 45.9418 23.0986 4.07444 -2.86106 0.398943
3161 1 -7.85654 -17.915 -3.3454 0.603357 1.70682 -1.81604
3162 1 -14.1875 -14.4756 -13.3928 2.1746 -0.0319711 -3.23431
3163 1 22.7852 1.17224 15.0143 -0.85963 1.57594 -1.25206
3164 1 -21.4536 5.2189 19.453 -2.733 -1.29861 1.1809
3165 1 -6.36533 21.3089 -16.5837 -2.96091 -0.0800387 4.82128
3166 1 15.6641 -10.45 17.7134 1.23544 -1.92384 1.86741
3167 1 18.9034 -16.2091 -19.6678 1.67702 -1.79172 -3.62496
3168 1 -16.6232 -19.8987 17.4428 2.0885 -4.20031 4.56817
3169 1 13.7549 -23.5708 -20.8611 5.86889 -3.94635 1.62095
3170 1 4.64933 22.5298 -23.0752 1.97895 -0.886722 3.25177
3171 1 -7.57654 15.1182 23.5437 -1.18126 -1.94931 1.96448
3172 1 -7.46723 1.91987 7.37226 3.9611 1.72298 0.880131
3173 1 8.75097 18.5299 10.2269 0.185926 1.15476 1.02157
3174 1 -23.8911 11.7346 -9.63887 -0.969018 3.46045 -1.80563
3175 1 19.8449 3.26009 -4.81738 4.03593 2.18334 -0.904127
3176 1 15.7584 -1.67771 15.771 -4.50185 0.785388 1.65619
3177 1 0.160728 -9.23176 -22.6182 -0.15076 -2.73988 4.40742
3178 1 14.4122 21.3864 11.8767 5.05701 -1.2533 -1.05224
3179 1 1.70006 0.163167 23.3829 2.76318 1.17074 -0.827749
3180 1 1.0979 14.7476 2.47776 1.93931 3.27095 1.11037
3181 1 -21.9452 -20.2181 20.4299 6.41378 -2.02025 6.39335
3182 1 -16.7859 45.6601 21.9611 -5.56346 3.21558 4.89044
3183 1 -22.7287 18.0783 -6.19591 -4.39322 0.888027 1.45371
3184 1 14.6098 -4.37179 3.68993 -1.21924 1.63903 6.62303
3185 1 -15.3397 20.7751 -20.5486 -0.0917364 -1.49814 -0.83585
3186 1 -7.14904 21.3088 6.80182 0.891712 -6.36013 -0.984653
3187 1 -19.4624 -18.6088 -0.450902 -5.0972 1.60457 -3.58356
3188 1 -20.1771 13.6424 -9.21579 -3.70925 2.205 -1.43398
3189 1 13.5284 11.4328 7.16448 1.96817 -2.16922 1.94427
3190 1 -21.5878 23.1028 -14.0769 -0.527601 -7.29173 -2.67294
3191 1 6.78457 -6.30489 -7.07631 -0.783927 1.16355 1.97523
3192 1 -23.9838 10.9751 -0.415282 1.68836 -0.0820125 0.564148
3193 1 -18.7089 25.0709 -0.911103 0.183521 -1.9039 -0.603957
3194 1 -16.5715 -4.55014 1.83357 1.82894 1.53557 -2.10331
3195 1 -16.2946 3.85904 2.78332 1.77835 1.29233 2.47484
3196 1 0.414349 1.41111 -2.63793 -1.67361 -4.68984 -2.91857
3197 1 -2.75765 11.5557 2.32285 -2.29261 1.3574 1.21483
3198 1 6.63769 5.33014 -17.9151 -1.2197 -1.89338 3.08398
3199 1 14.6546 -24.2454 4.19618 -1.48962 -1.03119 1.56172
3200 1 23.1718 -4.69373 -4.85361 1.76516 0.783985 2.22867
3201 1 -13.8905 -2.54231 20.574 2.33493 0.469174 0.445774
3202 1 -15.9824 -12.0468 -8.91988 -0.366584 -7.41924 4.25506
3203 1 15.917 8.96549 19.9731 1.8745 0.755005 -0.666099
3204 1 -16.1806 -8.64259 12.3637 0.43184 0.252622 4.62339
3205 1 -12.6821 3.33521 -4.3918 0.375384 0.0723603 -0.719346
3206 1 13.8891 10.4205 -6.0828 2.80227 -2.62777 -1.27098
3207 1 -2.60767 -9.98813 -17.0083 2.02985 1.12106 -0.896128
3208 1 4.98657 -7.3643 6.67119 5.34597 -1.81425 3.26702
3209 1 9.73661 -12.941 -23.6727 3.00939 3.11857 1.93265
3210 1 -13.9397 11.3396 -3.90342 -0.0884451 0.265469 3.62578
3211 1 -3.99908 20.9802 13.0379 2.05614 1.02842 0.047034
3212 1 -14.914 7.94918 -17.3474 -4.30492 -6.4777 1.34991
3213 1 -3.84072 1.71725 -12.9005 0.454597 4.03428 -0.910147
3214 1 -1.95563 16.2818 16.8519 0.147036 -5.39315 2.35232
3215 1 9.07828 3.21302 11.0614 -4.2506 1.6662 -3.98792
3216 1 23.0086 -1.79233 8.94598 -3.80555 -3.46262 3.38918
3217 1 9.33349 2.24056 8.13956 -2.96835 -2.83918 0.42575
3218 1 -3.85005 25.095 -9.30763 1.35666 1.00274 0.585965
3219 1 -6.16733 -21.1125 -17.4353 1.001 -3.9524 -8.035
3220 1 -5.014 -8.89414 16.9619 -0.879671 1.59452 5.82488
3221 1 -6.77596 -5.78515 -1.51103 -4.00361 0.126918 -0.724079
3222 1 -13.5089 -17.713 -2.06122 -1.90033 -1.61521 4.70482
3223 1 23.4139 8.29651 18.0567 -0.133687 0.0706201 1.71659
3224 1 -6.69007 -6.01153 1.56722 4.13434 -2.32435 -1.2507
3225 1 -8.59913 -5.98151 16.2019 -3.99912 -6.39785 3.72882
3226 1 -21.2695 25.3233 -10.0364 2.23093 3.58497 2.1878
3227 1 6.54946 21.2873 -2.25041 1.49926 4.47294 -0.734258
3228 1 -10.8086 11.0943 -13.5023 -0.819697 3.72792 4.00114
3229 1 -10.6363 2.92165 -2.38894 -5.16618 -0.705447 4.35133
3230 1 -23.5302 15.0067 -22.0762 4.01251 2.64899 -2.48639
3231 1 -17.1136 -17.2573 -0.495349 1.69498 -3.24486 -2.44047
3232 1 -22.5035 16.4582 5.08064 2.89338 3.43983 0.823909
3233 1 -0.484872 17.7886 5.81852 -0.690502 -2.26871 -1.25461
3234 1 8.05277 -5.08932 -12.3262 2.61474 -0.307436 -2.70333
3235 1 -5.83139 12.0584 -12.653 4.75679 4.20527 -3.66923
3236 1 17.8485 19.8883 8.31118 -5.54309 1.54335 -6.46296
3237 1 -4.03906 -11.9082 -23.2246 4.047 -4.98278 -3.67651
3238 1 18.8127 21.6607 -2.05886 -0.268399 1.75883 5.39717
3239 1 -11.0365 -14.3768 7.73471 6.24093 -0.549293 -1.18992
3240 1 -11.915 -23.5249 -17.0666 4.83559 -0.0612189 -6.41326
3241 1 3.01532 -21.1553 12.6184 -6.31092 -1.70886 1.45112
3242 1 22.9601 -13.3827 -16.6406 -1.47349 -2.44195 -2.90288
3243 1 6.54955 17.239 22.6744 0.228786 4.22503 0.967863
3244 1 18.6026 15.2687 -11.1858 -1.29508 -3.21144 0.706912
3245 1 -8.54284 22.4601 11.6936 -1.34155 5.10055 2.0163
3246 1 19.7733 5.96494 5.71966 -1.38521 4.08005 0.936313
3247 1 -6.50306 9.55646 -11.0899 6.45203 0.211664 1.2009
3248 1 8.83736 -2.816 0.44315 1.17451 -1.23147 0.0481023
3249 1 7.7997 -3.46377 13.8226 3.93452 -0.488697 -2.49858
3250 1 14.7723 5.48402 -21.5925 -4.11936 -3.50464 -1.40318
3251 1 -0.470023 19.3976 14.4247 -1.20282 0.58132 -3.15519
3252 1 19.9007 44.8758 11.693 2.7589 2.32755 -1.62147
3253 1 8.43267 15.1061 4.10391 6.39338 1.36563 3.12873
3254 1 19.4939 6.24651 -4.72904 3.24351 3.11106 1.10931
3255 1 -17.3675 12.4522 -19.5545 1.21196 -0.712176 0.787835
3256 1 -3.23354 18.9914 -10.7682 -0.468809 0.828679 5.29174
3257 1 -15.0194 7.16049 20.9974 -0.954754 0.40442 0.00603799
3258 1 -20.0643 -7.61007 21.0444 -1.08664 -1.39216 -1.26061
3259 1 19.0828 19.0629 5.79677 0.829765 1.45275 -1.51014
3260 1 20.6222 45.1255 -7.97842 0.155868 -2.62997 -2.78816
3261 1 -15.8068 -3.74845 -16.1078 3.40573 3.44666 0.990848
3262 1 8.89936 8.81959 12.9661 -0.222761 -1.3077 5.19389
3263 1 20.8846 1.15083 18.4702 -4.87072 -6.1823 -3.25693
3264 1 10.5896 7.88621 21.5756 -2.43062 2.05807 -1.44203
3265 1 3.65544 -3.85644 -12.2524 4.65708 -0.786395 0.682469
3266 1 9.05811 -0.441039 -23.7316 6.28956 1.40027 -2.21734
3267 1 -15.2413 10.3402 2.28422 2.48026 -0.403228 -2.55167
3268 1 8.45873 -20.4621 10.5787 2.50323 -2.77542 -3.59112
3269 1 7.06024 16.4808 -3.12324 3.11118 -1.41882 -2.1088
3270 1 17.9479 -18.081 15.3405 -3.09672 2.12021 -0.936984
3271 1 8.17157 -12.2508 21.8839 -2.03635 2.99425 0.977517
3272 1 2.86877 11.4958 -9.34003 2.22822 -2.02076 -2.58696
3273 1 -15.6739 6.80229 -14.4325 -2.35874 2.80105 -2.72199
3274 1 14.0157 -19.789 4.7108 -2.393 4.53749 1.00875
3275 1 20.5859 7.1125 13.3686 0.102132 2.10135 0.693524
3276 1 8.93043 1.46333 13.571 -1.38225 -0.634725 5.43967
3277 1 0.368453 -14.4271 1.099 -1.17189 -3.24648 8.64819
3278 1 -1.75526 -6.34228 -20.6238 -3.20467 0.915259 -0.622944
3279 1 5.81857 -0.93279 16.6321 -0.871306 5.36173 0.128539
3280 1 8.37106 15.5158 13.6154 -0.456331 5.16091 1.54985
3281 1 -4.91393 -16.5178 12.6053 3.5766 0.0476188 -2.50927
3282 1 -0.353349 -4.17366 -15.637 -2.0876 -0.341972 -1.2717
3283 1 -4.31632 -0.5111 14.395 3.22518 0.896973 -0.159431
3284 1 13.6176 24.3781 -19.5549 -2.31484 2.32343 7.34886
3285 1 3.29265 17.7276 -12.8489 -0.63035 5.80514 -1.29839
3286 1 -17.0205 23.9309 5.58634 -2.19625 4.03415 0.349323
3287 1 -3.99944 -13.5084 16.4144 -0.233591 -2.18288 -5.42335
3288 1 -2.79693 6.79594 -19.3927 0.769063 0.655433 0.909178
3289 1 -16.284 46.2603 11.8649 2.99549 0.160605 -2.0049
3290 1 -13.4137 21.799 17.1054 -3.20803 0.818223 1.44021
3291 1 21.0742 24.2956 -10.8944 6.46466 -1.1631 -1.36647
3292 1 -22.2085 22.1813 1.77298 -5.17156 6.64516 -1.06635
3293 1 -10.4288 12.5237 23.4552 3.59959 1.95605 2.12949
3294 1 -23.5386 -0.732228 -16.5468 -2.14519 3.00008 4.91934
3295 1 4.97091 -23.0438 0.747773 1.38559 0.424003 -0.576187
3296 1 -17.922 -12.4837 15.5657 -2.30508 0.893587 -3.37489
3297 1 -16.8174 25.7391 -23.5449 3.46447 0.835214 1.51445
3298 1 4.51549 -9.00607 -17.1288 1.08004 -2.62154 -1.11812
3299 1 -13.7647 24.5214 -5.0255 1.21094 1.00447 1.42732
3300 1 -1.50172 5.75648 -7.57945 -1.14685 7.94994 -3.12117
3301 1 -21.297 11.0411 -8.83331 1.61905 1.49064 -5.32409
3302 1 -19.383 -12.2391 17.8883 1.10916 -4.73581 -2.03985
3303 1 -22.2373 -24.1241 -15.7249 0.0856652 2.05602 -3.46109
3304 1 -2.02464 16.2175 12.5773 -3.06035 1.60093 2.6387
3305 1 2.48802 5.19446 -7.12632 -2.75495 3.25772 -6.23748
3306 1 -8.23847 11.5604 -22.39 4.03556 -3.07445 -0.743114
3307 1 -21.7952 11.6156 19.3781 -1.94442 -0.500576 0.159683
3308 1 -16.4667 19.1605 -3.20895 2.76171 -4.69416 4.36962
3309 1 2.62516 0.0512996 13.7824 0.637212 -0.987239 -3.29113
3310 1 15.8354 25.4301 7.85653 3.01558 -1.41759 0.974586
3311 1 12.9261 3.0745 -11.4675 -0.546877 5.59902 -3.37626
3312 1 -23.2072 6.70387 15.8831 2.61452 -2.87345 -3.23948
3313 1 13.2136 11.4919 9.97595 -3.11814 0.641683 -2.28202
3314 1 1.73281 -1.71377 10.4697 1.00665 0.457075 2.5397
3315 1 21.7691 -11.9824 23.1898 -0.139208 -1.55724 1.92505
3316 1 3.32301 -7.111 -4.46774 -2.88945 4.7017 4.45199
3317 1 2.29925 1.00818 9.95638 5.55241 7.01254 -0.947091
3318 1 -9.02141 1.94637 21.8801 -2.70432 1.14236 1.11099
3319 1 0.545543 4.15519 -15.0727 -1.6233 -1.26233 -2.18502
3320 1 3.8699 4.71197 -11.3964 2.38663 2.33806 -4.20047
3321 1 -8.11772 -15.961 20.5534 2.72922 -0.708287 6.24238
3322 1 14.7071 -9.92732 -22.9908 -9.74625 1.14948 5.29307
3323 1 -3.36339 18.4218 14.0135 -3.19065 -3.7791 0.880131
3324 1 15.0389 -15.4218 -11.8643 -1.91672 -0.930235 -0.56726
3325 1 -10.6569 15.4193 3.58051 -2.08474 -2.22261 -3.17709
3326 1 -22.5907 6.60698 -21.2034 -0.0662462 -4.69182 -5.44864
3327 1 5.57184 -22.8843 -9.65414 3.02353 1.84666 -0.671664
3328 1 4.20797 -17.8956 -11.402 4.96577 2.49809 1.03795
3329 1 15.2417 4.08969 -17.6876 -5.73153 1.68263 0.295657
3330 1 -7.66999 19.7458 -14.6731 -3.89371 1.56871 5.88564
3331 1 -19.0381 -4.20674 -1.71822 -1.76251 -1.46724 0.704715
3332 1 -4.80608 9.75416 20.5106 -1.86662 1.89865 -3.57697
3333 1 7.19885 -7.66228 23.4032 -0.673374 -0.360786 -5.46718
3334 1 23.19 20.3017 17.7103 -1.71416 1.22445 -8.33602
3335 1 22.1529 -0.0754237 -3.55692 -5.90408 1.13185 -2.15419
3336 1 14.3724 -16.7902 1.33229 -1.43745 0.0310203 2.26427
3337 1 -14.9706 11.2764 9.70717 -5.12434 0.0167878 -1.38411
3338 1 9.79824 23.1339 16.3274 4.03232 -2.51467 0.308257
3339 1 10.4929 21.6467 -21.5294 0.16813 -4.36746 -2.56908
3340 1 18.0053 -1.04907 -19.4556 3.17326 2.16611 -3.8683
3341 1 20.5353 22.745 -14.865 3.31171 2.17419 -2.25596
3342 1 -1.97797 -1.13486 3.5232 2.57313 0.00532626 -2.8003
3343 1 -23.2786 -5.61636 -16.7416 -0.609845 -2.34385 -1.28338
3344 1 17.6779 -21.1266 15.6201 -3.84235 3.7173 6.52592
3345 1 13.5973 24.6922 23.4034 0.534726 -5.12696 2.12493
3346 1 9.77809 -23.0684 -1.23024 -1.29455 3.36622 -1.88121
3347 1 -24.208 13.5916 -14.4117 9.12747 -0.194067 -1.15746
3348 1 -10.1504 -19.434 0.00917893 -5.84941 -1.11424 2.01135
3349 1 14.8935 20.0542 -13.6822 1.28722 -0.176939 -2.69795
3350 1 -5.88851 -6.6551 14.9367 -0.906467 4.64627 -3.52313
3351 1 -21.144 -10.2122 15.8733 -1.73131 -0.211944 0.753134
3352 1 5.9602 15.5893 5.68778 2.11503 -0.349205 5.57756
3353 1 -22.6254 3.87618 16.2275 -0.565405 4.22639 -2.37463
3354 1 -15.7536 9.81521 -0.447528 5.16966 -7.66716 0.723374
3355 1 -16.507 -21.0272 -7.58699 -5.18806 2.80604 2.83276
3356 1 -9.22055 23.3583 6.94079 -1.77438 3.32135 3.58001
3357 1 7.5962 -6.18556 19.592 0.231415 -4.95803 3.56563
3358 1 -2.25224 22.9719 13.7871 1.05259 -5.30707 7.15593
3359 1 -5.62552 24.9752 13.7483 -2.39466 0.419097 2.4271
3360 1 -6.75501 -14.3791 16.8271 -3.01849 -1.61786 -0.793376
3361 1 -2.958 25.5778 9.7576 0.126906 -4.58999 1.95112
3362 1 -8.76737 4.54669 -14.4386 -0.784951 1.55256 -1.1057
3363 1 11.2707 -1.36242 -16.5686 -1.36068 -1.88592 0.401761
3364 1 -19.324 -7.5694 2.41766 1.18839 3.46111 -5.05458
3365 1 -0.156873 -6.54658 10.8997 2.30683 2.52479 -4.385
3366 1 -18.8915 46.6464 -21.9095 6.63969 2.52436 3.2836
3367 1 3.60566 -19.9729 -20.8268 -2.27589 5.22929 -2.81982
3368 1 20.5302 -21.9793 16.6856 -0.998337 -3.34841 2.26267
3369 1 -2.1056 -3.72246 -6.75034 -0.232897 -1.19631 -5.90364
3370 1 -18.9267 -14.1863 -15.1489 -4.41893 1.39482 -0.0747189
3371 1 -10.4186 3.82125 15.2621 0.882653 4.2645 5.45441
3372 1 4.8163 -3.87027 -6.77359 -1.07799 -0.547914 -1.91609
3373 1 15.1765 -5.71464 19.589 5.01078 3.22244 -4.53483
3374 1 21.8712 -14.6029 -23.3195 -3.47989 -0.338806 -0.80706
3375 1 20.9965 -10.2405 -1.91629 0.346385 -2.87213 3.57626
3376 1 -16.7216 10.4549 15.3189 -3.9662 3.60721 1.30599
3377 1 5.35247 -14.7978 13.0447 -3.16041 1.05987 -1.62716
3378 1 -5.17695 -17.2588 -2.06389 -0.480429 -1.52017 -4.20433
3379 1 10.9461 -9.21705 8.53103 -1.75422 -3.6677 2.42048
3380 1 0.57842 17.3486 -23.6822 -2.02445 0.359946 3.78201
3381 1 -3.98025 -15.9014 -21.6971 3.29408 1.87392 -2.41099
3382 1 -19.6998 15.1444 14.0514 3.31009 -2.47328 -0.597393
3383 1 -19.4493 26.0174 -16.0594 6.81258 -0.265971 -1.7256
3384 1 18.4374 -19.5398 -13.0914 -1.61425 2.64131 0.548465
3385 1 -0.69092 -19.0727 -7.16834 0.0842346 -4.12651 1.34178
3386 1 7.37666 -9.11808 -21.7214 -4.39689 0.58146 6.45204
3387 1 -18.6331 -1.46261 3.28567 0.670941 0.781774 -0.131772
3388 1 -18.9892 -0.88111 14.8884 -5.4584 8.86967 1.30416
3389 1 -12.6972 -10.669 -12.303 5.86868 0.541859 -1.36818
3390 1 22.819 -23.0324 14.1647 1.50342 -4.60566 6.44058
3391 1 -7.77791 -16.0262 4.72883 -1.64038 -0.660464 -1.0657
3392 1 -8.80498 2.89391 -16.9079 -1.50953 0.5607 -0.148314
3393 1 -16.1178 15.8277 -18.601 -0.087216 5.68334 -2.80895
3394 1 -10.4342 -0.0435519 13.8505 2.47693 -2.21521 -0.62534
3395 1 16.0508 -16.1294 10.2696 1.80233 -0.464783 0.170584
3396 1 -20.9534 8.39663 -7.67033 2.99405 2.12671 -2.77855
3397 1 -4.61034 4.673 19.3209 -1.36046 -1.89835 4.94489
3398 1 -5.50119 -20.219 -5.508 3.30128 0.684895 0.0986586
3399 1 0.880534 -5.84961 4.73084 3.50719 -0.0881292 0.292789
3400 1 16.4296 46.116 -21.5488 0.971886 -1.8413 5.5883
3401 1 -18.2069 -24.2954 -14.4832 2.32931 1.31585 1.0254
3402 1 15.3839 -19.0037 -16.9129 -3.13941 -1.89733 -3.32358
3403 1 -15.4231 46.7196 -0.0755521 3.76042 -0.569069 3.73638
3404 1 -17.2345 -9.09191 0.971833 1.07589 5.91452 4.28401
3405 1 15.691 4.99362 12.5432 3.64482 1.15975 -0.123803
3406 1 5.3762 -5.68773 4.3037 -0.0250348 -0.343108 3.46795
3407 1 14.438 -2.09825 -12.8765 1.14575 1.88361 0.0377592
3408 1 -19.6192 16.2211 -23.0699 0.364639 1.267 1.24856
3409 1 -1.76853 -18.4829 17.7265 1.45436 2.62035 -0.0310587
3410 1 -19.7458 -5.89448 14.439 0.00188379 -5.92875 -5.328
3411 1 -3.57519 -3.28835 20.9509 2.73668 -0.855797 0.394523
3412 1 6.681 -2.10864 -9.93923 1.28942 -1.00848 -0.603997
3413 1 -0.265252 -24.2023 -18.9228 6.82557 -1.09856 1.44729
3414 1 -19.5173 4.72937 -5.43606 -3.14788 -2.04646 3.9229
3415 1 -18.8446 0.995053 -16.2991 1.58004 2.05373 0.395058
3416 1 22.1874 -22.6731 -7.17074 -2.69035 -1.14897 0.509517
3417 1 -23.3366 -10.494 9.33455 0.849493 4.03967 1.50963
3418 1 17.5509 19.0667 12.0569 -4.98536 -1.14075 -1.03737
3419 1 -9.88149 -9.13597 2.01494 4.44124 -0.399241 -3.83171
3420 1 -19.5222 10.7276 8.95866 -2.34281 2.05201 -0.348347
3421 1 10.0327 13.7888 -15.183 3.13398 -0.790121 -1.09928
3422 1 7.19688 -15.6592 -3.73029 2.41273 -2.822 -1.47691
3423 1 -13.846 3.91547 0.864723 -0.847364 1.50874 2.58525
3424 1 -1.47511 -10.2495 2.96428 -2.83061 1.52103 -3.43483
3425 1 -23.6864 -10.5349 18.4935 6.38569 -0.118236 -0.98252
3426 1 -20.2654 -6.87404 5.28055 4.23324 0.159406 -2.59929
3427 1 -22.9717 11.269 -16.1099 3.67196 -0.864602 6.63876
3428 1 -4.17457 12.1592 16.8846 1.37049 -1.44755 1.44001
3429 1 6.39705 -18.2555 16.3755 -3.37861 -4.29323 1.18014
3430 1 -12.842 -14.7427 19.2303 2.48959 -1.90391 2.32249
3431 1 -9.47533 -3.29053 1.30378 -6.11235 4.54874 -4.00562
3432 1 -2.67955 9.93969 8.64371 -2.39951 5.12233 -5.26198
3433 1 -9.79959 -1.63811 -17.4838 -1.79727 -2.02229 1.80401
3434 1 13.0671 15.8384 -12.148 1.44515 -3.33077 -1.85122
3435 1 -1.79114 21.523 -15.7888 2.92072 0.234589 -3.63157
3436 1 -3.57313 9.26315 16.6826 2.85336 -0.227575 -0.19234
3437 1 11.9379 16.1376 -6.72421 4.02726 -2.08729 -1.17694
3438 1 -17.4784 11.993 3.12448 1.25073 2.62077 -0.36359
3439 1 2.7536 -13.8233 12.2221 -2.41605 1.70956 4.91624
3440 1 4.60953 22.7826 -9.06458 -5.47776 0.408398 1.21301
3441 1 7.97218 -13.9339 -7.04081 -3.26429 -5.51141 -3.76204
3442 1 -3.77927 2.09492 8.46579 1.67406 0.222705 4.55107
3443 1 -22.49 1.69981 -0.854513 0.521427 3.35711 -4.53962
3444 1 -17.7561 14.661 3.24466 2.28527 -0.858511 -0.0455428
3445 1 -12.9781 3.03237 -9.2988 4.46685 -0.713208 3.33719
3446 1 -3.13656 -23.7066 -19.0467 -1.60089 -0.242013 -0.233141
3447 1 -6.91389 4.66835 -6.06753 0.640919 1.03954 0.482025
3448 1 -19.8318 6.40874 14.9241 1.14121 -0.426632 -2.13724
3449 1 8.77945 25.3847 -15.662 2.00092 3.00194 -2.09443
3450 1 -2.09479 -13.6868 -13.8525 -3.9259 -3.23731 -1.00876
3451 1 6.89585 -10.5909 -19.2571 -2.99329 4.96573 0.95537
3452 1 -12.3466 -0.541188 -11.6432 3.89656 -1.82344 -2.38088
3453 1 16.4326 9.31832 -19.4917 -2.79603 0.309919 6.0889
3454 1 -23.3459 21.0141 12.8487 -1.56922 2.48164 0.143517
3455 1 -17.7977 16.0414 19.11 -4.61814 3.27548 -5.06005
3456 1 10.4375 24.1996 -13.6817 1.47953 0.126455 1.68331
3457 1 -22.5976 17.5669 21.7834 -4.1624 -1.46138 -1.58774
3458 1 15.5765 9.70769 22.6904 -0.612435 0.312593 -1.20347
3459 1 -3.82969 18.8849 16.707 -2.69062 2.00167 1.676
3460 1 -1.54331 20.8592 17.7215 -8.06657 -2.32209 -1.49228
3461 1 -13.5249 46.4646 18.4631 5.2161 1.27282 0.408535
3462 1 -12.6186 23.248 -7.60382 -5.06208 4.3093 1.06637
3463 1 22.8916 8.87304 23.5714 2.38307 -2.24216 -1.23155
3464 1 -18.8763 -18.9304 11.5704 -1.73228 3.7979 2.36918
3465 1 1.87969 -4.59182 11.2562 3.8072 -0.500196 6.07747
3466 1 -11.0182 5.97305 -7.2073 2.07905 -0.534258 -0.876888
3467 1 11.0924 14.573 13.5776 1.53293 -1.23788 2.07895
3468 1 -7.33744 -6.36168 23.7935 3.79238 0.108262 -4.72826
3469 1 -2.82305 -9.86868 0.546899 -0.561453 2.01568 -0.843069
3470 1 -17.3694 -19.651 -10.0508 0.798506 -1.5596 7.23043
3471 1 -14.9692 -17.8287 -16.3185 3.79808 -1.19346 -2.3213
3472 1 -13.9359 11.671 -18.3554 0.0730858 -2.77333 0.202299
3473 1 -23.6063 24.6415 -18.0859 -3.39975 2.51619 -1.34457
3474 1 15.887 -3.94583 12.2231 3.88782 0.850497 0.116715
3475 1 -20.3522 -15.0154 18.1364 -2.66097 -2.43284 -5.59988
3476 1 2.22215 12.5716 15.5711 1.02994 1.10104 2.48034
3477 1 -21.6132 -1.74032 -14.7535 3.33923 -3.38657 -1.70185
3478 1 10.3136 -14.0589 3.04646 0.36213 3.7571 0.73193
3479 1 13.0449 -4.50094 12.0343 3.94255 3.37767 -0.19271
3480 1 21.9056 25.9832 -4.46597 0.152242 0.0252484 -0.459807
3481 1 3.8332 -22.0144 23.4087 1.88097 -3.29295 -3.87144
3482 1 12.8074 17.8066 2.11141 -2.52114 5.0829 0.274101
3483 1 8.78878 20.5208 -0.813585 1.08029 0.899933 0.36817
3484 1 3.57107 11.1743 7.08973 -1.55021 -0.609588 -3.9657
3485 1 0.983643 6.23912 -3.06732 -6.36531 3.89943 -1.89514
3486 1 15.4128 24.0841 16.4433 0.0732999 -0.0991108 1.16295
3487 1 9.66165 -9.10893 -11.1449 -0.97911 0.0144755 -0.303806
3488 1 15.2939 17.4389 -13.2141 1.7013 0.00409033 -1.16916
3489 1 18.4965 1.5298 -9.22919 -1.93521 -0.21413 -1.6163
3490 1 -20.3937 6.22952 3.96446 -0.643862 -1.83212 -0.493764
3491 1 -9.20069 8.64199 -22.3284 -7.39964 -3.7282 -1.14892
3492 1 18.3233 -3.6128 6.44502 3.83332 -1.26977 -0.133317
3493 1 6.86319 10.9557 16.7543 -0.379487 0.105845 1.65935
3494 1 -16.8439 2.45925 22.8681 -3.0864 0.837498 0.82088
3495 1 23.0207 -4.99472 15.3278 -2.51898 -2.55308 -3.9859
3496 1 -9.99016 6.77123 -16.2746 6.81571 -1.4829 2.8655
3497 1 -17.1804 12.3942 19.1883 -3.95876 5.9376 -1.07069
3498 1 -16.2431 14.1392 6.746 2.81935 -1.62955 -0.57409
3499 1 -19.8451 21.2713 -20.5433 -1.95896 -4.12978 4.88907
3500 1 18.7745 14.7001 -8.391 -3.29798 -2.53122 -3.45262
3501 1 -17.3662 20.0456 -5.809 2.60312 2.13707 -0.199613
3502 1 -7.92887 22.8482 -4.48447 0.968561 -0.782648 1.33773
3503 1 19.2775 -23.2813 2.3775 -4.4146 -0.633787 3.54922
3504 1 17.7306 -0.369317 3.34511 0.579274 2.51561 3.14784
3505 1 -1.11924 -15.1497 3.33555 2.23649 1.05612 -1.33588
3506 1 -22.2553 24.2673 -4.87124 1.26051 0.96162 -1.48161
3507 1 9.68824 5.71923 -10.8827 -3.5526 1.37384 4.15255
3508 1 -3.9007 -12.9683 -20.6435 -1.69542 -2.55068 -0.608088
3509 1 -18.9644 -19.662 -21.8002 -1.18326 -4.29886 -3.54076
3510 1 -10.905 3.95457 12.515 5.28565 -1.46473 -4.73913
3511 1 17.3097 10.1296 -1.98464 4.09546 0.389256 -1.38523
3512 1 -18.0884 5.0585 0.996701 -3.0347 0.172686 2.5929
3513 1 -18.166 -22.0694 -20.4089 -1.58539 0.958097 -1.49738
3514 1 -1.25363 16.7117 -11.5448 -0.101077 4.58386 7.18756
3515 1 15.2204 -18.7752 8.9813 2.35819 -2.54696 0.355035
3516 1 -21.6417 4.61774 -19.2058 0.256382 1.08271 -0.766235
3517 1 -6.72556 18.7347 17.9343 -0.492462 1.42851 -1.3084
3518 1 1.99087 -0.140701 1.00896 -3.67905 -3.96637 -0.382528
3519 1 -4.46461 4.02391 16.6342 2.64484 -3.9712 7.53496
3520 1 -6.6341 -11.6758 21.5561 -4.92385 3.59493 -3.23612
3521 1 3.22378 10.272 -16.575 4.93134 -0.337457 2.4321
3522 1 21.6107 16.3403 -21.5393 7.22071 -0.619061 1.80282
3523 1 -13.8405 -18.2747 6.1507 7.46513 4.78115 -3.11323
3524 1 -1.3876 24.0254 -1.36928 3.58888 1.60573 1.86733
3525 1 -16.0766 14.4257 -21.3124 -1.18379 -0.180724 2.03367
3526 1 9.87293 20.9248 -8.4994 -0.760173 -4.21443 -5.06992
3527 1 -1.8524 12.8118 5.5764 3.28465 4.65048 -3.41334
3528 1 -22.6095 45.8839 -0.148301 2.2259 -4.76831 -2.21926
3529 1 -20.8148 8.76558 20.6075 0.378304 2.60921 -7.68567
3530 1 -12.2942 11.6264 6.9041 -5.25658 -0.514714 0.7653
3531 1 3.29511 5.72086 22.0905 1.91911 1.53271 -4.22569
3532 1 -6.76911 13.6981 -8.78323 1.68613 -4.28491 -2.59678
3533 1 14.8399 12.1203 2.81283 1.48597 1.32963 -3.50082
3534 1 6.4126 -1.09445 20.2873 4.38685 -3.86266 -6.35136
3535 1 13.1193 -20.7629 -17.8763 4.29169 1.38333 2.59974
3536 1 22.3075 -20.2274 10.168 -2.77107 -2.37934 0.0293585
3537 1 19.7274 24.9674 17.0581 -1.67982 5.19329 -3.19143
3538 1 4.76098 -8.2707 13.8895 3.78467 5.61235 -4.77282
3539 1 14.6153 25.0775 -12.7125 -2.75417 2.3205 -0.111894
3540 1 -0.942837 12.9686 -4.17486 0.894076 -1.3159 -2.47305
3541 1 13.4605 -2.65363 -19.367 6.1143 -1.9312 2.76452
3542 1 18.4844 -0.924646 5.88757 2.6042 1.0847 -3.57141
3543 1 -17.5394 14.9616 -6.75437 -1.05865 -1.54474 5.26688
3544 1 -9.63283 20.9152 -3.21608 -1.76529 0.182778 4.86922
3545 1 2.3617 21.7386 11.9177 -0.784435 -2.161 -0.820486
3546 1 16.8084 12.6258 -10.974 0.814036 -0.0748721 -0.923115
3547 1 9.47683 -15.131 -10.0648 0.704261 4.12174 8.01732
3548 1 9.72025 -10.5975 -19.3235 0.727444 -3.17408 -2.87337
3549 1 -12.2683 8.86922 5.8746 1.51828 2.17776 -2.36439
3550 1 -13.0108 18.0512 9.15168 -4.89637 -2.29453 1.84448
3551 1 13.5182 0.104262 -20.0827 -2.83743 -0.0166669 2.26787
3552 1 15.1545 21.1018 8.05498 -0.551667 -2.87729 6.31722
3553 1 -9.95624 19.4549 -5.63968 2.14418 4.40291 -1.27108
3554 1 12.8714 12.4134 -15.1869 -4.13592 4.56998 -0.219297
3555 1 -18.4564 -21.2897 0.234423 -1.08097 7.267 0.571359
3556 1 -8.42522 -12.5858 17.9023 -0.511629 0.88878 -3.58792
3557 1 10.9699 7.6261 -19.1479 1.30397 1.33433 6.17823
3558 1 -20.5676 -13.6969 0.272456 -3.92019 1.18716 -1.25575
3559 1 8.48634 -3.41395 10.9163 -0.179092 -1.67722 -0.118471
3560 1 -20.2542 18.8653 -17.0972 -0.955239 5.1227 -2.86407
3561 1 -18.9501 22.421 3.85885 -2.06541 1.32225 2.19096
3562 1 19.1399 11.9934 3.51748 -2.01084 -1.20638 3.45753
3563 1 4.19449 -22.1309 -5.31221 8.0768 -2.03277 -4.0405
3564 1 19.6873 12.3907 -14.5376 4.61301 -0.133953 3.18011
3565 1 17.3952 -19.8502 -4.89949 -0.206687 -2.29807 1.61597
3566 1 -11.9455 -13.324 3.85379 -0.399591 1.74748 -0.167523
3567 1 2.2994 -8.40988 5.52245 -5.06421 3.97756 3.43823
3568 1 18.5583 -3.31316 12.2882 -2.12113 -1.78885 -1.59875
3569 1 -5.00991 4.28883 -12.0962 -0.945609 -1.11139 1.29926
3570 1 11.3014 23.0369 22.6136 -1.60028 -0.746032 -2.229
3571 1 2.05022 22.0003 7.93229 0.349313 -0.795099 2.82003
3572 1 -13.3435 -17.1207 -18.3414 2.66462 -3.08611 1.87117
3573 1 20.9409 -3.59907 -1.78068 -0.209839 -1.23862 -4.9261
3574 1 -15.8615 -4.10415 -10.965 0.251482 -0.70408 -1.0514
3575 1 -10.7589 -13.809 -10.7989 0.537113 -3.34172 -1.61923
3576 1 15.4276 4.41937 15.9958 1.00809 0.0856563 -0.291843
3577 1 -6.84301 9.78318 -6.20955 4.03465 3.75948 -2.4121
3578 1 21.7044 8.54176 20.9194 -2.74725 -2.80192 1.90362
3579 1 -19.2599 -9.038 -7.10131 -2.18684 -0.736572 -0.0925019
3580 1 -1.49201 -9.98204 7.88145 3.32988 1.16239 0.595197
3581 1 -11.5317 9.14134 3.17151 -1.96525 -0.959953 -0.124347
3582 1 -13.9201 46.2899 13.4175 -6.08338 6.70684 -2.78793
3583 1 -17.0803 16.83 7.26098 -2.51545 1.84399 -1.34489
3584 1 13.2659 6.64407 21.0105 -3.87261 1.02733 -1.72098
3585 1 10.1723 -1.41453 10.0165 1.51015 3.19592 -1.21645
3586 1 15.3145 -1.14602 -7.08819 0.379904 -3.1624 -1.5611
3587 1 23.1456 -17.3828 -18.2564 -1.65699 0.623215 -0.570464
3588 1 -22.6733 -7.69475 -9.92815 -2.03289 -2.25547 4.09709
3589 1 -14.2727 0.464279 -8.11797 1.52023 -4.19339 -1.57899
3590 1 13.195 -1.20613 2.10178 2.3399 -0.0346432 -0.872718
3591 1 -9.44476 -9.43543 -23.4733 1.17022 0.632281 5.27462
3592 1 -7.36322 -17.1515 -5.99287 -4.25058 -0.650896 -2.26964
3593 1 15.343 -12.9494 -13.3352 2.33373 -3.35467 4.31614
3594 1 15.6131 0.307964 5.17061 -5.44043 -0.207536 -4.04489
3595 1 -3.40186 -14.4696 8.2961 -0.696896 -0.775356 -5.69334
3596 1 -8.15856 -8.0717 -8.88449 5.02922 -3.15294 0.55298
3597 1 -4.55861 12.131 4.45765 -3.89873 -7.59243 -2.57421
3598 1 -13.1431 -11.0063 -4.72868 -3.34553 1.44873 1.79064
3599 1 13.7896 14.1721 -7.97929 0.581672 -0.507586 3.56005
3600 1 -20.4231 21.925 -7.69977 -1.26541 0.255912 3.39745
3601 1 -21.4756 -13.2607 -3.59858 0.940075 3.9694 -3.5214
3602 1 2.69506 25.9101 23.0796 1.9769 -0.680212 -0.966929
3603 1 -4.99786 -0.614329 11.5166 0.0272873 0.0418077 -0.906473
3604 1 8.82355 12.3747 -23.7715 -0.207021 0.470892 3.13074
3605 1 13.3204 21.3385 14.6427 0.996887 -1.2044 -0.736162
3606 1 1.33065 6.90331 -15.2314 2.1066 -3.35563 -4.93655
3607 1 -19.9626 4.56695 17.0322 -4.01947 -1.47332 -4.15705
3608 1 19.2479 24.882 -17.5722 3.11714 -1.91862 -0.394003
3609 1 11.0424 -12.6428 7.51526 5.71562 -1.60292 0.175178
3610 1 14.2468 11.474 -23.0777 0.0773402 1.23495 0.648446
3611 1 -17.288 24.525 -15.2216 2.18229 -1.44534 -1.97653
3612 1 -3.75852 17.2976 -8.39969 1.22519 2.16866 1.54349
3613 1 1.22113 26.2717 11.9831 5.45207 0.966348 -3.59835
3614 1 -0.504046 -4.60557 -2.42511 1.29335 -0.10477 0.382972
3615 1 2.80308 19.3739 3.78724 5.23155 -2.68549 1.36115
3616 1 -11.2769 -11.7397 20.188 -3.35747 7.52374 -5.24523
3617 1 15.2676 1.04143 -22.205 -1.86212 2.9286 -0.915294
3618 1 0.753778 -9.75809 -7.27966 -1.62888 -5.19031 1.2214
3619 1 -2.34453 19.9581 9.35237 -0.602931 2.26426 -1.30916
3620 1 -2.80633 14.3706 -11.2054 0.542017 0.294781 -0.155416
3621 1 -7.85857 14.7637 11.8852 -0.40536 -3.29379 2.11662
3622 1 6.54179 -13.2478 8.07575 3.17507 -6.89685 0.837953
3623 1 10.2256 -2.1043 17.1292 1.80847 -0.585334 -3.83891
3624 1 -24.2442 -8.40159 6.01683 -3.36299 -3.20148 0.257586
3625 1 5.53073 -15.5778 21.5372 0.119489 4.42097 -0.280985
3626 1 -14.7817 4.0098 -6.3042 -1.95082 0.961658 -0.525974
3627 1 -2.80097 19.2417 6.58374 -2.40964 5.33354 -3.27623
3628 1 7.75473 0.0608119 9.57823 2.42013 3.03409 2.71508
3629 1 -0.848133 -3.64596 4.71002 -8.21798 2.53071 2.24586
3630 1 3.78557 -13.4104 0.0528176 5.30502 -0.303088 -6.99953
3631 1 5.86075 8.1824 19.6713 -0.960969 0.58169 1.1656
3632 1 -15.1367 -15.7601 14.5115 -1.33265 -4.22348 -0.686122
3633 1 11.6822 4.47065 -4.86895 -5.48393 -0.0748326 0.795707
3634 1 -2.347 5.60434 10.0147 -0.642225 4.61757 3.80371
3635 1 -0.657936 -17.3916 -20.6397 2.25917 0.51047 -2.64496
3636 1 4.16604 -20.506 -15.57 3.18809 -3.29238 -2.81935
3637 1 -4.97775 15.7906 -23.4775 -1.73732 2.80777 -2.23986
3638 1 -22.8008 -8.34025 20.1922 4.70956 -2.73005 -1.94492
3639 1 5.91252 -18.0771 3.08678 2.61985 2.31145 -2.58746
3640 1 19.0687 -17.1744 -11.5877 -0.129483 -8.31749 0.921721
3641 1 1.3852 12.1462 20.562 -1.80417 1.43786 0.405532
3642 1 -2.84139 -17.4253 4.06574 1.9716 -2.60948 -0.933984
3643 1 0.144984 5.26999 9.30196 -1.01861 -3.0465 -2.18527
3644 1 18.0203 19.9361 0.276 -0.842312 3.40462 -2.18894
3645 1 -16.4309 -14.1909 -6.60375 -0.317822 1.20386 5.66738
3646 1 18.6558 3.10721 -19.549 -4.78772 -3.49118 -5.12129
3647 1 20.6613 -22.0844 4.63076 -1.36848 -0.453689 4.75271
3648 1 -21.2055 -22.0054 0.895053 1.19722 -0.737605 -3.09721
3649 1 -18.4023 -0.968879 -18.2783 0.571078 6.03606 -1.25476
3650 1 4.72232 -7.86122 -13.3535 -2.21986 0.615444 0.722097
3651 1 -9.27198 8.57138 12.913 -1.26669 -2.91435 0.194674
3652 1 21.4029 -13.4572 13.0695 1.17635 -0.572102 -0.901763
3653 1 -1.46366 16.7803 -2.1714 -0.0389277 -4.03772 0.217923
3654 1 -20.4557 23.4721 13.0624 -0.418158 1.16708 2.90884
3655 1 -9.90768 24.5146 -13.3922 4.25644 0.713988 1.11509
3656 1 -12.7394 -20.1035 19.5752 -4.11005 1.31283 -2.97311
3657 1 -24.1396 24.9148 -9.40636 -0.282854 0.962384 1.97041
3658 1 20.9892 15.0095 16.2614 4.04152 2.00866 0.828755
3659 1 22.8524 8.11237 -18.4231 3.05062 1.24224 -1.30388
3660 1 17.2762 10.3587 10.0648 4.50251 -2.026 -3.73899
3661 1 21.2008 10.4126 -18.7907 2.58734 -0.150614 1.50917
3662 1 -1.69952 0.427023 -21.0482 -1.45649 -2.83956 3.04463
3663 1 -19.8567 -14.3854 -12.3459 -3.35219 -2.04164 -1.21536
3664 1 4.93962 19.1899 13.3558 1.47618 -1.01782 6.70198
3665 1 10.9943 -11.0433 -15.9809 1.8076 4.16512 -1.20745
3666 1 6.21328 -16.0128 -23.1651 -6.30684 2.89907 1.08719
3667 1 14.9843 14.7658 -17.2688 1.88897 1.58637 6.12453
3668 1 -12.2916 -2.57975 23.1829 0.738454 2.70588 2.79944
3669 1 -0.918468 21.9033 2.64853 1.8821 -0.8043 -2.24034
3670 1 14.1182 6.47001 -9.66099 2.16681 1.12291 -0.338209
3671 1 -2.8939 11.706 -12.3866 4.13646 -0.859658 0.487819
3672 1 -12.5898 11.6842 11.4205 2.81129 -0.941983 1.79604
3673 1 -2.38769 46.7126 20.1972 2.67789 3.7459 0.580725
3674 1 0.825797 -0.663711 -4.40526 -1.67052 0.852068 -3.09578
3675 1 -12.5709 20.6584 -8.93218 2.3904 0.503358 3.04037
3676 1 14.4986 14.7528 -14.4613 1.09397 3.63301 -4.67668
3677 1 -6.09816 15.3203 15.7394 -2.6804 2.95402 -4.38523
3678 1 -18.6928 8.12344 12.8046 6.0213 -2.16547 7.63412
3679 1 10.3064 -19.1906 -6.55134 -3.23078 -1.92696 -1.52403
3680 1 14.0291 7.4031 -23.8572 7.88348 3.59095 -1.65129
3681 1 -6.61018 0.476924 15.9792 0.982099 -1.65664 2.93835
3682 1 -23.5893 -21.6826 16.7727 -4.97999 -1.18708 -0.938536
3683 1 6.62207 12.9917 4.20987 0.897278 6.81017 5.10783
3684 1 13.8549 15.174 -22.4748 -3.87153 -2.67367 -2.61473
3685 1 4.76782 -5.27359 1.5086 -2.9432 3.47117 3.01433
3686 1 -21.8551 11.9387 1.50341 1.26441 -1.04825 1.67059
3687 1 9.10674 -17.5656 9.93679 0.228943 4.33087 -1.3839
3688 1 -10.9499 -22.9573 -1.95044 2.6959 -0.785828 -0.555448
3689 1 21.1324 17.0252 -13.0467 2.16721 -0.66417 -2.04242
3690 1 -8.18052 7.99618 -8.97031 2.52479 0.217172 0.206372
3691 1 22.9307 44.5191 -9.40028 -0.811321 0.372476 1.11482
3692 1 6.77624 -3.52112 -18.3874 -2.73268 -4.11461 2.35536
3693 1 2.19738 22.937 -2.18657 -4.14808 -5.04438 -0.265933
3694 1 -23.4653 1.90022 -7.9186 3.58153 2.1762 1.94387
3695 1 -6.58101 -3.13695 0.928913 0.803298 -2.6773 2.05063
3696 1 8.44201 -1.3582 -17.5243 -3.57847 -0.56011 -5.25784
3697 1 8.51205 6.02369 6.49145 0.739986 1.73127 -4.54805
3698 1 -21.3362 1.83772 14.2563 0.798213 0.479284 3.20819
3699 1 -8.78312 -2.84208 16.964 0.647547 -3.67543 0.544477
3700 1 -4.09966 -22.6058 -16.5537 0.782178 -1.79449 0.817015
3701 1 12.1474 -1.87744 12.1254 -2.77696 2.22896 1.55926
3702 1 -8.55281 1.42509 -14.3008 -3.78576 -2.56751 -2.24034
3703 1 18.9989 14.956 -21.1079 2.25827 -0.966115 -0.574682
3704 1 15.7433 -4.34377 9.38466 -0.3086 -1.43017 0.99178
3705 1 3.34512 -1.02596 4.96303 -0.250289 0.037599 -0.629938
3706 1 -13.8944 4.649 -16.4306 -3.77198 1.09016 1.63051
3707 1 18.5667 7.73785 -13.1148 0.700212 -2.95926 -3.48038
3708 1 5.05244 3.57753 8.41197 0.63478 2.17176 -5.83622
3709 1 -19.9435 17.5343 8.08518 -1.54907 -2.40892 -4.7587
3710 1 -7.10042 -2.99415 20.686 -1.08538 6.08247 0.658269
3711 1 -12.3783 10.6864 15.5986 -2.78103 -2.89472 -2.15543
3712 1 14.9085 24.8809 -5.32475 1.07697 4.87138 3.90681
3713 1 0.01306 18.9436 3.18336 -5.05405 -6.96459 -5.09656
3714 1 -13.0817 1.8411 22.2157 -1.32025 3.18842 -2.51874
3715 1 18.6032 20.4035 17.5234 -2.71256 0.350312 3.33756
3716 1 6.0932 5.45039 -0.310667 -6.43931 0.0143371 -0.479521
3717 1 -6.60255 18.4942 -20.8028 -3.94239 0.363631 -2.76209
3718 1 -16.0027 8.1164 3.48083 1.18121 -1.27658 -0.440432
3719 1 -0.423574 15.7229 -4.47971 -1.31514 1.98545 -2.59342
3720 1 16.688 18.7896 16.155 -1.81717 5.49146 -1.40839
3721 1 -0.428654 15.0983 -7.18559 -0.217898 0.714044 1.019
3722 1 17.7263 -9.18151 8.7126 -2.5101 -1.02786 1.61754
3723 1 6.26323 5.95743 -15.1773 1.87986 -3.42677 9.80726
3724 1 -3.89051 -1.45045 -1.3119 -0.520547 0.705489 -4.05969
3725 1 -12.4796 22.5375 -3.4701 3.07841 4.99396 -5.88179
3726 1 -8.10301 -12.8381 -15.8534 0.926854 -6.32121 -0.321545
3727 1 4.24791 -7.05875 -21.3818 1.72663 -1.03089 2.7716
3728 1 17.7998 -11.3433 23.7628 2.36038 5.83187 -2.76698
3729 1 -22.9456 -8.35458 -12.9707 0.521359 0.321301 0.187084
3730 1 10.4744 -4.70773 14.7308 2.82885 2.72212 -2.1485
3731 1 3.64164 -16.4723 -22.1745 0.16416 1.3104 -0.022494
3732 1 22.921 18.325 5.15583 0.121182 -3.94118 2.23075
3733 1 7.28397 -15.5032 -0.678387 1.64183 -0.0152417 3.07203
3734 1 14.2314 13.5953 -10.6239 0.551468 2.38906 8.43036
3735 1 -8.65457 18.6846 0.778295 -3.50875 1.15 0.660153
3736 1 -23.5363 16.8715 -10.0412 1.43748 0.341887 -1.59471
3737 1 2.40352 5.37525 1.26615 6.57142 1.7285 -2.29695
3738 1 -6.11919 -4.3875 17.114 6.50137 5.24229 0.298022
3739 1 2.52068 -4.30913 8.24599 -3.20538 -4.15785 0.456397
3740 1 5.6793 0.0641109 -19.7792 -0.593918 -2.40503 2.8428
3741 1 -21.2925 14.0884 -4.86334 2.63556 3.38229 -0.0250607
3742 1 -2.23627 -20.4077 -16.4824 0.711523 3.21246 1.8244
3743 1 8.50545 -12.3825 17.5577 0.281195 -2.86683 1.16233
3744 1 -15.6237 18.1414 4.93143 4.86633 -1.1501 -3.48065
3745 1 5.25934 -9.78274 10.7921 4.1753 -0.520523 -2.4795
3746 1 8.05301 -20.9291 -3.73796 4.02707 -1.40646 0.19702
3747 1 -19.9343 25.8661 -18.8245 1.13181 2.39167 -2.02899
3748 1 -16.02 -2.88683 -18.8424 -3.29173 -1.56933 -1.28847
3749 1 -18.5501 1.69338 13.4625 0.396176 5.9475 -1.80364
3750 1 12.8524 24.2821 -14.7833 -0.287992 4.55582 2.0572
3751 1 -5.52008 -0.745869 2.06104 -5.75855 1.26226 3.37442
3752 1 -19.1757 14.6243 -15.6711 -8.05189 -5.417 -3.85181
3753 1 3.05011 -5.14305 -18.2196 -1.96178 0.560628 -1.96186
3754 1 -11.103 8.04556 9.23362 -3.12923 -2.81386 -0.848496
3755 1 17.6305 6.26646 -6.96665 2.75993 -1.50955 -1.65538
3756 1 -10.9465 45.0638 -22.3533 -1.46869 0.3783 1.71372
3757 1 1.52843 22.9077 2.07401 -2.67628 3.50665 1.63854
3758 1 22.2032 -7.101 -13.0614 1.72524 -0.406033 0.689566
3759 1 -12.0681 7.88889 -18.0549 3.569 -0.68922 -3.04949
3760 1 15.4928 20.9138 3.17204 1.66153 3.19586 1.8909
3761 1 19.004 -13.1919 -19.3164 3.8157 0.799935 -0.0418136
3762 1 8.025 -13.2407 10.4168 -1.83216 -1.48186 2.60388
3763 1 11.2762 10.218 6.09718 -4.70791 -3.11191 5.17082
3764 1 17.1397 -14.1018 21.0486 2.17861 1.59284 2.79204
3765 1 -22.5277 -23.922 -2.61671 3.44254 3.53303 -5.45058
3766 1 -11.4008 19.8888 14.4759 0.438254 -0.722871 4.94882
3767 1 -11.248 -21.923 0.66191 -0.837473 3.42369 -5.01296
3768 1 -0.0683751 6.45926 -17.7751 -3.56927 -0.823167 -1.99783
3769 1 -20.7048 -17.8281 7.00734 -1.86542 -4.6848 0.362301
3770 1 -8.89455 -4.45183 9.23034 0.874372 2.96903 0.330528
3771 1 -16.9723 20.7849 19.3558 0.621561 0.375882 -1.20837
3772 1 16.9964 -15.8625 -1.70432 -0.062802 1.2138 3.60635
3773 1 2.35521 -2.56131 13.4521 0.246433 -5.68938 -4.17107
3774 1 -6.71125 14.1951 4.83231 2.25577 0.0761424 2.78907
3775 1 1.21646 -2.50173 -11.7689 1.37409 -0.881293 -0.77438
3776 1 5.76354 -3.6589 19.3555 0.0718497 -4.77318 1.83834
3777 1 11.4249 -8.39874 -0.387029 0.0137463 -4.88015 -3.85146
3778 1 5.5034 15.5868 -9.2456 -0.846848 1.85789 -0.682737
3779 1 -9.346 0.955328 9.5135 1.75891 1.19258 1.58989
3780 1 22.6735 16.1442 -15.1745 1.55366 1.49239 -0.823243
3781 1 -1.22187 -1.11247 9.79708 -0.446329 0.118516 3.14891
3782 1 -0.214238 -14.7535 -19.1094 -0.965526 -1.0378 2.20496
3783 1 20.6399 20.1974 3.53151 2.86869 3.81219 -4.09773
3784 1 17.6704 2.65746 3.56563 -1.78849 0.423556 -0.467059
3785 1 -1.72563 -23.046 22.6417 4.69301 3.92071 -0.681052
3786 1 20.0424 4.89954 17.7879 0.136351 -0.451353 2.17258
3787 1 7.43855 20.3821 -14.9148 -0.781205 0.886282 2.91529
3788 1 5.67162 14.9468 15.4116 -2.87958 5.35073 4.82541
3789 1 19.7481 25.1677 -13.2699 0.588016 -0.331833 1.6076
3790 1 2.97804 -17.3071 -2.10509 -0.127457 -4.87318 6.40083
3791 1 -12.0991 17.1871 -12.2007 4.3002 2.60026 -1.38139
3792 1 -12.3568 -7.90836 12.0349 3.92709 -1.14461 2.52194
3793 1 -14.367 21.5812 2.90002 -4.4806 -4.01122 1.09912
3794 1 -0.871851 -20.3756 -11.0705 -0.52157 -0.835889 0.644326
3795 1 13.3584 24.0647 20.416 1.35239 6.70676 1.14061
3796 1 -12.6759 -8.26605 -6.01012 -1.00032 5.89387 -0.00223582
3797 1 -15.8495 -13.069 7.7968 0.120365 0.352899 4.28298
3798 1 5.63961 2.62565 -0.281632 5.90634 5.01816 3.80137
3799 1 17.7072 20.9531 -7.17112 0.530398 1.47849 -4.12552
3800 1 15.4381 0.860328 -0.540276 -0.607907 -1.11627 -1.15182
3801 1 1.25896 13.8478 -9.42729 3.9603 4.90145 1.07581
3802 1 6.73261 0.350675 -22.3924 -1.92527 -1.09055 -5.19852
3803 1 -20.0942 -5.28469 22.8653 -2.22598 -0.278645 1.26816
3804 1 13.303 19.5391 9.87127 3.7056 1.50962 4.0526
3805 1 -5.41255 15.9275 -20.6213 0.00730414 -2.77489 -2.9567
3806 1 -1.15262 2.7102 -4.58124 -1.42122 -3.46636 0.0783558
3807 1 -9.06964 21.3127 -18.2109 -1.78589 2.25674 0.950661
3808 1 6.63682 -12.6359 -21.1987 -4.20565 2.14203 3.05237
3809 1 5.2763 -23.3568 -22.3709 3.56536 1.41587 3.20604
3810 1 -17.5731 -2.63352 13.1493 -0.12745 -1.35788 1.59673
3811 1 15.0799 -16.3327 -22.9363 -0.175729 1.13951 1.58509
3812 1 -5.02697 -20.0342 1.94766 0.414237 -1.85551 -1.9335
3813 1 18.2816 0.245277 -1.20278 -2.67313 -2.2574 -0.101051
3814 1 6.42505 11.9328 7.14265 0.1828 1.6314 0.568908
3815 1 -1.66102 20.2774 -22.9617 2.58974 1.50551 -0.212387
3816 1 -15.2429 -7.05303 1.46056 -4.68374 -0.780094 -0.126622
3817 1 9.97264 8.06148 -3.10192 1.8058 2.05873 1.86594
3818 1 11.6007 16.9803 -22.1999 0.74232 5.95726 -2.50112
3819 1 2.82615 26.6358 14.3699 2.0373 -4.5376 -3.77933
3820 1 22.7619 14.9111 -6.59534 -2.69782 1.26877 4.67532
3821 1 11.0322 -10.7228 15.1462 -1.65565 3.88474 -0.542828
3822 1 9.6258 6.97213 8.8384 -0.796536 4.74149 -1.38421
3823 1 -6.06928 -20.8824 -10.0053 -1.59768 0.0389613 3.54681
3824 1 -6.75885 -24.2075 -7.53997 -0.46125 2.06672 3.00392
3825 1 18.8394 -12.7706 11.3875 -1.20111 2.02897 -1.6986
3826 1 -1.15524 17.8469 -14.0426 -3.83757 1.80158 -2.18596
3827 1 0.108422 7.43972 20.8053 -1.08116 1.0384 3.51041
3828 1 -17.6414 20.1139 -17.4406 4.36755 1.21364 -0.991691
3829 1 -13.5715 -21.071 -7.04675 -1.45439 0.0180475 -0.714333
3830 1 17.8145 -12.0707 -12.0372 -3.11361 -1.84801 3.73553
3831 1 -4.42343 21.3057 0.476222 -0.946573 -5.19453 -2.48549
3832 1 20.988 -2.91004 3.15363 4.3628 -4.07163 1.38617
3833 1 22.0357 -4.12237 -12.6092 0.126186 1.70444 0.621558
3834 1 7.56854 5.17383 2.08919 -6.1094 0.672478 1.56668
3835 1 22.5592 -23.3035 -3.38451 -2.96893 -4.86828 -1.24187
3836 1 21.6964 12.0802 1.29687 -4.04141 2.60359 1.62128
3837 1 11.5624 13.3569 3.0066 6.72548 -1.75608 2.26587
3838 1 -5.91028 3.78614 -2.72517 4.25935 -3.17616 -2.55021
3839 1 21.6946 5.37589 1.53979 0.582703 1.71067 4.17521
3840 1 -10.1698 -20.6263 13.4565 -0.124047 4.05252 -1.4284
3841 1 21.5515 2.63367 10.4942 -2.43601 -0.6329 0.266989
3842 1 22.3428 4.0105 21.0765 0.880067 -2.03002 -3.16451
3843 1 -0.368178 -20.3124 14.5073 -0.647904 -1.95097 -0.38931
3844 1 -21.5431 -13.5944 4.69372 2.51539 2.73863 -2.94382
3845 1 -3.9404 1.60828 -19.4298 -0.520879 -1.73174 -2.89698
3846 1 -21.3946 21.874 19.871 -3.71275 -1.12024 -0.572767
3847 1 -14.2881 -17.1382 -13.8155 2.69217 4.64553 -0.706323
3848 1 5.89453 -15.8709 6.91919 0.776683 -2.86329 6.65774
3849 1 16.4983 11.9253 -21.1026 1.28906 2.21615 -2.08147
3850 1 20.12 -23.0469 19.4638 -3.67188 -0.311798 3.14837
3851 1 -2.65954 7.16088 0.305271 -0.550345 -2.59668 -1.40234
3852 1 -6.73807 20.601 15.64 0.413015 -0.789051 -5.32577
3853 1 20.0681 -14.5191 5.07113 5.4405 1.68008 -0.692862
3854 1 18.8325 12.4351 -2.91901 3.21664 -1.05826 2.66181
3855 1 -1.62224 -6.75741 22.7596 3.57928 -1.23525 2.58525
3856 1 13.533 -19.5578 -6.69113 2.01427 -1.46217 -1.75378
3857 1 -11.6471 46.0979 -12.4671 -4.48852 0.926124 -0.145431
3858 1 16.0168 7.40113 5.52439 3.77857 -0.110769 -2.90064
3859 1 21.2812 22.0505 9.96347 2.76484 0.0430766 0.16358
3860 1 13.9548 -20.2633 -14.7964 2.30776 -1.14745 0.332215
3861 1 -17.4259 -11.5514 19.696 -3.72025 5.23533 -2.51177
3862 1 -6.45163 -1.54826 -14.8856 -5.0019 3.51886 4.43181
3863 1 -14.0515 -2.46158 16.2886 -2.48402 0.678129 2.69414
3864 1 -4.6717 -3.4936 -13.6109 -1.67734 0.700698 -2.4766
3865 1 0.0522052 45.8461 15.654 -3.26307 3.07463 1.2995
3866 1 9.70527 -16.0721 6.63809 1.91965 1.44591 3.90796
3867 1 -22.5799 -0.166507 3.14708 0.962515 4.41738 5.04401
3868 1 6.88914 4.41113 -4.2747 0.29573 3.34921 3.99261
3869 1 -8.87631 5.14668 11.1583 -2.87924 1.31413 2.0871
3870 1 17.0572 -20.403 -10.6072 4.52354 0.0473495 1.42591
3871 1 17.6315 0.367396 21.1964 2.55925 1.26668 0.458784
3872 1 -23.9148 -24.0188 -9.11234 0.611914 -1.85705 -3.53332
3873 1 -3.96195 6.67162 15.5932 -1.22258 -1.57141 7.5361
3874 1 -18.4853 45.5837 -16.9367 -1.98615 1.29868 -2.06708
3875 1 -22.4273 2.17485 7.25679 1.46645 0.521614 -0.634232
3876 1 -21.8527 -12.1684 19.801 0.321377 0.00777189 2.84732
3877 1 -23.5042 2.94361 -5.15457 2.80193 -5.89313 -1.71701
3878 1 7.43924 -16.8096 4.94364 3.19825 4.09964 3.02413
3879 1 19.9309 -15.3168 21.026 4.46893 -0.635497 -0.269509
3880 1 -8.01316 17.8413 -23.261 -0.838039 0.817627 2.02198
3881 1 -16.1284 2.74994 -13.0905 2.57046 -7.54172 2.81777
3882 1 -23.9833 17.1164 -1.81746 -1.86159 -1.08198 4.71541
3883 1 21.7967 15.2783 -10.9219 1.27852 -0.385848 -1.81063
3884 1 11.6051 -18.0135 -8.94984 0.829038 -6.69392 1.93488
3885 1 11.1685 25.318 15.221 -5.1808 -2.49738 -3.86765
3886 1 -12.7445 -15.5414 -4.34873 0.786635 -0.295262 3.18612
3887 1 1.99597 -12.5218 -19.2122 -4.47809 -5.63789 0.537229
3888 1 -6.42403 3.37859 -18.7226 1.90005 -5.13031 2.2177
3889 1 -16.4928 18.2568 17.8592 -0.294227 -1.72863 -7.59123
3890 1 -0.208678 21.9229 15.5365 0.342268 -1.60123 -0.688191
3891 1 5.49102 -15.7705 17.8571 0.597416 -2.91543 4.10058
3892 1 -13.0908 25.7155 7.50369 4.38092 -0.110518 2.9359
3893 1 -6.39578 12.4776 11.1596 2.15347 0.158214 3.65789
3894 1 10.4916 8.18501 -15.2624 0.638198 3.28517 -1.50505
3895 1 12.6138 -7.65638 4.84842 4.9263 -0.0884733 -2.05547
3896 1 -7.91141 -8.7219 -2.41592 -1.55486 -1.03423 -2.03634
3897 1 4.73331 12.6006 23.7058 3.82797 1.15796 -3.51257
3898 1 18.4471 -2.88172 15.2757 7.88996 0.461174 -2.62896
3899 1 2.62957 10.3908 18.877 7.08719 1.42367 0.735418
3900 1 11.5811 -16.872 -13.47 4.13477 2.75125 3.63603
3901 1 -16.4763 14.6848 -10.9939 0.100411 2.59725 -2.20854
3902 1 11.7789 12.4618 -6.92897 2.54822 3.19626 -1.29744
3903 1 -17.8442 -16.0385 4.04486 -1.01991 -2.55822 -0.531841
3904 1 12.0127 -8.43617 -4.55438 2.92651 -4.30684 3.12595
3905 1 0.661003 -11.0748 6.43992 -2.87502 0.543666 -0.979756
3906 1 -17.3812 10.5208 -5.53676 -2.82969 0.655979 -1.28206
3907 1 -20.7403 0.195005 8.65684 2.97997 0.688647 0.317266
3908 1 22.9992 -17.9224 11.9219 -3.31509 0.440369 -1.17071
3909 1 -0.0256526 -11.9414 18.5638 0.817648 3.11056 -1.08724
3910 1 -6.59294 16.652 -8.56787 -2.98708 -3.45563 0.623033
3911 1 19.6814 17.685 0.51438 2.36361 -0.676301 0.272154
3912 1 -7.53688 -8.66101 0.534941 -1.15249 -6.65257 0.353935
3913 1 -5.56506 6.07862 1.09841 2.41565 0.815701 -3.37802
3914 1 14.6758 -12.0745 -4.85488 3.20061 -1.12965 1.80361
3915 1 5.75091 -0.360353 7.89696 -2.07496 -1.81079 -3.68379
3916 1 -23.9401 -14.4824 19.6175 -2.88157 -1.98055 2.43645
3917 1 -0.11075 -4.44816 -8.76497 1.3467 -6.22366 -1.89951
3918 1 14.037 10.8489 -19.4876 -3.82422 -1.63351 0.796111
3919 1 8.08607 -15.0105 18.0772 1.14549 -0.122964 -3.07035
3920 1 -13.1441 11.1812 18.5155 1.7514 0.116615 -0.516997
3921 1 16.3652 7.72019 -15.2148 -1.67232 4.31558 0.0435234
3922 1 -16.4633 -14.5631 -20.5815 0.56853 -0.370505 5.14422
3923 1 -22.0678 3.8413 -9.95822 0.579981 4.33418 3.98442
3924 1 -11.2537 -3.95369 12.7713 -0.111238 -0.183542 -0.456383
3925 1 -23.2497 4.76698 1.67119 -1.33796 -2.81554 -0.764001
3926 1 6.42743 -4.94311 22.2271 -3.79678 -1.85808 0.190922
3927 1 13.4188 16.9756 -0.51326 -0.363074 2.2377 -4.60054
3928 1 -18.5177 20.6438 23.7484 -4.11606 -2.72575 1.52383
3929 1 -1.66159 10.6646 -8.21978 -3.29443 0.0897362 0.0683681
3930 1 11.2433 20.4241 2.41197 -0.351407 0.632551 3.12512
3931 1 0.883248 8.04343 1.73874 1.34586 0.187461 -1.21247
3932 1 21.9144 4.66721 14.4945 4.08012 5.47954 3.53096
3933 1 -4.68371 -8.57702 22.2859 0.867452 -4.94637 -2.02337
3934 1 21.6173 5.37018 -11.9712 1.82589 1.15344 -3.56951
3935 1 12.6655 -12.9581 -20.5196 -4.93583 1.10094 -2.97821
3936 1 2.5982 -23.3649 20.0413 1.26617 0.537016 4.96584
3937 1 16.9781 -16.2354 -17.34 -0.451022 -4.36864 -0.767484
3938 1 18.6994 14.8976 17.908 -1.64406 -1.29955 -1.62974
3939 1 23.1391 -2.67949 13.5218 0.262939 -0.858284 -0.897587
3940 1 -0.427306 23.7028 -6.63413 -2.38671 1.07114 -3.25307
3941 1 -19.7675 1.87196 22.9603 1.51426 0.299937 2.46143
3942 1 12.0226 -23.1153 16.0408 0.0919786 -0.547359 -0.373438
3943 1 -18.5006 -20.8106 3.15846 1.87049 1.62962 0.738189
3944 1 -12.9492 -7.40947 -12.2443 -6.40567 2.1401 3.28606
3945 1 -22.3337 -14.99 -13.7623 0.822695 -3.59037 3.34312
3946 1 -4.87393 17.4686 7.08201 -2.78907 5.32756 2.22231
3947 1 -23.1621 12.278 -23.1516 3.54401 1.41021 0.730531
3948 1 10.2773 15.9345 -17.0117 0.6967 0.76785 -0.642829
3949 1 4.85522 -13.8543 -13.2833 5.2353 -0.858885 -4.46441
3950 1 -5.59512 -3.93059 -19.0479 5.71263 -1.16259 1.58476
3951 1 5.48567 3.75173 -13.643 -1.20026 1.53755 -1.37498
3952 1 -3.71588 -6.37251 -13.498 1.91961 -4.32958 3.56729
3953 1 20.3727 -17.9378 13.3005 0.136859 -0.206029 0.151996
3954 1 6.37287 0.58715 -17.0278 -0.696481 -0.051521 1.24041
3955 1 -7.9358 19.9708 11.0348 0.727907 1.45472 1.78234
3956 1 -13.2262 14.2587 -4.2444 -0.415493 -0.00294607 6.70609
3957 1 20.6715 -24.1317 -18.394 3.28402 -3.24802 -1.11634
3958 1 -4.89004 7.99272 -6.04554 -5.59737 -2.12082 2.3691
3959 1 -19.005 -6.97181 -22.6878 -5.95892 0.0162567 3.55864
3960 1 22.7664 -13.0691 -9.0029 -1.11779 1.45122 1.86704
3961 1 0.507638 -20.569 -4.6052 3.3342 2.21794 -2.40322
3962 1 4.50877 -13.9878 3.80298 -1.01066 3.37156 -0.812864
3963 1 -14.1641 -19.8619 -4.31575 0.749621 -3.42062 0.373995
3964 1 10.2258 8.62871 18.8711 5.34918 -4.02289 0.31625
3965 1 -4.20247 2.48113 5.55728 -1.10318 4.74692 1.47648
3966 1 -21.0604 19.8832 7.25667 2.78964 -0.805742 0.949092
3967 1 0.837815 -8.35884 -3.90491 2.76302 -2.98598 5.09582
3968 1 -2.56972 6.7063 -2.59719 -0.61575 -4.19817 -4.5066
3969 1 16.8478 46.3206 21.2511 4.71212 0.296597 1.10788
3970 1 -8.79493 21.9904 22.1092 -3.1695 1.39892 1.5059
3971 1 -2.19836 0.703119 23.8566 3.94192 0.517476 -3.62148
3972 1 -5.57559 -8.96572 -9.85217 3.11187 -6.2257 -0.341981
3973 1 -10.6793 -22.2346 -8.94026 -0.432089 1.5068 3.68934
3974 1 5.44129 27.0958 14.8888 4.27398 -5.00749 0.436777
3975 1 0.0941054 1.4785 -16.1741 -2.25159 2.10565 0.721681
3976 1 -1.31696 15.2676 4.05857 3.88488 1.18893 -2.33165
3977 1 -8.21824 -19.9134 -21.5961 -6.55846 -1.01905 -2.94435
3978 1 -0.716049 17.2633 -8.70916 2.95706 -1.27518 1.28176
3979 1 -10.0322 -22.6035 3.00392 -2.20206 0.0600573 -4.25294
3980 1 -21.2455 -17.7437 -14.4825 -0.875041 -0.801891 -2.20117
3981 1 11.5503 -10.1061 5.8777 0.0266425 -1.90458 -2.80466
3982 1 8.90533 -7.03589 -1.32865 2.78561 -4.04839 3.45764
3983 1 -22.3092 11.3688 7.7727 1.38651 2.23163 0.650057
3984 1 -7.79409 14.8742 -19.8927 0.0238984 -1.1024 -1.20865
3985 1 -13.4899 22.9236 7.66588 -3.84683 0.669586 0.639356
3986 1 15.8646 22.199 -17.4508 -4.47223 0.900617 3.5051
3987 1 11.7471 17.4791 17.3602 3.46049 -1.7298 -2.32898
3988 1 21.9834 19.9686 20.2689 2.00912 4.6746 -7.2502
3989 1 -15.3205 -10.4304 -11.2241 2.5422 -7.21881 3.32194
3990 1 10.1928 4.32961 -22.2813 -1.7811 0.200384 -0.910891
3991 1 -17.7706 6.80013 23.3085 3.04094 2.99403 1.98794
3992 1 21.7151 9.4611 -4.00184 -0.284242 1.91797 -4.25373
3993 1 -7.73178 -8.47466 -6.02817 1.8088 -1.5942 -4.18736
3994 1 -14.5776 -21.3425 -20.0888 -1.05463 -1.61077 1.49173
3995 1 7.40892 -24.1936 4.02304 -2.10206 -2.5825 -0.708068
3996 1 2.93443 -15.6713 1.63171 -1.07083 2.24071 -1.00296
3997 1 20.1517 45.94 -12.6274 -4.24855 -0.250983 -5.40221
3998 1 -13.1677 -5.62501 2.5638 -2.27486 -0.0638699 -1.51394
3999 1 -7.88827 16.3048 9.32321 0.483316 0.595355 -6.08263
4000 1 -20.0068 11.4268 21.7825 1.46649 -0.0281303 -0.347767
4001 1 -11.6394 26.0803 -4.18159 -0.268521 0.418514 3.61643
4002 1 -11.1906 28.869 -4.77214 -1.71849 -2.01137 -4.50448
4003 1 -8.33634 28.3078 -3.84327 0.281582 0.994835 -2.86685
4004 1 -6.96382 26.3018 -5.5652 -0.71074 2.63803 -1.97053
4005 1 -11.3318 26.4214 -9.99852 2.05616 -1.7078 2.8211
4006 1 -13.6186 27.4008 -8.75837 -4.50784 4.8603 2.72258
4007 1 -9.39819 28.6448 -9.43858 2.51909 0.373332 -2.33875
4008 1 -7.90926 26.6542 -8.18873 1.90906 4.57117 -1.90877
4009 1 -11.505 25.638 3.64422 -0.177124 -0.570219 -0.648371
4010 1 -10.1702 27.7659 2.383 0.172778 7.44975 -1.83194
4011 1 -7.37477 27.9073 3.11167 -0.354341 4.47893 3.27588
4012 1 -6.55273 25.4787 1.95057 -1.9469 -4.46203 -2.15707
4013 1 -11.7038 25.7471 -1.5104 -3.18719 5.01656 -0.088225
4014 1 -10.4703 28.1081 -0.422162 -4.38288 -3.89945 -4.68653
4015 1 -7.87207 28.0921 -1.27693 0.496314 1.55118 -0.683679
4016 1 -7.29688 25.3981 -0.917491 -2.43762 3.7598 -7.70965
4017 1 -11.3805 27.7947 12.528 2.02018 -5.12304 2.59411
4018 1 -9.83126 27.1333 9.73914 -0.878953 -2.6839 -1.36145
4019 1 -7.06773 28.1887 10.4171 5.0491 -5.91378 -0.273401
4020 1 -5.188 26.2267 11.3095 -2.81406 -2.51788 4.45856
4021 1 -10.6318 25.6046 6.19044 0.891749 -2.26515 -0.603164
4022 1 -9.52417 28.1542 7.06925 1.41068 -3.5137 -4.65569
4023 1 -6.99782 28.184 5.67543 -5.05334 -4.53938 1.12538
4024 1 -6.12188 25.6489 6.33299 -1.62818 -0.0147006 -4.80333
4025 1 -12.1315 31.0133 -3.57526 -0.12252 -6.24182 -1.51082
4026 1 -10.6147 32.8468 -4.86246 -1.1671 -0.669557 2.169
4027 1 -7.9185 32.7142 -4.1593 -1.22742 -6.55115 4.40542
4028 1 -6.71558 30.2023 -5.18814 5.7317 4.88656 1.66518
4029 1 -11.6164 29.405 -7.50127 0.193869 3.57583 -0.305704
4030 1 -10.866 32.3961 -7.45582 -0.413056 -3.00695 1.35055
4031 1 -8.28561 32.4841 -8.70318 2.36377 0.721174 1.59998
4032 1 -7.12926 29.7508 -8.02679 1.17715 -2.57551 -0.977525
4033 1 -10.5901 30.1478 3.79795 -4.50597 0.717433 1.75438
4034 1 -9.62559 32.4801 2.91038 2.10648 -5.96513 0.335061
4035 1 -6.99531 32.5602 3.46872 -0.623361 -1.51492 5.43349
4036 1 -6.11223 30.2795 2.37019 -3.94984 0.352951 -2.4413
4037 1 -11.779 30.555 -0.876904 -2.1496 -1.46192 -1.29136
4038 1 -10.0506 32.3632 -0.0819538 -4.3637 4.08999 -0.5084
4039 1 -7.3599 32.6096 -1.17531 -2.64075 -0.467091 -1.54894
4040 1 -6.28901 30.2041 -0.478143 -0.728766 -1.37031 -2.87451
4041 1 -9.1803 29.7506 11.3069 4.3813 2.63238 0.996138
4042 1 -9.19028 32.4641 10.4145 -0.00293709 1.97826 3.47868
4043 1 -6.26502 32.3578 10.7705 -4.64557 -0.715752 -0.108906
4044 1 -5.27117 30.0656 9.48119 3.46777 2.55089 -1.90112
4045 1 -10.8453 30.4142 6.4557 0.691814 2.61982 1.6323
4046 1 -9.61152 32.6641 7.62328 -7.68018 -1.07203 -4.30559
4047 1 -6.97562 32.6483 6.33015 -4.60351 -0.215549 5.21043
4048 1 -5.48969 30.3219 6.57869 -3.54245 -0.748976 6.31309
4049 1 -11.2464 35.2777 -3.86068 -5.34782 -1.65855 -0.3604
4050 1 -10.0765 37.3506 -5.28651 0.0268938 2.55561 -1.19826
4051 1 -7.55429 36.9773 -4.32601 -4.3818 -3.07419 -1.70886
4052 1 -6.46009 34.7338 -5.18636 2.78568 0.0345675 -2.75562
4053 1 -12.0461 34.8063 -8.86452 -3.40888 1.64388 -3.25199
4054 1 -10.6226 37.1762 -8.17151 3.7911 -0.232018 -2.37964
4055 1 -8.04166 37.0053 -8.68978 2.03479 0.897042 -4.87914
4056 1 -6.86923 34.7126 -7.94494 1.30231 -2.68814 1.93789
4057 1 -10.465 34.8838 3.94231 0.141368 -3.66151 -1.84961
4058 1 -9.60636 37.3214 2.84716 5.1553 -6.04592 -4.64784
4059 1 -6.76862 37.1656 3.51371 5.06092 -0.73478 4.03917
4060 1 -5.77679 34.9263 2.30695 -2.67186 0.482328 -1.20045
4061 1 -10.8101 34.9645 -1.0166 4.38484 -1.50838 -1.95591
4062 1 -9.75894 37.3126 0.0173233 -0.973256 -0.562048 0.607026
4063 1 -7.51608 37.2588 -1.61663 -0.721576 -1.29273 1.24511
4064 1 -6.04205 34.9536 -0.579301 4.7797 -1.22146 2.71866
4065 1 -10.0901 34.8588 11.6234 -3.73935 3.35356 0.473701
4066 1 -9.07151 37.3683 10.385 5.69173 -1.9951 1.6948
4067 1 -6.24658 36.9092 10.7505 -2.01077 -4.15435 3.09941
4068 1 -4.98291 34.6699 9.68144 1.8051 -1.57008 0.815219
4069 1 -10.5555 35.0895 6.65198 -3.93172 0.0634606 -1.50442
4070 1 -9.18589 37.3379 7.47953 1.73525 -1.23583 1.13283
4071 1 -6.67678 37.0969 6.34166 -0.696401 -1.31501 0.199767
4072 1 -5.24687 34.5244 6.90704 -3.39812 1.46014 -1.67869
4073 1 -10.8356 39.5236 -3.73326 1.85134 0.135441 4.42842
4074 1 -9.9433 41.7445 -5.11486 -0.58235 -0.160428 2.01468
4075 1 -7.15664 41.3371 -4.53032 2.40416 -4.30875 0.596105
4076 1 -6.21855 39.0766 -5.68445 2.52477 -1.81896 0.510266
4077 1 -11.909 39.8542 -8.14312 0.0330046 -0.514101 -1.62849
4078 1 -9.9411 41.7282 -7.86387 3.54713 -5.21593 1.0134
4079 1 -7.44738 41.6665 -8.95296 1.39469 -2.15689 -4.06335
4080 1 -6.38062 39.2076 -8.65957 1.85575 -1.31856 3.23095
4081 1 -10.9095 39.7602 3.90159 2.78712 0.0351792 2.69468
4082 1 -9.27517 41.7779 2.64581 -2.45782 2.55535 -3.90183
4083 1 -6.56433 41.4412 3.19052 0.267332 -2.44092 -1.07296
4084 1 -5.22544 39.2967 2.2277 -0.888588 2.37563 -2.32782
4085 1 -10.7929 39.5838 -0.963189 -1.1507 -4.84073 1.0909
4086 1 -9.41071 41.8634 -0.177714 -3.74741 -1.40232 -5.88992
4087 1 -7.14049 41.379 -1.70244 -3.78764 -4.72616 1.01307
4088 1 -5.90968 39.1809 -0.547111 0.48723 3.44436 -4.53525
4089 1 -9.67301 39.7227 11.396 -1.11011 -5.30593 -1.43636
4090 1 -8.42907 41.9321 10.0429 0.413821 3.40413 0.00907491
4091 1 -5.77056 41.5387 10.7572 -3.36604 -4.30837 2.42226
4092 1 -4.82691 39.1717 9.72315 0.806622 2.02468 1.51904
4093 1 -10.537 39.8288 6.58037 2.99976 0.079356 0.282261
4094 1 -8.60444 41.8435 7.15889 -2.01331 -1.20661 -4.48264
4095 1 -6.2669 41.2783 5.91544 6.19503 0.536146 -4.62448
4096 1 -4.77114 39.1192 6.82517 -3.59885 -0.853701 1.49907
4097 1 -9.68371 44.613 -4.31916 1.23182 1.57305 4.50808
4098 1 -11.6961 45.5084 -5.95844 -1.21125 1.84978 -3.70709
4099 1 -7.19565 45.9881 -4.73253 -3.65054 -2.06174 0.017873
4100 1 -6.10636 43.7046 -5.69969 -3.86646 0.00102145 0.900266
4101 1 -10.461 44.4608 -8.44747 0.566262 -0.175541 2.32607
4102 1 -8.16178 44.2008 -10.0664 0.156447 0.919118 2.89815
4103 1 -7.93969 -23.8394 -12.5305 3.40845 0.211991 -6.20313
4104 1 -5.11462 43.2372 -8.26016 -3.09651 -2.14985 2.60079
4105 1 -10.3686 44.0918 3.58986 -3.15259 -3.18893 -3.23348
4106 1 -8.90876 46.0644 2.40513 2.8897 0.609969 2.22741
4107 1 -6.11381 45.7784 3.19369 -1.40639 4.73796 3.02027
4108 1 -5.13624 43.602 2.18339 2.09837 2.1762 -3.01056
4109 1 -10.0701 44.0674 -1.64685 -3.30025 -2.71055 -2.14023
4110 1 -9.27228 46.459 -0.633681 0.623653 -1.32086 -5.27488
4111 1 -6.55457 45.881 -1.44184 1.50333 -5.5911 -1.76394
4112 1 -5.47421 43.3302 -0.510149 0.899434 -2.47428 -1.35243
4113 1 -8.84278 44.5164 10.5295 1.72892 3.85682 2.98922
4114 1 -6.56947 46.2466 9.59671 0.656524 -0.56836 0.507022
4115 1 -2.51907 45.4687 9.94983 -1.09547 4.58789 -3.22914
4116 1 -4.7904 43.8273 9.45603 1.99278 2.37679 4.05491
4117 1 -8.97527 44.4572 6.2544 0.390572 -2.01293 2.89034
4118 1 -10.1351 45.7786 8.36849 -0.943893 -3.71316 -0.620016
4119 1 -6.1671 45.558 5.95866 -2.07289 2.38175 -4.47655
4120 1 -4.52866 43.5516 6.64055 -1.43791 4.10155 -5.17521
4121 1 -4.19651 25.5774 -5.18504 -3.18941 -0.798151 -0.556094
4122 1 -2.89526 28.035 -5.5887 -1.56769 0.303307 0.895223
4123 1 -0.287776 27.9671 -4.82776 -0.593441 4.60452 -2.23651
4124 1 0.933424 26.1554 -6.33413 1.10026 -2.43583 0.548088
4125 1 -3.07247 23.9054 -7.0573 7.76492 1.22231 3.35959
4126 1 -3.03888 27.7213 -8.30486 -4.33363 2.50717 3.9408
4127 1 -0.416646 27.1064 -8.89056 5.94952 -4.01357 -5.06065
4128 1 0.640606 24.9587 -10.5109 2.44997 4.87633 -5.24202
4129 1 -3.6333 25.5501 2.3179 1.10953 2.06872 1.09438
4130 1 -2.36369 27.8976 1.34017 3.12422 -5.56705 -0.334504
4131 1 0.371849 27.5372 2.39105 1.5832 -3.89957 -7.25808
4132 1 1.98173 25.4866 1.82457 0.745958 5.3105 -4.77625
4133 1 -3.15974 25.5717 -2.56867 -3.17 -3.39129 -2.51673
4134 1 -2.57387 27.8627 -1.28981 0.288839 -2.98123 -7.26756
4135 1 -0.0966549 27.9081 -2.13737 0.427153 1.70508 -1.24203
4136 1 1.35677 25.4414 -0.990352 0.52802 -0.0723038 1.38978
4137 1 -2.39171 22.8752 8.14658 -0.133732 -0.213859 1.20724
4138 1 -1.63661 27.7562 8.80316 -1.28209 3.71674 -7.35051
4139 1 0.894998 27.8082 9.63263 -0.109193 6.06915 -0.487677
4140 1 3.83957 24.9893 8.45129 -0.735419 -1.33922 2.06823
4141 1 -3.63662 25.5322 5.19706 -4.41036 0.95244 -2.95275
4142 1 -2.06534 27.645 6.00318 1.06239 0.649752 0.800541
4143 1 0.607938 27.6692 5.13021 -4.72954 1.27381 -0.69943
4144 1 1.51854 25.897 7.30086 2.20085 -2.47475 -4.81157
4145 1 -4.19388 30.0802 -4.56832 2.28991 -0.310647 0.207237
4146 1 -2.83531 32.1391 -5.80402 -0.0662808 0.456708 -3.61437
4147 1 -0.187085 32.4356 -4.99886 2.86435 0.910735 5.31375
4148 1 1.18922 30.1298 -6.02057 -6.48689 -1.1733 1.72491
4149 1 -4.52084 30.0235 -8.89307 2.04623 1.89545 1.3191
4150 1 -2.97356 32.3647 -8.4256 1.6825 1.90834 3.23783
4151 1 -0.183861 32.0681 -9.43223 2.9666 1.88354 5.17959
4152 1 0.96336 29.5051 -8.84071 1.2572 5.52538 0.11095
4153 1 -3.37019 30.2501 2.72298 -0.520781 -0.0756817 -0.118532
4154 1 -1.86901 32.3425 1.64817 1.67773 2.57418 2.99683
4155 1 0.817748 32.2406 2.28369 0.546943 0.875037 0.676237
4156 1 1.97509 29.8634 1.35596 -3.367 -0.469757 0.781414
4157 1 -3.98295 30.3254 -1.85364 0.599124 1.53797 -1.06611
4158 1 -2.26642 32.5963 -1.16286 -1.88727 -1.50486 -2.60995
4159 1 0.332937 32.2062 -2.13441 -1.60494 2.16285 3.81096
4160 1 1.78265 29.9152 -1.56027 2.92236 -1.97722 0.133959
4161 1 -2.71887 30.0613 9.88214 0.301152 2.42445 -4.87222
4162 1 -0.909277 32.1842 8.94033 4.19991 -0.798146 -3.58533
4163 1 1.73675 32.078 9.73612 -0.278851 -2.1925 -3.11709
4164 1 2.74967 29.7892 8.65741 -2.25852 -3.61449 -2.77877
4165 1 -2.82066 30.3087 5.38999 6.5461 0.833863 1.75991
4166 1 -1.19355 32.4668 6.04997 0.22197 2.55904 -3.86904
4167 1 1.24924 32.2386 4.84079 -5.80146 4.04628 1.33384
4168 1 2.34556 29.8131 5.81004 -3.97874 4.01758 -9.52471
4169 1 -3.74598 34.5571 -4.91517 4.08313 1.65546 1.45947
4170 1 -2.53025 36.7832 -5.96821 -2.59909 5.14989 4.20581
4171 1 0.183421 36.8184 -5.30646 3.86097 -0.07425 -2.08807
4172 1 1.4891 34.3974 -5.99802 -2.27499 -4.65157 1.06254
4173 1 -4.45473 34.6691 -9.23906 -4.79191 0.175877 -3.06089
4174 1 -3.0064 36.837 -8.6412 2.09131 -2.64288 -2.28019
4175 1 -0.263167 36.7497 -9.41816 3.82875 -0.83991 -1.67326
4176 1 1.24749 34.5425 -8.81359 0.063522 3.72594 1.78916
4177 1 -3.03224 34.7311 2.77298 3.97984 -1.18831 2.55605
4178 1 -1.71226 36.9129 1.57272 1.96392 3.27385 -2.52937
4179 1 1.10951 36.6905 2.35135 -3.57058 2.9426 -1.3171
4180 1 2.17296 34.4633 1.38855 0.563321 8.18325 0.559424
4181 1 -3.66622 34.7111 -2.07261 0.167165 2.62357 -0.116671
4182 1 -1.88223 36.7146 -1.07719 -1.41216 -1.72047 -0.696849
4183 1 0.548073 36.6893 -2.39638 2.21214 1.78479 2.3651
4184 1 1.79402 34.4462 -1.44822 -0.41791 -1.75278 1.6857
4185 1 -2.33288 34.5675 9.71954 -3.61228 -2.24779 -0.239562
4186 1 -0.674613 36.7694 9.46317 0.564522 0.488423 4.31572
4187 1 2.00835 36.7627 9.61257 -1.14913 -0.394424 3.02898
4188 1 2.83356 34.3411 8.31907 -3.10105 0.790781 -3.34487
4189 1 -2.69216 34.7997 5.59882 -5.02753 -0.150984 2.23422
4190 1 -0.960926 36.9286 6.41021 -0.453196 2.35845 0.803299
4191 1 1.47488 36.9689 5.22692 2.65219 2.15264 -2.21083
4192 1 2.62897 34.5725 5.62812 3.21678 0.0716231 -1.9695
4193 1 -3.50785 38.9799 -4.75013 4.22078 -0.90884 -2.5109
4194 1 -2.44541 41.3769 -5.65227 -0.282197 -3.94045 1.35141
4195 1 0.171557 41.1801 -5.17604 -2.29209 -2.45201 1.14762
4196 1 1.60207 38.9187 -6.15667 3.04519 -4.55249 -1.17045
4197 1 -3.66584 39.5962 -9.29118 3.4689 5.95131 -2.94065
4198 1 -2.48661 42.1353 -8.3828 -2.52898 -5.70325 2.6909
4199 1 0.0585128 41.6376 -9.4662 -1.89563 0.490072 -3.02065
4200 1 1.09127 39.0778 -8.91501 3.06316 0.256903 1.37803
4201 1 -2.5577 39.2676 2.80469 -3.1445 -2.52232 2.69913
4202 1 -1.03486 41.3884 1.72427 1.84409 0.708562 2.81481
4203 1 1.61698 41.2329 2.66149 -3.01055 2.50125 -5.06911
4204 1 2.64032 38.9046 1.65597 -0.041297 -1.03826 2.45859
4205 1 -3.10867 38.9969 -1.99013 -0.0172658 -4.35271 -1.28554
4206 1 -1.79244 41.1304 -1.00019 -4.81632 -0.324876 1.16721
4207 1 0.888904 41.2562 -2.16272 -4.18234 -0.253972 -0.829348
4208 1 2.10965 39.0155 -1.13291 -0.784368 1.2416 0.80781
4209 1 -1.97194 39.2713 9.98366 -2.64312 1.47001 -0.158433
4210 1 -0.450232 41.3779 9.02438 -5.34574 -1.12384 -0.200976
4211 1 2.32684 41.1413 9.79696 -2.00448 -2.12082 4.84
4212 1 3.70052 38.824 8.98501 -3.50604 -3.14452 -2.32043
4213 1 -2.38685 39.1863 5.56276 0.877194 -5.99034 2.29112
4214 1 -0.680871 41.1082 6.31607 -2.60135 -0.774398 -1.94798
4215 1 1.90991 40.9252 5.24551 -1.16185 3.90924 -0.7653
4216 1 3.30804 38.894 6.30972 -0.849985 2.43933 -1.97707
4217 1 -3.38919 43.5794 -4.51851 2.61145 -0.0980612 -1.33354
4218 1 -2.13229 45.6591 -5.86387 0.329703 -4.71344 1.07179
4219 1 0.699713 45.6396 -5.10334 -0.377936 -0.608919 -8.23674
4220 1 1.25852 43.4027 -6.36072 2.32795 2.43375 2.24221
4221 1 -3.07689 45.1688 -8.61125 2.3105 2.44099 -1.0375
4222 1 -1.12009 -24.1414 -9.54401 -3.61315 -5.69928 2.28743
4223 1 1.42634 46.164 -10.3387 0.25082 8.57138 -0.909218
4224 1 2.12894 43.7439 -9.25439 0.855081 4.07005 -1.37314
4225 1 -2.43971 43.2874 2.85408 1.27863 -1.86421 1.45816
4226 1 -1.13509 45.5114 1.77462 -2.38294 0.53525 2.76317
4227 1 1.56389 45.719 2.62357 -4.71783 -0.539825 2.61949
4228 1 2.91814 43.4811 1.40988 1.66632 -0.646737 -0.841572
4229 1 -2.90722 43.5956 -1.74397 -0.955015 -0.0950642 -4.2149
4230 1 -0.941202 45.5668 -1.17362 4.54503 -1.24568 -4.94866
4231 1 1.69211 45.8859 -2.35256 2.10837 -0.328501 1.16028
4232 1 2.51777 43.6282 -1.35934 -4.27721 -0.0867133 4.62065
4233 1 -0.168895 44.2667 9.30664 -1.16465 1.13707 0.147021
4234 1 0.7274 45.8543 12.7311 0.155174 5.88243 0.392355
4235 1 2.27384 45.252 10.2114 -4.65999 3.33627 1.64472
4236 1 4.08329 43.288 8.99159 -3.11692 -0.312094 -4.76899
4237 1 -2.03499 43.354 5.53378 2.5242 3.87457 -2.16814
4238 1 -0.441973 45.2687 6.54212 1.21253 -2.83036 -0.404669
4239 1 2.22886 45.4537 5.44957 -4.42513 1.04054 -1.44046
4240 1 3.4939 43.0764 6.38226 -0.979758 -2.273 -3.52615
4241 1 3.46351 25.8052 -5.14961 3.32923 1.74826 2.72092
4242 1 5.31357 27.676 -6.06431 0.729494 -1.2952 -2.26988
4243 1 8.08007 27.3116 -5.57636 0.886019 -1.32068 2.65975
4244 1 8.60967 25.1017 -7.21879 -0.524726 -4.52974 0.614284
4245 1 3.49206 25.1511 -10.4425 4.61611 -2.35204 -3.56392
4246 1 4.86359 27.4593 -9.13877 0.15697 0.947346 -0.384937
4247 1 7.17136 27.1698 -10.5603 -1.40568 6.79987 -1.36748
4248 1 8.433 24.9401 -9.92638 -0.0348105 -0.714336 2.82934
4249 1 4.53119 25.8739 2.59611 3.66981 1.79701 -1.40922
4250 1 6.04577 27.6477 1.16447 2.21683 -1.95969 5.29941
4251 1 8.83736 27.3477 1.76648 -2.36878 -5.00501 -0.831538
4252 1 9.72165 24.9972 0.614286 -1.55063 -2.97484 0.769347
4253 1 4.03001 25.2592 -2.36634 1.7135 -3.33751 -7.44003
4254 1 5.42464 27.5222 -1.82471 -4.60031 -1.99022 0.425656
4255 1 8.04698 27.2548 -2.87227 -0.740307 -3.43481 -0.930547
4256 1 8.92016 24.7745 -2.02207 -2.66634 -1.31911 0.999485
4257 1 4.82346 22.484 7.51828 -4.91411 -0.333954 -1.89208
4258 1 5.42632 27.1451 7.53988 -4.09859 0.808933 -1.04517
4259 1 7.53726 28.1851 10.7639 -1.5727 -0.236819 -1.52712
4260 1 12.307 28.2209 6.88627 -2.34615 -0.926202 0.636211
4261 1 7.19675 24.3868 5.40746 1.84922 3.78082 -0.643719
4262 1 5.88647 27.1791 4.76958 1.10493 0.258356 10.192
4263 1 8.8631 26.7312 4.42666 2.00556 0.160922 4.21581
4264 1 11.539 25.9438 5.53521 -1.35456 -4.39574 1.73935
4265 1 4.01866 29.9138 -5.268 -6.58045 -0.939974 -2.42976
4266 1 5.35223 32.1969 -6.55621 -0.23825 0.329774 0.624911
4267 1 7.91835 31.9286 -5.87175 0.485071 -1.28619 -1.50344
4268 1 8.78606 29.5288 -7.25211 0.208508 1.91753 -3.05888
4269 1 3.40956 29.7857 -9.97603 -2.16973 -0.200582 -3.15847
4270 1 4.9115 31.8157 -9.21202 -3.80276 -1.42908 1.39041
4271 1 7.30494 31.5322 -10.8298 0.795533 -0.389798 -5.219
4272 1 8.74524 29.1964 -9.96755 -3.06526 0.198421 -2.48759
4273 1 4.68965 30.0798 1.96906 3.42076 1.73822 3.50975
4274 1 6.21372 32.0719 1.01969 -3.386 -4.42448 -4.73732
4275 1 9.07346 31.7944 1.73856 -1.58501 3.08326 -1.91943
4276 1 9.73536 29.563 0.52025 0.193499 1.1624 0.0636477
4277 1 4.38207 29.9169 -2.59025 1.11218 2.79328 4.15696
4278 1 5.65178 32.1522 -1.80277 -3.23848 1.5268 0.974676
4279 1 8.3401 31.9402 -3.0748 -0.195501 2.42297 3.63353
4280 1 9.19175 29.5933 -2.15378 -1.65137 -2.18292 -1.25257
4281 1 5.61047 29.3096 9.03067 4.1764 -1.9603 2.53951
4282 1 6.73129 31.5505 7.97508 -1.16805 2.97848 -4.41447
4283 1 9.35586 31.6117 8.86364 -2.18452 -4.94221 0.137462
4284 1 10.0613 28.7425 9.14294 -0.279723 -0.253198 -0.355387
4285 1 4.81385 29.8314 4.82913 -0.448597 2.25542 1.58701
4286 1 6.58631 32.12 5.16187 -0.250527 -1.18236 2.01143
4287 1 9.27586 31.4683 4.46404 -3.46222 5.23747 1.91952
4288 1 9.59281 29.2315 6.05587 -1.91111 5.06278 -2.35305
4289 1 4.1486 34.4381 -5.34279 -0.968873 -8.38736 -0.610736
4290 1 5.63599 36.7031 -6.1948 1.73455 0.0911564 2.33523
4291 1 8.44832 36.432 -5.93377 4.73594 0.967712 -1.96755
4292 1 9.22802 34.078 -7.21034 -1.92399 1.34061 0.252162
4293 1 3.81272 34.3144 -9.78808 2.28046 -2.088 0.457266
4294 1 5.24845 36.6848 -9.14112 2.90087 -2.68743 0.0869956
4295 1 7.86309 36.4169 -10.0556 4.01194 2.38494 -1.54209
4296 1 8.74133 33.8243 -9.95288 2.80378 -2.31912 -2.86239
4297 1 4.93833 34.5098 1.81595 -3.13043 -2.55851 4.37973
4298 1 6.50208 36.7221 0.737442 2.02709 1.1715 0.0163429
4299 1 9.17177 36.5376 1.61622 1.28722 2.58697 -0.819042
4300 1 10.1643 34.1862 0.523733 -4.89139 -1.22852 3.64586
4301 1 4.28975 34.6064 -2.53146 0.923108 2.2234 -2.98772
4302 1 6.17221 36.5768 -2.00815 -4.30344 2.88867 -2.51609
4303 1 8.66128 36.7303 -3.18728 -2.52147 -2.26115 2.29961
4304 1 9.25922 34.3705 -2.13242 -2.04978 0.259557 -3.23589
4305 1 5.56585 33.8341 8.81993 -4.14646 3.35776 -1.63986
4306 1 7.33176 36.0411 8.42336 -0.649128 -4.46572 0.67768
4307 1 10.1627 35.9804 9.24039 0.824591 1.98613 2.36748
4308 1 11.0823 33.6075 7.99129 -2.70358 -0.64668 0.309725
4309 1 5.20563 34.3578 4.60995 -4.02014 -6.72642 6.76713
4310 1 7.03223 36.0797 5.51224 1.45763 0.350314 -3.36417
4311 1 9.73857 36.16 4.23644 1.08476 4.17081 7.95047
4312 1 10.5292 33.7227 5.07293 2.77067 -1.32954 -0.365494
4313 1 4.15404 39.0397 -5.242 5.26176 1.2401 5.87709
4314 1 5.46956 40.9878 -6.37761 -0.185844 -1.82108 2.69994
4315 1 8.19364 41.5869 -5.7649 0.599745 0.570308 1.60547
4316 1 8.91671 39.2108 -6.97842 5.81206 1.99474 -2.3984
4317 1 3.85943 38.8972 -9.54459 0.0197271 -0.774616 2.92689
4318 1 5.17744 41.3079 -9.12206 0.81692 -2.04709 -1.19318
4319 1 7.70811 41.3187 -10.5586 1.45013 1.81507 3.69888
4320 1 9.00989 39.1236 -9.72184 -3.57089 -0.839734 1.35441
4321 1 5.36199 38.7351 2.08517 -2.10107 -2.77076 2.16159
4322 1 6.69099 40.8975 1.24824 -2.28346 1.34723 -1.02599
4323 1 9.42636 40.9112 1.74562 1.33739 -2.09261 6.80192
4324 1 10.2392 38.6814 0.293684 -3.42843 -2.69346 3.21855
4325 1 4.68766 39.0381 -2.46196 -1.85994 1.39016 1.06881
4326 1 6.04118 41.1874 -1.48429 1.68527 0.161456 -2.8727
4327 1 8.36973 41.37 -2.96331 -2.87352 1.36078 -2.09541
4328 1 9.93042 39.1502 -2.41224 3.24594 3.90178 0.613223
4329 1 6.4868 38.548 9.12084 5.30536 -0.0496565 4.71808
4330 1 7.84306 40.83 8.37031 -1.69464 -1.93841 0.761321
4331 1 10.6361 40.4368 9.18222 1.04643 -2.58508 5.90721
4332 1 11.4753 38.0114 8.12617 4.34209 4.67009 5.87223
4333 1 5.76279 38.5556 5.0014 -2.57813 4.03661 -1.69865
4334 1 7.48234 40.7413 5.62364 1.01873 4.47656 1.46096
4335 1 9.98778 40.5116 4.45564 -5.63859 6.14318 0.0881927
4336 1 11.0829 38.322 5.37417 3.95569 0.098623 -1.71175
4337 1 3.80367 42.8339 -5.29724 1.77402 2.61241 -2.33479
4338 1 5.59674 44.802 -6.2821 2.22966 -0.646027 1.79293
4339 1 8.90129 -24.1529 -6.79271 2.92571 2.7411 -2.38886
4340 1 8.48858 44.2523 -6.59504 3.62776 4.05676 -2.57626
4341 1 4.92727 44.0878 -8.96546 5.7499 0.761381 -1.36558
4342 1 6.21794 45.7881 -10.7491 1.88033 -0.803274 1.48153
4343 1 8.95453 46.0388 -9.6905 1.72606 -4.62007 -0.378044
4344 1 8.91428 43.3051 -9.26711 3.07759 -8.08404 -2.75639
4345 1 5.6038 43.1706 1.99064 2.52352 -0.528493 0.0171989
4346 1 6.57729 45.8369 1.65597 -3.5153 -5.09154 -2.82843
4347 1 8.89686 45.8836 0.333396 -0.0670137 -0.310581 2.42451
4348 1 10.8992 43.1195 0.905532 2.37606 1.32339 2.33075
4349 1 4.8924 43.3241 -2.6516 -0.596032 -1.60386 3.02445
4350 1 6.45969 45.6079 -3.73784 5.57884 1.47916 0.337438
4351 1 9.33939 44.874 -4.00863 0.522117 -2.50407 0.646935
4352 1 8.93841 43.5918 -1.31502 2.75893 -6.62515 -5.98445
4353 1 6.76472 43.0487 9.70047 1.20953 3.13798 -2.21799
4354 1 7.34541 46.0941 7.86579 2.04751 2.36841 -3.24681
4355 1 9.33318 44.838 9.51449 1.81615 1.89614 2.01694
4356 1 11.164 43.1659 8.22051 0.163949 0.779244 2.37756
4357 1 5.88948 42.7698 4.81382 6.16186 -2.49515 5.87308
4358 1 7.88009 44.803 5.48284 -6.95823 1.32068 8.06263
4359 1 10.6534 44.807 4.80847 2.62926 -3.81134 -0.830065
4360 1 11.4755 42.3184 5.72024 -1.97147 0.955847 2.31669
