ITEM: TIMESTEP
2400
ITEM: NUMBER OF ATOMS
4360
ITEM: BOX BOUNDS pp pp pp
-2.4586058956390804e+01 2.3776894856390804e+01
-2.4767247652352665e+01 4.7283683252361214e+01
-2.4185576762962540e+01 2.4177375162962537e+01
ITEM: ATOMS id type x y z vx vy vz
1 1 -23.1582 -20.0552 12.0903 -4.88895 1.43227 -1.57114
2 1 -6.76669 14.8351 0.752623 1.82605 1.17505 -5.5732
3 1 7.50538 -7.24714 -22.4235 -3.10297 -2.27841 4.3666
4 1 1.21317 -2.06852 -7.0224 -2.85958 3.13484 4.88489
5 1 -20.4412 -20.007 22.0715 -3.81726 -2.37241 -0.0732027
6 1 1.90179 16.2939 18.1715 2.05782 2.61084 -5.66122
7 1 7.55778 21.3999 7.88292 -0.152612 -0.283144 -0.809439
8 1 -22.5729 -11.7015 -15.1546 1.30437 -0.791644 -3.36816
9 1 -14.6695 4.78999 3.9811 -0.613703 0.739293 -5.09977
10 1 -1.58397 -5.81708 14.0365 3.15702 2.23075 -1.24617
11 1 4.17893 -10.511 15.7359 -3.02726 -2.26454 -2.75037
12 1 21.287 -6.50608 -20.2483 -0.289211 0.490118 -2.8503
13 1 -21.6321 -13.0505 14.938 -1.81724 3.02489 -4.31131
14 1 8.35452 2.49789 -6.77204 0.514504 -2.87043 2.29073
15 1 -3.21139 -1.09949 -14.7281 1.30627 3.30725 -6.19316
16 1 -19.8651 -0.20638 6.10181 -3.11017 -1.29412 1.24482
17 1 17.1565 -8.78646 16.057 -0.293336 -2.59873 0.0917352
18 1 22.1694 24.4083 4.49935 -0.624465 2.24601 1.09228
19 1 -15.0506 23.6211 20.7381 -2.41853 -4.75221 2.64009
20 1 19.1978 3.88139 18.6705 -1.65784 2.21637 0.971934
21 1 -23.6253 0.634072 12.0295 2.75099 -4.01716 1.7791
22 1 -11.4545 -0.990614 -15.2904 -2.30645 0.800334 -1.37544
23 1 -11.5353 -22.6186 21.0126 3.94499 -0.402868 2.21748
24 1 9.52936 19.5462 -4.27692 1.37357 1.37518 3.95517
25 1 7.01816 23.5484 16.9813 0.685581 2.10416 3.30251
26 1 0.161135 14.5219 10.1315 0.589313 -3.07501 -4.63127
27 1 -18.1473 7.3665 -0.941274 1.03681 -3.16715 -0.904371
28 1 -21.0987 4.75192 4.76768 -1.52508 -1.53525 2.95447
29 1 -6.5649 -14.1062 -10.4557 -0.183501 0.800314 -6.2558
30 1 21.9032 -0.173291 -23.1836 3.83154 -1.98101 -0.333927
31 1 4.21999 -15.2808 -19.2679 2.06635 -0.411245 -2.09077
32 1 -9.51499 12.2131 -20.692 -0.37159 0.451998 -0.988262
33 1 2.18407 0.0756796 -13.5619 -3.59592 1.15926 3.31176
34 1 -19.0825 -22.4655 13.5585 -4.18392 -0.817297 -2.88124
35 1 19.2609 7.38937 13.398 3.79041 -0.595332 -2.76833
36 1 -12.6951 20.8126 -17.0088 2.50788 -3.02796 -1.18768
37 1 -10.5884 -7.30522 -3.20252 4.99284 4.13929 1.18946
38 1 20.2625 11.5379 9.11128 -5.79359 0.442832 -1.65175
39 1 0.273173 9.37866 -22.5375 3.69841 -1.19456 2.58075
40 1 0.760369 0.496821 -17.4801 -1.76734 -1.62615 -0.134532
41 1 7.77872 -5.10487 -11.4427 -1.13153 2.45675 -1.35214
42 1 -19.2626 -13.9309 1.62316 4.50378 -0.647044 0.959172
43 1 -13.0456 -4.44971 1.84743 6.15935 0.454269 3.49364
44 1 -1.03277 -19.4111 -8.72221 -3.7749 -1.02405 4.23952
45 1 -11.0196 12.6404 -3.34837 0.652898 -0.294996 1.8131
46 1 -22.5764 -21.1863 17.5962 -2.05777 -3.85614 5.09639
47 1 -6.53707 4.99398 20.1577 -2.66353 -0.91774 -0.357917
48 1 7.66238 5.22493 -5.97241 -3.17499 -1.9275 0.221589
49 1 -24.55 11.8198 4.38761 -5.05331 -2.19402 2.14931
50 1 13.4125 -20.0744 13.0161 0.375578 -3.88275 4.04968
51 1 -8.90893 -4.98459 17.7547 -1.47559 1.86597 0.328116
52 1 15.0212 3.70522 -14.3707 0.729197 -1.61439 5.18779
53 1 -2.11119 20.9207 7.15749 -3.08487 4.84839 6.96503
54 1 -16.9335 -12.2453 -11.9375 -1.09329 4.4551 3.3218
55 1 -4.87889 -1.59997 -16.9737 -0.239708 3.34816 -2.57417
56 1 -16.3777 6.54378 2.35054 -4.07313 2.03546 3.16642
57 1 -14.8506 -8.87329 -4.24455 -1.18711 2.73264 3.727
58 1 4.21695 -20.9102 -4.4452 -5.58183 0.814542 -0.500545
59 1 -20.5944 11.5834 20.8834 -1.37651 1.08698 1.59706
60 1 1.00823 16.1447 -23.3515 0.772857 -1.43841 2.24616
61 1 -12.8995 -0.0844632 0.435841 -0.562183 4.04438 -1.42467
62 1 -1.32195 -10.8912 17.0045 3.18167 1.88471 -5.22683
63 1 -0.266784 9.77588 -16.2401 2.98059 3.32212 -3.16458
64 1 -8.32606 -3.05582 0.126081 -1.10266 -2.4332 5.68563
65 1 17.9739 -2.50132 8.91233 -1.90484 -0.824739 -2.92966
66 1 -10.3309 -18.3094 -12.8787 1.19917 1.18949 0.279988
67 1 -14.1585 23.8805 -11.4258 0.531937 -0.825552 -0.0419759
68 1 -2.36288 13.1535 -20.0764 4.83132 1.85881 4.18228
69 1 -8.3269 12.7 8.98957 3.28728 2.8542 0.665951
70 1 -17.4081 15.6945 -18.4273 -4.69492 1.824 -0.566704
71 1 -11.6355 4.43509 1.00749 2.1383 2.74764 -1.45361
72 1 22.9923 15.0493 20.1221 -3.56344 -0.296703 -0.0296356
73 1 -12.1323 -17.3994 14.357 1.188 3.16483 -3.66093
74 1 1.70568 11.2368 -13.5405 0.216159 -0.269336 -2.10912
75 1 -19.2919 1.99085 -13.4615 -1.89718 -3.02956 0.320555
76 1 -22.8137 -4.26631 1.66788 1.57692 -2.61668 6.59902
77 1 13.155 -21.961 -0.293893 -0.653002 3.83259 -0.995788
78 1 -19.1158 13.1211 -7.94973 1.77227 -0.0285759 -0.109809
79 1 -22.5796 -0.266292 -16.4866 -1.24033 1.3335 5.22414
80 1 -12.7111 14.4834 -14.0525 -3.84431 -2.29212 2.91121
81 1 0.213927 -11.6949 -14.6271 -3.05613 -4.85889 2.9629
82 1 6.40411 -23.4312 4.70947 1.00161 1.88309 -1.95088
83 1 -21.9626 12.6822 -0.728874 3.12976 -1.26696 4.05999
84 1 21.9083 23.8044 21.7922 0.964617 -2.18314 -1.57614
85 1 6.19632 13.795 -4.16426 -0.0296116 3.12073 4.41617
86 1 12.117 7.79981 15.2393 -0.600165 0.189527 4.0718
87 1 0.569322 17.9581 -7.77515 -0.389172 -4.47967 2.14674
88 1 -10.1385 21.4321 -19.7036 1.5319 2.87067 0.547185
89 1 -9.95397 -3.82902 22.3216 -1.66917 -0.925621 -0.0612962
90 1 7.7877 -3.16628 5.91737 0.726007 -5.05206 -1.05114
91 1 19.7282 18.7805 -17.8382 1.28804 0.067208 -1.23984
92 1 15.4544 -23.046 1.14859 -0.463383 3.49343 -0.602079
93 1 -20.0047 -22.0403 16.549 -1.57954 5.37609 0.988472
94 1 22.4461 1.13994 -11.6408 -1.00138 -3.87736 -2.18539
95 1 2.15387 -5.02626 -11.6326 6.03602 -1.72873 -0.710068
96 1 23.3739 -16.3946 22.5652 -1.81496 -1.21444 -0.940169
97 1 -8.75712 -14.4953 -21.0928 3.16685 -4.55976 3.03804
98 1 -2.44312 14.7695 11.4372 1.30895 3.59362 5.13448
99 1 15.667 -22.6244 -4.70552 -2.1437 -1.8842 -1.59462
100 1 -23.7357 -14.615 -23.8506 -2.91732 0.889013 -2.3728
101 1 2.51823 -20.7871 -10.6326 -0.281085 1.41837 1.58356
102 1 4.33579 2.81203 4.27644 -2.61243 -3.31384 -1.88237
103 1 19.6004 25.2741 21.4945 1.15846 0.501037 -1.79363
104 1 -13.6406 -23.9305 -11.2133 -5.45969 1.74077 0.574684
105 1 4.93395 19.8817 -18.5578 -0.689584 -3.23091 0.126619
106 1 15.6554 2.67213 8.30908 0.784875 -1.40275 -0.877635
107 1 21.0545 -2.30377 18.365 -4.86764 -0.709421 2.9855
108 1 -10.7559 2.37646 -24.2609 0.716567 -1.4889 1.93937
109 1 -12.3825 16.5045 -15.9552 -5.37621 -0.731284 0.366456
110 1 10.3098 -14.9361 -7.19275 -2.28475 5.25035 2.6655
111 1 21.2316 -5.81158 -10.6416 -5.96355 -1.22844 0.0258377
112 1 -17.0296 0.439525 -22.8996 2.54906 -1.40153 -3.89156
113 1 -3.19165 -7.48813 18.5641 1.78944 2.40929 2.81942
114 1 -22.5665 -18.4999 18.346 1.98079 4.34727 2.45835
115 1 8.10637 11.2156 5.99895 -4.55529 2.33677 -0.658587
116 1 1.89793 -15.2758 -17.1334 -0.380861 -3.2593 -2.12051
117 1 20.4954 16.7472 -19.8254 1.54635 1.34562 -4.3034
118 1 6.79907 -18.1351 -11.0465 3.79218 0.234907 -7.02981
119 1 14.5389 10.5872 -8.61881 2.27345 -1.24433 0.769415
120 1 3.83931 -1.33541 17.7908 -3.81972 0.888135 -0.737166
121 1 -6.13926 -18.7256 22.217 -2.4173 2.43523 -4.41632
122 1 -8.68493 5.62674 21.5971 -1.26662 4.44919 -1.57064
123 1 11.026 14.1688 8.42171 -0.739606 -2.89126 -1.97714
124 1 22.5993 -19.7104 -14.0709 -0.642121 -2.07466 -2.54948
125 1 17.4504 9.21029 0.655322 -3.43019 3.85227 0.715904
126 1 -10.7477 -1.68742 -6.7194 -2.85143 2.98894 -1.8592
127 1 9.47585 0.531849 14.2412 7.10981 3.20027 -0.230525
128 1 -18.7602 -2.24307 -7.92599 3.28992 2.78572 0.258959
129 1 15.5462 -10.4145 3.27245 0.960133 3.17372 3.70698
130 1 -10.0946 16.2889 -19.3535 2.96931 -0.142781 0.315114
131 1 3.91066 -9.17888 -19.2854 1.083 -5.5225 -2.15404
132 1 -6.46985 -5.06493 -22.3551 2.57885 -0.374107 1.00557
133 1 -17.4218 4.09795 18.1579 -0.798603 -1.92027 3.13317
134 1 19.5269 -7.77208 -22.4654 -1.23054 2.86324 -3.02834
135 1 -12.876 -4.98547 -22.6001 -1.10828 3.87298 -1.40874
136 1 -0.676361 5.09336 -4.77028 -4.46961 -5.7425 1.67867
137 1 -12.7062 5.35931 -14.2139 -3.08741 -1.53396 -2.71633
138 1 12.5179 16.6711 5.2384 -2.87814 4.37161 -2.10754
139 1 -19.0906 -19.695 -16.678 0.417254 -1.42874 -2.21356
140 1 3.59786 -6.53037 20.0844 -1.68866 0.915903 5.18757
141 1 11.4243 -16.9225 3.62836 -6.06425 2.65186 -1.85151
142 1 9.54426 2.34726 23.0042 0.477307 -3.71627 -6.60302
143 1 -4.48263 -1.97205 -5.13439 -1.01506 -2.9199 2.85352
144 1 -21.9527 -8.84413 -14.9804 0.989035 1.67618 4.99577
145 1 15.3565 6.14516 22.2486 1.07276 -2.04093 3.12654
146 1 -12.4825 -10.1406 13.4809 6.65225 1.51682 -0.666242
147 1 9.92507 20.1851 4.18422 1.35349 0.0518016 0.060102
148 1 -18.2735 14.2185 11.6986 -0.446262 1.90817 -0.668449
149 1 -19.1206 -24.9089 -19.6657 0.887801 -3.20697 -4.32545
150 1 20.4586 10.436 19.878 0.346322 -2.13951 -3.8201
151 1 18.4918 1.33559 21.9735 -1.63081 4.36878 3.07526
152 1 -6.2421 -4.39765 17.077 1.07902 -7.05738 0.890173
153 1 10.3306 -14.4539 -3.16758 2.98992 0.498647 -0.908844
154 1 -8.69642 19.7371 -5.39593 1.24585 -2.30047 -3.51155
155 1 22.2614 -21.3574 -19.4749 3.38254 5.47682 -1.7125
156 1 15.1245 10.4903 18.9247 1.23794 2.89937 -1.03633
157 1 11.8405 -13.7524 -13.5932 -0.66675 0.307797 1.63315
158 1 10.9746 7.4607 3.24056 -5.70375 -2.28215 -6.24698
159 1 -22.4925 -12.3615 12.3956 -0.816061 0.128106 3.08658
160 1 -4.9617 -16.36 -4.8618 -3.24671 2.25999 0.25488
161 1 17.7131 0.118774 -14.1606 -5.76829 -1.79641 -0.699067
162 1 -15.4057 -9.10539 19.8509 0.839906 2.39055 4.20248
163 1 2.45648 1.07577 18.2291 4.50886 -0.250453 3.04184
164 1 18.8866 10.2994 13.7798 -1.76862 4.16731 3.34791
165 1 -19.2799 11.8325 18.1311 -0.848437 -2.62869 3.83499
166 1 10.4826 20.0817 -22.2563 -1.69175 2.77823 -5.00465
167 1 -13.0415 2.05283 -2.82794 1.12432 -1.36627 3.08998
168 1 -23.7021 24.1241 -3.65839 -2.77229 0.705932 -4.10057
169 1 4.78133 24.7398 -12.6783 -3.69166 -4.91447 -1.09877
170 1 -6.87766 -16.6304 -13.9207 -1.68875 -0.449209 5.6998
171 1 -15.6649 2.0657 16.1922 -3.5002 -2.30952 -0.107968
172 1 -18.4309 20.2944 -18.964 -1.07944 -2.03627 6.28182
173 1 -22.9896 1.80252 22.1842 -0.721383 -2.83338 6.29268
174 1 -20.1896 6.04668 -21.2329 -6.88492 -2.44089 0.176277
175 1 8.67282 17.7701 5.18948 -4.50885 -0.965168 -0.538487
176 1 -4.0553 22.2688 -3.3379 2.99308 -2.2228 -1.16295
177 1 -4.38651 -17.4627 12.7665 1.26005 -0.216208 2.93302
178 1 -17.6977 9.98557 5.60556 -1.84355 -1.94912 1.46718
179 1 -7.04766 -7.84907 -13.485 3.07174 2.77725 0.0687695
180 1 -24.1579 20.1169 10.884 -3.72618 -2.28387 1.54373
181 1 -4.46916 -5.83344 -19.919 -0.683901 4.56691 0.834924
182 1 -22.6762 -2.70061 15.4322 -1.33683 -4.63966 -0.219092
183 1 21.2059 13.2162 -3.37337 -3.1402 2.75357 -0.584711
184 1 3.51425 -23.221 -21.9162 3.29469 -3.319 -2.02629
185 1 22.2203 22.0917 15.277 0.954055 -0.427688 6.28684
186 1 15.606 23.3708 -9.18005 -2.19372 -1.10256 2.96771
187 1 -11.5048 8.45544 -8.72784 1.77585 0.738994 -0.222705
188 1 6.78056 -21.1038 -3.24526 0.454058 0.083875 -2.0551
189 1 -3.11819 -4.84013 0.551875 2.05468 -1.59348 1.76932
190 1 -15.5783 9.44983 -11.9063 -1.72142 2.57655 -2.9373
191 1 3.34059 -5.02748 -21.8496 -0.619722 -4.16784 -1.48068
192 1 9.23119 5.36889 -3.45891 1.65611 -3.17519 -1.08295
193 1 9.61113 1.62613 3.9823 0.0897068 -1.26973 -0.0971732
194 1 1.15668 23.6598 -20.8926 1.50294 -3.90488 -3.24867
195 1 7.14606 -0.0400825 -7.46864 0.353119 -5.56187 -0.82485
196 1 -15.79 22.2002 6.76739 6.31155 -5.85133 3.0031
197 1 -24.0383 -4.0832 24.0489 -3.76696 1.85248 -1.86769
198 1 -10.8808 -20.2757 -19.1258 0.252505 -1.2892 3.89057
199 1 -23.5365 -5.18523 -11.1292 0.173334 1.67553 4.80441
200 1 14.3159 6.34167 -15.3383 -1.71273 -4.98534 5.52601
201 1 5.42896 5.67501 -23.8617 1.48944 0.733844 -0.763301
202 1 12.4314 14.9642 13.2148 3.52661 0.394422 -1.58196
203 1 -23.7546 18.1569 7.85518 2.04614 0.963863 -4.53495
204 1 -4.7126 -16.1064 -10.7552 0.459431 6.76379 2.7904
205 1 16.9734 -5.44697 11.7834 6.06541 -1.11287 0.622551
206 1 -2.76012 -16.0998 -20.7403 3.01124 2.71452 -3.68473
207 1 -8.54115 6.06382 -24.0184 1.7844 0.457586 -2.4348
208 1 1.1323 -5.11889 17.4336 -2.29548 -3.0788 -1.73855
209 1 -7.216 15.5962 -14.9909 6.26384 5.49121 -1.93897
210 1 -19.3133 12.9737 -1.95341 1.84454 4.19752 -4.33059
211 1 16.5509 -1.33475 6.71302 -0.0402371 2.72286 -0.506024
212 1 -13.775 25.8312 -4.3434 2.60241 -3.40202 1.523
213 1 -19.1393 -20.4988 -1.12911 0.697468 -0.902656 5.36445
214 1 17.0294 -5.30501 -19.5127 2.55206 -0.817001 -0.67222
215 1 9.41701 22.1503 16.0797 0.697475 2.02155 2.1054
216 1 -19.0704 -23.871 7.95918 -10.7154 0.851861 5.54429
217 1 5.29247 22.2143 9.13449 -1.04144 8.96725 0.705874
218 1 11.5767 3.7451 -4.09973 -0.851775 -0.619704 0.296263
219 1 -4.98036 23.3967 21.0147 1.88338 3.3151 0.416133
220 1 5.6142 18.0847 14.8248 -2.10107 5.6287 0.19955
221 1 -17.4416 1.85498 -1.23371 -2.25085 -0.306018 -1.64758
222 1 -12.8855 -7.6257 -1.0779 -4.0094 1.46368 0.0747055
223 1 -23.0403 -6.48606 -1.56222 0.335019 -9.05267 -1.35431
224 1 -12.689 -3.11037 23.3653 2.56704 0.510485 -1.64972
225 1 3.25381 -12.0338 -6.92745 5.92891 2.40307 0.454017
226 1 21.9934 14.6176 -14.1886 -1.82648 -2.82996 0.255361
227 1 17.0289 17.6034 2.85424 -4.24582 -2.52149 -1.31795
228 1 -10.5864 18.8349 0.622992 -0.475061 -1.19638 0.0721316
229 1 10.9665 11.1907 -9.70142 2.8807 2.7337 2.86703
230 1 -8.39016 14.0102 19.5007 -4.08112 2.99015 5.82345
231 1 23.0426 -2.93056 -22.0198 -0.262283 -5.07767 0.640883
232 1 -2.87818 -11.9742 9.30495 0.483671 -1.50389 1.47914
233 1 -11.9479 14.9921 11.6398 -0.531667 -1.70651 1.02821
234 1 -5.66214 17.4336 7.28866 0.677276 -4.88801 1.48565
235 1 -22.8498 -1.18697 -8.15739 -0.493311 1.96396 0.0673197
236 1 17.446 -9.37624 7.62822 3.5492 2.55441 -4.0083
237 1 -17.574 20.3973 2.63972 -5.333 1.45431 -4.37561
238 1 15.7701 -1.30248 22.7729 -3.24268 -2.0635 0.189682
239 1 -20.0853 20.0531 18.0576 0.995226 1.91341 0.884069
240 1 10.5719 2.24113 16.3055 2.40288 1.83447 0.991561
241 1 -24.2216 -14.1528 11.0552 1.29302 -0.293986 1.20041
242 1 -8.21249 -4.54185 -11.9738 1.92316 4.05802 -0.315613
243 1 -7.71922 -7.51701 10.1183 -0.498139 1.19622 0.971457
244 1 -22.0614 10.0561 -23.7123 0.374248 -2.09103 1.34068
245 1 -10.0467 24.4669 -11.7813 1.03037 -0.476502 -2.41376
246 1 8.39515 3.59714 20.8748 -6.64635 -2.25617 3.1963
247 1 23.4413 -4.75962 14.6538 4.31878 1.43526 -3.44425
248 1 -17.7703 6.14757 -13.2702 2.56551 -2.56199 2.25254
249 1 -2.87263 -18.4461 10.6395 0.659269 5.0614 -1.2625
250 1 0.326088 -1.01556 7.05582 1.79634 -2.99492 0.818907
251 1 -23.0605 -1.60455 -21.0616 1.94902 3.80462 -0.519157
252 1 19.3604 16.9313 -10.9805 -0.553457 1.28402 3.54303
253 1 -1.32289 -3.56122 -22.6835 -0.636275 2.88063 1.4122
254 1 6.47424 -12.8709 -9.62757 2.74313 -4.95858 -0.575252
255 1 -23.1041 -22.6782 10.9042 2.72556 -0.0285404 1.80193
256 1 -12.4729 -5.44567 -10.7176 -1.40779 1.80371 -1.06229
257 1 -3.76967 5.65583 -18.1492 -1.95042 1.29281 4.09877
258 1 -6.61744 -3.02099 -7.26145 3.5364 -1.01332 0.616121
259 1 17.0365 -18.2946 -17.6786 -0.534847 3.14013 2.62441
260 1 15.5819 7.14662 -3.36528 -1.47349 2.67408 -0.479371
261 1 -2.01381 47.1798 10.7481 0.00853228 -1.82789 -2.96783
262 1 17.2858 20.0583 10.4385 -1.8101 1.94927 -1.15629
263 1 -20.8978 7.43591 -8.64751 -1.74431 -0.305008 -0.969165
264 1 21.6491 2.16757 18.8039 -0.00202281 2.91116 -0.895433
265 1 14.3522 -17.0992 -6.29931 2.9076 0.402707 -1.10985
266 1 23.7019 4.46971 -15.2718 3.07061 1.30502 2.90164
267 1 -12.4432 21.4758 -10.6801 1.68349 5.33928 -1.57958
268 1 -22.3412 17.7197 -11.4453 0.680833 1.5605 1.54556
269 1 -18.8449 -9.00402 -14.6325 -0.334529 0.912463 4.42947
270 1 -23.7662 -15.1478 17.4056 0.982159 3.53406 -0.707989
271 1 1.80978 24.373 -13.2186 3.33852 2.03575 -3.29498
272 1 11.7436 -15.2384 11.7769 -1.66416 0.146505 2.76451
273 1 -17.6435 -9.83127 13.1212 -1.17369 -2.61693 -2.57992
274 1 12.5496 -12.3065 8.53292 -5.77418 0.162534 -0.344449
275 1 13.0619 22.4244 -19.8073 2.10474 1.77962 -0.456487
276 1 22.2875 6.97682 -8.15966 2.05007 -0.640951 -1.83942
277 1 10.8442 -13.2379 -17.9589 0.650857 -1.44297 -1.33654
278 1 19.4947 9.65231 16.9208 1.51942 1.11373 -1.41192
279 1 -23.929 -1.99259 -0.100899 4.47843 -4.53903 0.102433
280 1 -2.49583 -20.4826 -12.3365 -1.15003 -0.607342 -2.75046
281 1 15.9483 21.3539 12.5336 3.47136 3.56508 2.90517
282 1 12.0201 12.362 12.5301 0.276304 -5.21434 2.76103
283 1 -4.21982 -21.4757 -21.2054 -0.645085 -3.79588 -0.912877
284 1 3.63221 14.0592 1.63456 -0.962552 0.760536 0.872309
285 1 -15.5014 18.4533 14.3043 1.51279 -1.13776 5.05098
286 1 -4.31345 17.8111 -1.92817 -2.06036 -6.73215 1.04177
287 1 5.15315 -10.0155 -7.4947 -0.188235 -0.368903 -1.84257
288 1 19.3084 23.657 3.77835 -3.11248 -0.713484 -3.03226
289 1 -4.14766 -21.4441 10.4006 0.671149 -0.492075 3.29278
290 1 -5.28003 -12.5493 -15.6509 2.1299 -2.1572 3.2533
291 1 -11.6116 -16.8218 11.4351 -1.67365 -2.24745 -3.66237
292 1 15.6422 8.10321 2.62695 -3.98741 -2.13241 3.43275
293 1 13.0249 4.19204 13.5538 -0.746624 -2.41665 1.20478
294 1 -8.8369 1.35881 -1.1255 -0.0360313 0.374688 3.23149
295 1 0.0927348 7.64922 8.7941 0.276616 -3.69664 0.51665
296 1 1.99079 14.7883 -2.55759 2.44351 6.47857 2.59156
297 1 20.2339 -9.4366 -6.54609 0.143503 -1.84525 -1.20167
298 1 14.334 -20.3169 -21.1615 2.00609 0.0291035 -0.61477
299 1 5.57893 -21.8743 -12.6495 -0.0333967 4.33528 0.380201
300 1 12.836 -3.8605 18.067 -4.08059 8.79748 -1.78589
301 1 -6.39966 21.1662 -21.8442 -9.51553 -4.83594 -2.63479
302 1 0.270491 8.78091 -1.11943 2.02341 -2.17167 2.89298
303 1 -20.4177 -20.9456 -7.48346 2.00135 2.24848 -3.819
304 1 -20.167 -16.6108 13.6397 -4.94039 -1.37212 -4.83956
305 1 3.18918 -21.177 22.6758 -1.34157 0.598154 -1.63867
306 1 13.9909 19.0731 -10.1863 -1.88344 0.2003 2.89708
307 1 10.8405 13.6063 22.4249 -2.28482 0.219822 -0.130007
308 1 -17.4463 -24.0419 4.36382 -2.26761 -4.72725 1.50048
309 1 4.66209 -20.0403 20.522 1.73953 0.412376 3.04139
310 1 0.987564 11.9279 13.0944 1.67043 -1.62584 2.67375
311 1 13.015 -9.96991 0.193176 1.13786 2.26362 -0.383819
312 1 -4.80328 0.911602 -8.86503 -3.12741 0.330186 3.40962
313 1 -18.5479 -16.7832 -8.43685 1.18598 -3.41985 -0.705637
314 1 -14.6172 5.56297 -9.20523 -2.15286 -0.485022 1.65773
315 1 -14.6738 -23.0367 4.52258 -0.168273 0.523362 0.38738
316 1 23.3779 -5.84386 2.31969 -0.66835 -0.472735 -3.77706
317 1 -9.58476 -10.3206 -23.1055 1.89031 3.61944 -4.98433
318 1 19.5165 -18.1878 20.7471 1.53463 -6.1559 -3.18751
319 1 -11.3441 3.54759 14.4067 -5.85627 1.82561 -0.38343
320 1 -3.10695 -2.03201 8.44769 -3.0571 0.439793 -2.13283
321 1 -20.3499 -13.1085 -14.1502 2.36314 -6.24373 2.63791
322 1 -11.5712 13.5007 -0.701024 -0.700308 2.92835 3.20267
323 1 -14.2182 0.918944 2.68614 -3.25207 1.69098 -3.39609
324 1 23.0318 4.95686 6.84575 0.657158 0.122714 3.83281
325 1 0.12116 -21.8542 18.4322 -3.45778 0.185449 3.44295
326 1 -18.9977 5.29121 1.32439 -0.132994 -0.119374 -0.226547
327 1 -7.80237 -13.6911 20.7091 1.42768 2.8128 -0.543614
328 1 14.2247 22.2055 15.8188 -0.120713 -0.0815904 3.02212
329 1 -0.385779 0.546465 -12.0589 1.04168 -1.45338 2.83359
330 1 -15.1616 -23.4949 22.5214 0.238674 -2.45803 -3.637
331 1 13.2119 7.97867 1.18874 3.22135 -1.87569 2.53547
332 1 9.63328 2.05795 -9.46465 1.03564 0.495093 -0.634169
333 1 8.31488 -9.74434 -14.7581 1.42141 -0.623972 -0.956318
334 1 2.5651 -21.2492 -2.047 0.822407 1.54426 -0.188657
335 1 23.3757 -22.5219 5.80424 0.335895 -4.74629 -4.13756
336 1 18.2764 16.1523 -21.5496 3.15434 2.91402 3.44962
337 1 -17.5211 18.5053 0.307933 2.01615 -1.48073 0.797674
338 1 6.57221 -7.60194 18.8246 0.595704 2.04156 3.60824
339 1 -6.37955 -16.4756 23.7609 3.55621 -3.38716 0.468463
340 1 -15.8229 1.22044 -19.5278 0.404507 -1.97797 5.20191
341 1 -12.2664 2.03166 -15.4251 0.685952 3.65536 2.32221
342 1 0.347856 -16.4828 -10.2432 -2.48082 2.08603 2.13273
343 1 -2.5396 -12.0187 -7.35586 1.01339 -0.0851235 -4.07257
344 1 10.126 -15.4234 -11.9365 1.43841 0.263471 -5.14376
345 1 -12.065 -5.46509 13.9628 1.862 -0.505083 0.246569
346 1 16.5427 3.34135 5.52117 -1.25186 5.61979 3.29387
347 1 20.0477 -5.73291 7.70376 5.21132 -3.33636 -1.30526
348 1 -13.0962 -2.48286 9.03274 4.86194 0.900778 -2.76774
349 1 -7.3437 8.50138 21.6474 -1.89102 -0.258071 0.548131
350 1 -22.2002 20.7544 23.7483 -4.30744 1.85181 -5.06591
351 1 -17.8225 3.55394 12.0121 1.20034 -3.10671 3.32822
352 1 15.4153 0.506579 -0.0233547 -0.0123697 0.213415 -0.63322
353 1 16.7863 -22.0669 -15.1358 4.08715 4.25536 9.09083
354 1 8.64501 22.9853 -6.86916 -1.4939 3.18619 3.12783
355 1 -5.39706 -1.92426 6.75576 4.20948 4.7714 -3.26779
356 1 -2.47819 -19.7174 -23.5712 0.252984 -2.70241 -0.607217
357 1 -7.28436 -15.9294 1.11064 -3.23295 -3.52148 -0.481263
358 1 19.5408 -11.0488 13.4294 0.337628 0.469794 4.10299
359 1 -12.9955 -22.0179 -8.88635 1.34523 0.00791215 -1.11766
360 1 5.38087 16.1473 0.169651 -3.11951 1.36713 0.182744
361 1 -20.5779 -21.0788 -3.66056 2.90189 1.29813 -1.16236
362 1 -21.6206 11.7608 5.17619 -3.53985 0.858621 -2.67215
363 1 -17.6337 -18.5812 11.44 -4.19078 -4.30434 -1.55251
364 1 -11.9062 3.99018 -4.92551 1.19658 -0.200703 3.69498
365 1 -0.540877 -17.2456 18.6986 1.09804 2.47049 -4.8447
366 1 -20.4731 -0.0861063 -9.30086 -2.74369 -1.58391 -0.935525
367 1 6.43511 17.7353 -17.4862 -4.32765 -2.32891 -2.50234
368 1 2.51228 -4.86832 12.5424 0.449768 -0.945369 -1.00757
369 1 13.4214 8.24016 -13.1809 0.887039 -0.758407 -2.61014
370 1 4.12942 -14.7809 -22.1162 2.66298 -2.19864 3.26398
371 1 -11.0507 47.0848 16.5871 -1.14928 5.62883 1.10346
372 1 -8.10536 21.5253 7.1591 -4.84356 0.96842 -1.57422
373 1 -16.5902 6.70021 23.2669 -1.93613 -1.96514 -9.10485
374 1 -4.44394 20.4772 -11.2066 -5.98678 -3.89934 2.91512
375 1 -21.7341 -5.59849 23.0342 2.9818 1.46823 4.89517
376 1 -3.96379 -14.5294 -17.2786 6.4625 3.45469 1.90938
377 1 13.6404 0.394104 13.0612 -4.14475 0.0970875 -2.21499
378 1 17.4656 -15.1223 -4.85987 5.71401 3.18422 -0.329435
379 1 -23.3954 24.158 3.7493 0.289411 0.162908 0.154777
380 1 13.0689 16.7193 -19.3629 2.56926 1.7489 3.30968
381 1 -23.6611 -12.1943 17.4387 1.97154 -1.81871 -0.114518
382 1 15.1399 16.9125 -2.54968 -3.07776 -3.36278 -0.197402
383 1 11.1392 -23.4474 9.08044 1.45636 -3.77568 -3.57285
384 1 -10.3453 10.9778 -8.59132 2.00092 -0.469233 -1.30496
385 1 -7.24633 0.840638 20.5038 4.07578 -2.01058 -2.66478
386 1 19.5815 -3.83803 -20.0079 0.876981 -1.93029 -0.680395
387 1 6.10447 -20.9102 1.33625 3.04383 -5.78745 -5.43563
388 1 -19.08 -23.6112 22.6696 -3.90353 7.24803 0.284841
389 1 -13.7924 8.33397 6.93217 1.70058 -0.584426 -4.17913
390 1 11.8975 7.32819 7.59305 0.613999 -0.0579051 -3.41874
391 1 15.7032 3.66521 19.496 -0.542205 -0.566289 -0.34846
392 1 17.4112 -10.2412 18.4976 5.86714 -1.2115 4.56935
393 1 -12.6849 -20.1701 -12.4684 -1.40229 4.07602 1.11592
394 1 -9.08417 11.3068 -5.13195 -1.33092 -0.585071 4.23021
395 1 -8.80805 -25.1086 18.1815 0.0174449 -4.69536 1.22126
396 1 12.8206 -19.5348 1.17463 -2.97759 -0.597013 2.73415
397 1 3.67832 -20.934 18.0307 0.73564 -2.20571 -0.446757
398 1 -24.3483 -23.0275 -6.86653 -0.865555 4.16187 -4.58476
399 1 11.9041 15.6284 1.33293 -1.44542 3.57561 -1.73264
400 1 -23.443 -16.6974 -3.66139 -1.85792 0.531011 4.77043
401 1 21.5541 -17.2858 -6.39092 -3.0731 6.02744 4.04099
402 1 -2.1366 6.34257 21.6736 -0.156914 3.00122 -1.0901
403 1 13.7153 0.721337 23.1957 -0.0401838 2.53736 1.22219
404 1 -15.316 -2.76301 2.20614 0.521555 -1.50788 3.27984
405 1 6.48071 -23.3546 -6.75543 0.754697 0.317624 -0.55255
406 1 -8.23711 -20.4196 21.0285 -1.76269 2.29246 0.868199
407 1 0.241728 -8.82366 16.0057 -3.49746 -3.07909 -0.388392
408 1 -0.919137 -1.76159 -18.493 -1.43321 0.675893 -0.0266877
409 1 1.35504 3.48625 -8.22539 0.0612272 -3.76264 -2.73113
410 1 -15.4142 12.1093 0.889441 4.09447 1.54807 2.71502
411 1 -2.35851 -3.24898 -8.24171 0.467432 1.59771 2.41779
412 1 -17.8085 -6.51779 5.73814 3.82482 -1.20702 -2.76914
413 1 -22.3352 25.0952 1.32132 0.470432 3.59489 -0.992085
414 1 4.53994 17.8446 -15.2157 -3.74804 5.63368 -5.2867
415 1 -18.8118 5.9868 -9.65276 2.18165 4.58723 0.151084
416 1 22.229 1.73036 12.4821 -0.145656 2.37397 0.288947
417 1 -14.7389 1.48629 12.4109 0.852103 -2.83982 -3.3462
418 1 22.518 19.6542 6.61323 -1.16427 0.903502 -3.35404
419 1 23.1213 3.982 22.8065 -0.727526 -4.28996 2.45525
420 1 -3.73691 -3.81071 14.4224 4.02828 -2.98206 -2.12619
421 1 -15.1724 -22.6971 -14.8873 -1.57569 -0.603434 0.00718875
422 1 -2.74399 14.9387 23.2993 -1.02501 4.87821 3.32972
423 1 -10.7007 3.20054 3.49172 2.01304 3.19971 -1.96266
424 1 3.4365 -6.08735 -1.3808 -2.47803 -1.80523 3.57612
425 1 -20.0164 14.6693 18.392 1.21255 -8.78429 -0.941116
426 1 -16.4369 -2.877 -9.13977 3.52886 5.25596 2.30279
427 1 -14.9769 -21.7378 20.0809 1.10581 2.5719 -4.1065
428 1 9.68424 11.9711 -5.09544 0.185331 1.02954 3.84544
429 1 -5.87929 9.44082 -13.0913 -4.14315 3.0438 -1.17434
430 1 -22.0331 -2.08548 -23.7817 6.42698 0.338358 3.5322
431 1 13.1353 -8.30937 -15.2169 -0.0917413 -2.5288 2.41772
432 1 6.76148 -4.81018 12.7721 -0.940877 0.609247 1.19241
433 1 -18.3768 2.2348 -18.4554 -1.01519 -5.65589 2.24386
434 1 -14.2003 -3.33775 -11.6235 3.02222 -3.62636 3.24201
435 1 3.89421 22.5208 6.56186 0.134773 -0.666746 4.59462
436 1 -14.4319 -13.9603 -10.9939 1.7822 -3.06359 -4.08549
437 1 18.8036 19.3017 -9.51509 5.12418 -0.482052 4.65295
438 1 -18.2019 4.05642 -4.81535 -2.55493 -4.07531 2.38016
439 1 -1.55176 23.2303 -2.03343 -0.4074 -1.45954 3.32819
440 1 -9.94487 13.0087 -14.3214 -4.26026 2.745 -0.883096
441 1 18.2657 1.40307 -4.61827 -2.2368 -1.78078 -4.13491
442 1 4.78134 4.04126 15.3221 -1.65844 0.221962 1.25993
443 1 20.5442 24.9825 16.6703 -2.7081 2.43099 -0.00964302
444 1 -23.414 6.8822 -17.708 -2.42357 1.26683 5.00629
445 1 20.4371 -10.0966 -10.9666 -1.53457 1.62385 2.95272
446 1 -23.8445 -14.265 -7.74176 0.656452 -0.364379 -0.126248
447 1 7.61177 20.0055 15.4351 -5.12587 0.306477 -4.08814
448 1 -17.4613 1.45514 13.7052 -2.13381 2.41738 3.03
449 1 13.0019 -3.99136 -1.93926 6.40622 1.5124 1.40284
450 1 16.7135 -19.812 7.05357 1.43491 1.05751 3.64958
451 1 -24.0133 -12.6951 -19.4643 4.08637 -0.436424 2.79248
452 1 23.7141 16.6531 0.119482 1.53237 -4.03718 1.31794
453 1 -17.1238 13.4237 8.13675 -4.32797 -3.52834 -1.28669
454 1 -4.03892 1.69164 -15.4403 0.87815 1.80158 1.30676
455 1 12.5007 -10.502 14.2182 1.77209 1.80455 -2.77393
456 1 -4.40891 14.9775 21.0115 1.60766 0.597583 3.5434
457 1 5.6737 19.8718 17.9597 -1.38325 0.0606081 3.20069
458 1 22.2847 22.0906 19.6299 -1.38878 -1.70235 -4.99969
459 1 -0.0204101 6.16871 -13.5325 -2.33499 -3.52694 -7.57381
460 1 3.03539 9.86954 -23.1356 0.245259 -1.07883 1.748
461 1 3.97795 -0.0811692 -22.3775 0.70153 0.496111 -0.0861956
462 1 -6.44654 -20.3122 18.9051 2.19591 7.90399 0.341484
463 1 6.44246 15.4914 11.6131 1.84853 5.25119 0.391766
464 1 -13.7479 -22.7769 7.65631 -0.319461 0.668245 -1.80838
465 1 -3.35319 -13.4692 3.16239 0.379879 -0.844795 -5.63628
466 1 13.1879 14.3409 -22.9115 -1.87561 1.40759 -3.9012
467 1 -5.49423 -9.3473 11.6331 2.97337 2.15586 1.49894
468 1 22.0596 16.0469 -9.84513 -1.4288 0.0196128 -0.699147
469 1 23.6805 -10.5046 13.0472 0.324507 0.789434 -2.41291
470 1 -20.4322 7.77893 -11.7139 -6.73102 1.12258 -2.21072
471 1 22.0151 -9.16295 -8.78935 3.24672 3.09539 2.38558
472 1 -13.1468 -4.57374 18.8687 -1.6757 -2.10355 0.807987
473 1 5.52324 13.1981 12.9059 -0.710925 -0.876025 -1.47219
474 1 4.84664 -5.58336 -11.9751 -0.55949 -0.901813 -0.276071
475 1 20.5684 10.4552 -18.6133 1.40371 -4.17959 -3.69183
476 1 -12.0729 -5.19092 -4.2391 -3.09559 -3.41046 -2.30958
477 1 -11.3199 -10.0099 -15.7954 0.0888779 1.2504 3.99378
478 1 2.16635 1.8853 -23.514 0.0234378 -3.12767 -2.62616
479 1 15.4461 -16.3694 13.4716 4.47986 -3.65463 -0.515523
480 1 1.48499 -9.81958 8.92774 1.01636 4.84387 -1.84146
481 1 -4.06425 8.35007 -19.9439 -3.39783 0.321367 2.70512
482 1 -22.7091 -2.85677 19.7156 5.73708 1.48154 3.6928
483 1 3.46328 -17.9307 2.6271 -0.487979 -1.75803 3.01869
484 1 -22.0411 -15.4047 -13.7941 4.08779 5.1334 -1.80691
485 1 19.9239 -22.9274 -18.1125 -3.03202 0.915743 -3.93125
486 1 15.7009 2.11566 -4.67202 -5.07482 -2.02659 -0.871848
487 1 2.73837 23.6653 17.3102 -2.7854 0.9135 2.29438
488 1 1.54852 -15.8377 20.0156 2.37673 -2.07732 2.31582
489 1 -12.2077 23.195 -13.1374 0.020892 1.773 0.314121
490 1 16.7516 -18.5704 -11.5034 -0.0343198 2.10787 2.15959
491 1 -19.7375 -12.8143 10.9694 -0.0634986 3.64502 0.270257
492 1 -14.5989 -16.9312 -12.6214 -1.5939 -0.269886 -4.54623
493 1 13.6208 -0.39524 -16.286 0.909011 2.00186 -0.398929
494 1 7.42548 2.97018 5.12492 1.23053 -2.05501 2.09819
495 1 -1.99653 -11.2539 -3.32384 4.90352 -1.10502 6.60158
496 1 4.30955 6.93392 -12.464 -1.92246 0.824576 -5.23535
497 1 10.8536 15.6606 -23.8971 0.88723 1.62354 -0.0471634
498 1 23.6139 1.86611 -23.7351 -0.53717 -2.97233 -0.826916
499 1 -23.7018 2.58991 -10.5372 -1.37123 4.83174 2.87006
500 1 -4.81958 -16.7337 9.18629 1.50987 0.910685 4.03756
501 1 -14.4859 -13.5878 -6.14648 2.0389 -0.171715 -2.27493
502 1 13.3792 -12.4205 18.5779 -4.4715 2.07427 -0.144427
503 1 8.46943 0.84187 -12.0748 -5.56973 0.715611 3.97422
504 1 -1.5278 4.73497 5.7884 1.94025 -0.968999 6.49913
505 1 -2.33414 7.18227 -22.1601 0.354138 0.974138 -3.48631
506 1 -0.752589 -19.457 -16.6278 -1.41707 0.339388 -5.03396
507 1 11.3421 20.4273 -16.4013 -4.68134 -3.67803 1.0062
508 1 -3.21935 23.4378 -11.3044 -1.22495 5.60409 4.35319
509 1 22.7368 14.6327 -19.4433 3.2991 -1.06418 0.318162
510 1 7.47654 -18.189 16.9038 -3.8483 0.253795 0.575215
511 1 9.1405 -13.8531 3.8741 -2.95701 -0.272467 -0.248574
512 1 2.83003 -3.76297 19.1015 2.16175 1.44385 -2.18706
513 1 -18.4149 -12.7814 17.2317 -4.78151 0.765774 3.41988
514 1 -14.0641 20.9012 21.1443 0.358825 -0.464649 -2.01351
515 1 -2.3643 5.58861 16.8624 -6.38115 2.75138 4.67895
516 1 9.68017 -23.4147 -1.5251 0.834238 -2.36399 -5.48277
517 1 -14.3395 -0.0875517 -21.7965 1.97873 1.68372 2.37566
518 1 23.1018 -20.7532 3.27175 0.560045 -0.656838 -0.86386
519 1 -20.0803 -12.8901 -10.3423 -3.76169 0.152478 -0.299435
520 1 -5.24188 -23.4394 -13.6408 -4.69392 4.44197 2.65113
521 1 -10.6242 23.482 -6.81309 0.449498 -5.05261 -2.36338
522 1 2.79425 -16.4461 6.52893 -4.83586 0.0764007 1.03185
523 1 -9.78048 -16.2577 -9.08 -1.49709 -2.30241 -0.136542
524 1 0.154528 -3.25635 19.7084 0.878294 2.68061 -1.35479
525 1 -8.42326 0.0600823 -3.44477 2.13632 1.87099 -0.0957879
526 1 -20.4336 14.3793 -4.2977 -1.12807 -0.917092 0.0434989
527 1 -3.54245 13.7554 -7.36427 0.654247 4.20991 1.70084
528 1 -14.4785 16.5593 -11.2326 -0.438138 -1.4445 0.846654
529 1 -9.50587 -12.1273 6.88055 -0.806999 6.52749 5.67376
530 1 -10.4071 2.27247 9.58699 2.89489 -3.80573 -2.13192
531 1 22.6934 -6.47312 11.9694 2.53499 -0.400235 2.9076
532 1 -9.00914 -2.65055 -2.68818 -0.642603 -3.28565 3.54922
533 1 -10.1118 -18.7895 12.6379 -6.64219 -1.28669 -1.32628
534 1 19.9522 7.71342 -10.294 2.60066 -4.00839 4.85375
535 1 5.13613 10.1957 10.5496 -3.21276 1.27521 0.595635
536 1 -1.15316 -6.13693 3.61932 -0.210196 4.74951 0.242442
537 1 8.23935 -6.04037 2.52657 1.45887 0.112875 2.47207
538 1 -20.9213 -7.56869 12.2718 -0.248995 -2.79047 -0.673643
539 1 17.2971 11.4169 -7.22673 -2.05417 -2.90515 4.03731
540 1 -13.2687 -10.9759 2.38782 0.494715 0.155292 -0.901374
541 1 -12.8612 1.20229 15.0659 0.361774 2.92924 0.174434
542 1 -24.0737 4.96795 -8.79048 0.769577 -4.01166 0.62661
543 1 20.7789 -18.8902 -16.1723 0.640959 2.03372 -0.944841
544 1 -5.79944 -19.3704 -19.5044 1.10389 3.83583 -0.155568
545 1 23.0093 -15.0304 13.6391 1.20566 -1.27047 -2.4328
546 1 -6.43084 -16.349 -16.7702 -0.937108 -2.97723 1.46346
547 1 16.0308 -15.7287 -22.4293 -0.129237 4.95927 2.03637
548 1 8.71841 1.68398 18.5578 0.590168 -0.264633 3.0485
549 1 -20.6756 -3.75079 8.34294 -8.93589 6.16738 0.257334
550 1 0.94888 -20.1454 -14.2517 2.68544 0.71663 1.71813
551 1 7.57809 7.1225 -17.2624 -0.494007 3.26082 -0.581861
552 1 1.97965 -18.5736 -1.08815 0.327983 2.86188 -0.606807
553 1 -12.5732 6.59461 -0.757252 -0.464423 2.12155 0.9201
554 1 3.11034 18.0794 -19.8917 1.30643 -9.56959 -0.830621
555 1 -15.8423 -15.9139 -0.807676 1.64477 0.801584 -6.92459
556 1 -12.6565 16.9177 -2.87305 0.0371975 1.58064 0.864167
557 1 11.5987 -24.182 -9.87096 -2.68978 -5.13106 1.28997
558 1 -3.4488 -12.7771 16.6838 -1.17995 8.7868 2.12444
559 1 -8.55852 -20.617 6.74856 -3.25753 4.78682 4.44138
560 1 23.0698 -22.1807 -4.24478 2.10956 4.38224 -0.561592
561 1 7.23385 -22.7457 18.5637 2.96771 -0.511224 1.03613
562 1 7.12807 8.30946 -21.1496 3.91799 0.938047 2.53327
563 1 6.05336 -19.4628 6.04045 0.248144 2.48487 -5.12605
564 1 -8.35356 -19.3945 10.4558 -0.548421 -0.397489 -3.61743
565 1 13.0164 -20.2233 16.9809 3.40158 1.73731 0.177465
566 1 19.3805 15.9259 15.7486 0.0287059 -0.9789 0.921927
567 1 -19.5834 24.5078 -2.73597 3.41212 -0.535414 2.93302
568 1 4.8481 -5.6507 7.08398 -0.472329 -4.00804 -3.71986
569 1 -5.63203 21.7992 -15.6089 2.67808 1.47604 2.19158
570 1 -23.4263 12.4517 18.4798 0.438884 1.47192 0.0758185
571 1 0.70308 -13.2147 20.0448 2.07658 1.87254 1.84105
572 1 10.8972 -23.554 3.71571 -2.54377 0.208735 1.42999
573 1 17.9724 -5.63721 5.55312 2.35076 3.57442 2.99578
574 1 13.3569 -22.9181 -6.74012 -0.961787 3.94743 -1.38208
575 1 -16.5711 5.98108 -2.96671 -1.02546 2.17262 1.16421
576 1 19.7057 0.35463 17.3343 -1.10216 -0.814665 -3.43827
577 1 -7.26263 22.1092 0.210584 -4.39649 -2.95557 -5.01727
578 1 -22.9166 21.1422 -19.6576 0.111419 2.47638 1.41066
579 1 3.48033 -19.804 -13.266 -4.65415 -0.524634 -0.0863111
580 1 -6.0686 4.92608 -20.0376 -0.149169 -0.97215 3.39664
581 1 -15.0461 -9.14646 13.8326 -3.36629 0.654317 0.695287
582 1 -2.61091 -13.2807 -19.8643 -3.62126 -1.83862 -4.57031
583 1 -21.1694 22.6106 12.0666 -0.77978 1.38666 1.86329
584 1 14.5367 5.62324 -8.13936 0.0146281 -3.7056 4.00449
585 1 -7.44552 12.0051 15.3128 -1.18795 -1.44511 -3.57456
586 1 17.172 23.0633 -19.6066 3.0155 1.5479 -3.82118
587 1 -19.27 -24.3969 -10.0465 1.44821 -2.01663 -3.91023
588 1 -18.6467 22.767 6.23228 -2.81025 0.0660732 1.35293
589 1 -2.0559 3.97024 -0.961599 3.71622 -0.143147 -3.53795
590 1 -4.02563 17.7259 22.4538 -1.25747 -4.13568 -2.92793
591 1 19.4481 -18.4616 11.4413 -1.40972 4.0365 -2.18286
592 1 -14.9852 -12.9714 10.1267 -4.18042 -0.989915 -1.32036
593 1 -11.5844 -20.7894 17.0541 -1.53723 -4.54627 -3.32324
594 1 -20.7234 0.0834507 3.64712 2.25195 3.05861 0.992112
595 1 7.89974 -17.3581 -23.8068 3.91593 1.14514 0.159848
596 1 -12.3376 -20.3753 6.54168 0.216465 -1.71131 -0.232362
597 1 -23.882 -24.5142 -10.6129 -1.60288 1.40382 0.55219
598 1 16.3824 -13.3711 5.23993 -1.29563 -3.49547 -2.6528
599 1 10.2045 -14.7582 14.6865 -1.09865 2.55159 -4.28312
600 1 -21.4189 22.9416 15.0659 -1.16518 -0.907592 -1.29041
601 1 3.24771 -3.48874 21.8987 2.30263 -5.4035 2.5212
602 1 -8.60736 2.92491 22.1105 5.21148 1.07916 -3.43582
603 1 -5.41876 6.47546 -4.53306 1.90158 2.07851 2.09517
604 1 0.605009 23.5823 -23.6793 1.56956 3.98392 2.07226
605 1 -21.5229 -0.250727 20.6978 -0.636207 -4.12022 -0.942101
606 1 3.15331 -2.52521 -23.5432 -4.59055 -6.07852 -1.15371
607 1 -0.927459 -1.83431 17.0395 1.3674 -6.27536 -1.25792
608 1 3.38236 7.89765 -10.0733 -1.05622 -3.49433 1.22583
609 1 9.89253 -19.0714 20.1642 -3.58322 3.69924 -4.02261
610 1 14.0416 -4.25998 15.3909 -5.4845 -2.29351 0.127384
611 1 -4.25451 -9.35057 -7.68182 2.05827 -1.95856 -2.2629
612 1 -4.04364 13.8302 -13.2985 1.43862 -0.705605 0.228353
613 1 11.7575 9.24814 -20.5847 -4.71769 -4.76991 -0.832155
614 1 -17.3278 -10.2927 -4.40706 1.16419 2.64823 -1.24177
615 1 12.5112 -1.69342 20.0177 -7.25541 -4.00368 6.70695
616 1 17.5601 -1.08717 20.5128 1.1873 2.24486 0.0122915
617 1 -10.5028 22.8557 -17.0809 -6.2843 0.984738 1.36532
618 1 13.118 5.96656 9.80342 0.0168827 -0.354024 -1.23936
619 1 14.5665 1.74144 10.8968 2.36021 0.724284 -0.663668
620 1 20.8739 -13.9974 -9.18562 -3.81105 1.46051 2.7286
621 1 -7.10693 12.6115 -14.2193 1.48555 0.928965 0.101724
622 1 -21.0326 -10.2071 1.33152 -5.55231 1.47611 -0.0803013
623 1 22.8367 -13.8657 5.21414 0.98231 -0.877123 -3.79703
624 1 -6.82025 2.39013 -19.3105 0.446893 0.758698 -1.32811
625 1 -2.2543 -8.953 -5.34675 -1.42722 -2.2187 -1.62146
626 1 -2.49812 3.19761 -18.6762 1.52338 5.438 0.872425
627 1 19.3356 18.3882 13.9723 -0.720399 -2.76745 0.102654
628 1 -22.4426 -16.0535 0.798514 0.108214 -1.90499 2.76926
629 1 -5.99355 8.86006 -7.90856 0.512564 -0.676671 0.417207
630 1 -23.1345 22.4614 9.87903 4.20086 -1.8901 -4.16326
631 1 -4.81633 -18.5929 16.9924 1.60487 -2.35172 2.51188
632 1 -13.6361 -20.5133 3.85328 1.14794 -3.96762 -2.21345
633 1 7.56758 10.3834 24.0604 0.676725 -4.38682 -2.86884
634 1 -10.6925 -1.50577 16.4484 -4.2497 -1.78038 2.06662
635 1 8.78575 12.3517 -2.5506 -4.93099 -1.43895 -4.64063
636 1 -24.2194 2.02934 -16.8349 -6.34041 -0.716918 -1.57975
637 1 -11.0961 -23.0114 -23.7853 0.439486 2.77677 -0.660218
638 1 12.3228 17.233 -2.95294 2.82879 -1.57433 -0.291138
639 1 -10.5056 -18.5476 -23.4222 -2.48762 4.35182 1.79938
640 1 0.78867 -0.706203 4.2761 1.75258 1.80993 2.37005
641 1 -14.2499 18.0694 5.50543 0.506541 -1.97908 3.80979
642 1 -8.59189 -3.22235 3.1963 -0.315015 -1.59784 0.837645
643 1 10.4867 -18.7406 6.93392 -0.358397 2.87521 3.84347
644 1 -5.42132 11.3786 -4.43264 -0.950105 -3.028 -0.0167104
645 1 -9.5459 -6.92935 -19.1733 0.205457 3.58227 -0.366935
646 1 15.0389 24.7808 15.2871 1.35217 -1.11762 -2.24142
647 1 3.28084 2.56431 -4.66721 -1.81776 -2.18628 3.42012
648 1 19.4093 -15.3382 -23.5686 0.0830216 -3.54219 -2.93482
649 1 11.1507 -15.455 19.0043 3.96135 0.229243 4.25201
650 1 -9.14277 -2.43725 18.9047 0.527626 -1.08851 0.844529
651 1 -22.2098 3.4155 -14.8685 0.581019 -4.618 -0.33328
652 1 -8.33852 -4.48556 -18.3456 1.81402 0.868181 0.520294
653 1 -22.3438 -24.1384 -13.5486 -1.7551 1.49671 3.84534
654 1 -10.7062 -0.0315522 -20.494 -2.71165 -0.326403 0.291805
655 1 -3.88911 -11.2089 -13.0949 2.55555 -4.31367 -1.35973
656 1 0.445886 23.6793 -10.4719 2.01279 2.91511 -3.22993
657 1 -0.427035 -4.69665 -13.2978 2.53774 0.744962 -3.11016
658 1 20.7788 14.5981 13.4576 -0.181219 -2.11177 2.258
659 1 4.51089 1.13333 20.2795 -4.11635 3.04402 -3.5285
660 1 9.46918 4.2204 7.29343 1.90266 -3.60255 1.49802
661 1 -16.7068 -7.00455 -18.4244 0.0116332 -0.443262 1.80932
662 1 2.98051 -5.49857 9.67209 -2.30322 4.13648 -2.20498
663 1 -12.6241 -18.9923 -8.2575 -4.11544 -1.17531 -3.09811
664 1 -14.0806 -20.0077 12.4792 3.35614 -1.0583 -0.545633
665 1 -0.466379 -7.49364 20.0291 -0.643546 1.58682 -2.78328
666 1 -9.15408 -7.48894 -11.5466 -3.2795 -5.42657 -2.84246
667 1 -22.5506 -18.1016 22.5344 -3.30177 1.315 -2.91546
668 1 -9.28634 14.0415 16.6521 0.6508 8.69562 -0.483038
669 1 7.63566 -15.7626 13.5666 -2.89746 2.94463 2.63206
670 1 0.780021 -14.5754 -2.17019 2.442 -1.31071 -1.26353
671 1 21.7048 15.9784 3.9316 1.54726 -1.83294 5.45484
672 1 -24.638 5.18578 -11.6756 -0.964864 -2.37822 0.028722
673 1 -1.3303 17.4413 -22.0477 -5.46643 0.740756 0.716996
674 1 -7.81824 -0.108745 -21.2044 -2.55575 1.63035 -2.4269
675 1 -23.0691 -10.7783 -7.55087 -3.93019 -2.77349 3.30981
676 1 6.71588 2.87122 16.9752 -5.8938 -1.87265 -0.246867
677 1 -22.4858 -11.5062 -10.2125 1.12707 -1.69466 3.17081
678 1 -20.4758 -6.26104 1.533 2.07766 0.621036 0.882448
679 1 -20.8748 2.78901 -9.69171 0.47527 -0.69664 2.03044
680 1 9.21099 20.9162 -8.87694 -4.34782 -1.21015 -3.2651
681 1 -0.882466 0.787867 -9.03059 -2.4773 -3.67234 1.03118
682 1 -3.76796 16.1359 -9.12133 1.89571 3.43963 6.59179
683 1 0.840273 10.7695 -19.4599 2.80803 -2.89121 -0.0904749
684 1 11.8739 -21.5275 -10.0147 -5.99868 -1.98718 -3.2565
685 1 20.1532 1.43643 8.66185 3.77017 -4.76621 -0.484124
686 1 -16.0042 -0.761034 16.1475 -0.944195 -1.20086 -4.8751
687 1 -14.6228 7.29783 9.44175 -0.693974 1.7383 -1.1385
688 1 -11.1555 -10.9516 -12.7597 3.42256 0.634051 1.12457
689 1 -1.83794 -2.39388 -3.78583 -0.268828 2.96488 3.80996
690 1 -0.115673 23.476 -4.79843 2.04708 -0.825337 -2.51725
691 1 -1.00763 6.73217 14.5448 0.691008 -8.32053 -1.51841
692 1 -9.45932 -6.92858 2.31136 -3.0413 -1.25292 -1.86806
693 1 -8.38955 22.7944 2.48619 -2.83416 0.695473 -2.74596
694 1 10.2563 -18.2419 1.13862 -3.27767 -7.66419 0.0406728
695 1 7.90095 -10.7706 -7.89461 -0.000615103 0.113679 -2.90401
696 1 -6.57308 -21.3018 8.84271 2.49165 -0.43075 -0.74238
697 1 -21.7311 16.6838 -19.6578 2.22749 0.871171 3.85222
698 1 22.1969 -11.4693 -5.31589 1.75936 1.68465 1.19584
699 1 -15.5937 -11.178 15.8118 -1.13623 -6.18211 1.73876
700 1 1.26605 6.1445 -24.327 0.501656 1.871 -1.32538
701 1 17.4771 0.536157 8.57801 3.79713 1.06128 0.975469
702 1 -16.1201 -1.14482 13.2813 1.71977 4.58188 -4.33745
703 1 6.8962 24.3631 -21.2019 -4.13518 -1.8284 -2.10517
704 1 -9.89824 -10.0681 12.1223 -2.07663 2.2058 1.76844
705 1 6.37041 20.9626 -16.0765 5.02741 1.30361 1.05492
706 1 5.78328 3.50143 19.6867 0.779872 5.84905 4.05725
707 1 -17.8444 0.962719 22.7112 -1.35036 -3.15273 -0.482552
708 1 11.833 -5.83306 -17.4675 5.72698 2.4244 -0.846365
709 1 -10.0454 -4.19919 -9.71678 6.1927 -2.37029 1.78387
710 1 -3.07472 -8.01354 12.8086 0.39413 3.97554 -0.689683
711 1 -12.5584 -6.59791 -15.7409 0.960622 -7.13662 1.54581
712 1 3.86575 -8.36246 13.648 2.88804 -2.46356 3.82134
713 1 1.96785 4.26265 1.93209 -2.29698 -0.585706 0.394872
714 1 19.8387 -7.66901 -12.2001 -1.83308 -4.03791 1.52965
715 1 3.39267 16.789 8.90281 1.84306 -4.07745 1.22716
716 1 -0.805269 -20.6039 9.38204 0.0794866 1.07573 -6.75582
717 1 -12.3203 -4.5774 -13.6638 1.21081 -2.62005 3.89724
718 1 -11.5736 -5.87669 3.94663 1.27376 -0.118328 0.599191
719 1 13.5998 -7.3385 10.3609 0.857269 -3.49001 -2.95803
720 1 5.09761 -3.76013 -19.7208 2.43758 -2.45124 0.764929
721 1 -8.35339 -9.82877 -15.2379 0.371427 -1.25537 -0.0988436
722 1 8.46626 -21.5601 -13.0112 -6.60856 -0.258472 1.00556
723 1 -22.7856 12.898 -5.87822 -4.66965 -0.136533 7.26415
724 1 -8.81064 23.1468 -9.16848 -8.01359 -3.49924 -0.923607
725 1 2.14333 18.7839 23.8577 0.389374 -3.68593 2.9001
726 1 -4.25773 -7.14716 22.5 -1.80312 -0.293078 -4.96301
727 1 6.20006 -3.86121 -13.9969 1.93013 1.29032 -4.61499
728 1 -12.6536 15.6713 -9.07656 -2.89279 -2.38669 2.16632
729 1 -14.131 14.8203 16.1117 3.13946 -2.303 2.54083
730 1 15.4704 -20.5887 -18.3875 0.738337 -0.580719 -0.98601
731 1 -12.1899 12.3375 -23.0482 -3.17406 -1.51691 4.08607
732 1 10.3981 -23.904 -7.25549 -2.21842 -0.817097 1.27655
733 1 -14.4417 -17.9436 5.2644 1.80246 2.18691 -0.522743
734 1 -18.9228 24.5937 19.3516 4.20549 1.44267 -5.26866
735 1 16.3655 8.58812 9.70845 0.48108 -0.732055 2.04565
736 1 4.85963 20.2998 -7.37175 -2.97443 -0.198952 2.67171
737 1 20.9229 -14.2599 7.25231 1.70371 -5.24346 -0.237295
738 1 -9.11733 6.24424 15.8216 -0.998197 0.075855 -1.29446
739 1 -17.9252 -21.143 3.64934 0.617641 -6.14398 1.55983
740 1 17.09 11.9678 20.5382 0.301128 3.05843 -3.94318
741 1 -16.6967 -21.0958 -10.6446 1.53817 -2.89727 -0.299043
742 1 -7.37359 -23.7981 22.8623 -4.72335 0.871732 -1.20091
743 1 -24.184 21.8583 2.25923 1.98872 0.940718 0.521771
744 1 9.72176 -12.5253 -11.8014 1.06644 4.13703 -1.12055
745 1 -22.056 3.63205 20.2691 2.97973 2.6271 0.986896
746 1 -16.6539 -7.37159 23.2551 2.74409 2.38266 -7.81349
747 1 11.8612 -10.9035 2.68362 5.24357 -2.65434 -3.26045
748 1 -13.1118 -20.3842 21.7642 5.16577 1.37208 -1.10075
749 1 -0.414535 12.1388 7.48464 0.805019 0.584059 -2.76983
750 1 17.1926 -6.45541 -12.135 0.578088 0.950889 -2.2515
751 1 -19.2184 11.6371 -13.5984 2.68858 3.56054 1.46111
752 1 22.9193 -19.5823 5.96593 -0.911448 -2.49461 0.153557
753 1 -18.1231 -16.4189 22.001 0.307327 -4.98961 2.64129
754 1 -14.419 22.3813 15.2505 5.06931 -1.10183 -1.44694
755 1 10.0489 11.7352 -20.526 4.1287 -3.80087 4.4735
756 1 -5.99361 -5.85912 -2.72412 -0.700003 5.19377 -1.28698
757 1 -18.0094 12.9286 -5.23768 -0.301789 -0.948568 2.13694
758 1 -15.0694 -17.0351 20.0127 5.572 3.35048 0.285799
759 1 0.322225 13.5278 -11.9558 4.13405 -0.85015 -5.49448
760 1 1.18154 5.21297 13.6565 -3.36416 0.204477 -2.55523
761 1 -9.68475 -14.3984 -6.8462 -4.315 0.561634 1.41555
762 1 4.85748 18.1247 22.5923 0.105125 1.6669 7.09918
763 1 15.972 5.62145 9.22141 -0.967731 -1.69194 0.663818
764 1 20.4272 5.96563 7.73966 -4.23246 2.46438 -3.08732
765 1 21.4553 13.1106 11.1489 1.31281 -1.86397 2.23061
766 1 -9.79739 18.2786 -16.3155 -1.81629 -0.507278 0.881288
767 1 -3.04286 -12.7929 -0.943809 -2.32515 -5.41388 6.76677
768 1 -8.4872 9.71662 8.22411 -3.10333 5.25735 1.09934
769 1 14.2001 26.252 19.3286 -0.0274088 1.79581 0.984367
770 1 -4.8523 21.6122 -24.2023 -0.809135 -1.01287 2.04996
771 1 9.20531 -16.0375 11.0898 2.65442 -5.70917 4.71258
772 1 5.54631 6.67876 5.86358 -0.877905 -2.92866 8.21511
773 1 10.6943 -19.402 11.5861 2.49575 3.69153 -1.5731
774 1 16.4486 18.9458 13.8696 0.427619 -3.09542 0.73901
775 1 22.551 -20.9896 -11.3327 1.69054 1.31092 1.28807
776 1 8.26999 -0.103078 23.3535 -1.86935 0.216071 0.636377
777 1 23.1407 -11.7767 -11.1381 0.702598 5.05323 4.57717
778 1 1.90165 -18.0844 -16.6209 -0.150416 -2.18822 -4.69426
779 1 4.91733 4.13513 -8.19308 1.62535 5.59918 2.18954
780 1 -5.26756 -11.4959 -20.0348 -5.72532 2.49907 -3.02074
781 1 -20.2899 2.25352 7.62105 1.75304 3.19369 -0.143279
782 1 20.4796 -7.95998 -15.0669 -3.37871 0.639835 -6.11872
783 1 4.98594 -15.482 22.304 4.35532 -5.77291 0.482118
784 1 13.0422 12.997 -3.27798 -1.41875 -1.3803 -1.55741
785 1 -2.11043 20.0998 21.1779 2.2929 -0.808433 0.40465
786 1 -21.9028 21.7573 20.7882 3.76693 0.049253 -0.491048
787 1 8.6843 15.1909 -11.6011 -3.67361 0.614238 1.47105
788 1 -19.2238 6.43132 8.56758 3.16383 5.52415 1.67331
789 1 -13.9941 19.7022 0.87697 -4.18602 -0.168674 -3.64601
790 1 2.99897 1.78265 15.4192 -1.75782 -4.01754 -1.47586
791 1 -4.05622 21.0663 15.0687 0.297409 -4.12284 0.59829
792 1 -23.4407 14.9626 -7.74482 -2.91054 -7.49153 1.45731
793 1 -23.9151 -10.556 1.97034 -2.24978 -2.04949 1.90597
794 1 5.8712 16.4279 -22.7179 1.78787 1.94563 2.32183
795 1 19.1367 -6.69485 21.6726 4.8662 5.64749 -0.288219
796 1 -11.4099 -14.814 -14.7922 2.13998 -7.1177 -1.853
797 1 -19.0326 -13.838 13.5046 1.01752 -3.01999 -1.80965
798 1 -16.3041 1.91514 -8.46974 -2.28019 1.89941 0.506122
799 1 -12.2782 19.5714 -1.56019 -0.68013 -3.01472 -1.50618
800 1 -17.9112 -9.7514 16.8361 -6.93682 6.95953 0.136582
801 1 20.8339 15.3799 -1.67603 -3.38373 4.8605 1.8467
802 1 -19.1035 -18.5192 15.5292 1.38678 2.07438 -2.80507
803 1 18.3828 -10.1809 -8.98295 5.19188 2.79218 1.54237
804 1 9.2733 -21.4935 -8.47608 -1.48483 3.28633 2.06794
805 1 10.4407 24.2592 23.4489 1.83411 -2.54051 -2.24783
806 1 -1.29972 -12.4928 11.9205 -6.07621 -1.27145 2.86871
807 1 16.8973 21.5895 -22.1608 -0.588611 0.396555 -2.858
808 1 0.0977976 -19.209 -11.5603 -1.12757 -2.07354 -0.799103
809 1 -5.69696 23.3383 -18.358 -1.32652 0.522972 3.04723
810 1 -20.9929 -16.6508 -5.41003 2.84286 -1.32487 0.140029
811 1 -15.9356 -7.32856 -6.31695 2.48243 -4.38404 -1.76382
812 1 3.83357 -12.3653 -9.84842 0.556458 -1.70168 -2.21947
813 1 -13.9825 24.3364 -18.5649 -0.574373 0.890122 1.71352
814 1 -21.3345 -1.42347 -1.38232 -2.58666 1.64122 1.49297
815 1 -21.521 11.582 -17.0824 0.924804 2.93844 1.35777
816 1 18.6938 -16.6019 18.3685 -1.63229 -0.363075 -1.74976
817 1 6.63772 -11.9635 16.5913 -1.41495 2.56195 -4.48909
818 1 -11.1779 7.03417 20.1925 -6.51827 6.04346 -3.34711
819 1 9.58261 12.7721 19.9879 1.10191 -3.99265 3.40976
820 1 2.74307 13.9433 9.17467 -5.77852 -0.727255 -1.13731
821 1 -22.8668 -22.7156 -23.4826 -3.86807 -1.46025 10.0848
822 1 19.9505 -14.1144 16.8971 0.711887 1.00649 0.1531
823 1 6.95334 -10.94 3.53125 0.893308 -0.873647 0.926365
824 1 4.74875 -19.5432 -7.57216 5.55963 -3.58273 -1.34914
825 1 -24.0926 4.66585 4.12089 0.8381 2.03258 0.0946911
826 1 -12.6252 7.40075 -6.28738 -0.989084 0.669714 0.758681
827 1 -3.20209 0.759021 4.78059 -1.16852 -0.563281 1.98516
828 1 -7.14008 -17.8934 12.7652 3.32823 0.0725002 -1.35078
829 1 19.0178 14.5239 20.4836 -8.95289 0.298415 -2.14368
830 1 -9.6276 -11.2299 20.9756 1.93659 1.42935 -4.33209
831 1 1.97074 -14.5448 -23.8989 -0.929485 3.58471 -3.76896
832 1 -6.76865 -3.83435 11.5562 3.13301 4.32388 1.71087
833 1 -13.8395 -4.31602 -8.08621 -1.13636 -2.67479 1.3673
834 1 0.358551 11.6549 -0.920968 0.526984 0.011612 -3.18278
835 1 2.01068 5.98159 -21.2187 -2.53987 -3.81899 -4.56425
836 1 4.69908 -12.7155 22.1035 5.42949 1.47953 -3.04311
837 1 -19.0019 -18.8902 -6.39384 -3.14566 0.319042 2.91425
838 1 -23.3728 -18.3839 2.71346 0.200478 -0.238857 4.20984
839 1 -20.8608 19.6398 -9.83229 2.63734 0.491277 0.410501
840 1 4.36912 -16.2105 11.4571 1.0763 5.49687 -2.24606
841 1 19.8696 4.05545 9.59311 0.318705 2.11081 3.19397
842 1 -6.22303 -20.9904 -3.15772 4.52263 1.32388 -1.06557
843 1 18.5153 -5.6636 18.8214 2.83009 -0.515886 -2.46436
844 1 17.9859 -17.9243 -22.7069 1.88045 3.12915 -2.18893
845 1 19.9798 6.70134 -1.87404 -0.00915618 2.86993 -0.711542
846 1 8.9189 7.83874 -11.9668 4.6037 3.75932 -2.49148
847 1 -13.2023 -24.7737 -14.1615 0.703762 -1.004 -0.443203
848 1 -5.12938 16.5182 -13.0018 2.58427 1.5257 2.34459
849 1 23.8974 -14.1786 -12.4795 0.280681 4.23145 -0.935392
850 1 17.2272 -19.8065 23.2603 1.62798 -0.893362 2.17839
851 1 -22.9218 15.5386 -13.5678 5.56588 2.02037 -2.50507
852 1 11.5564 -1.79984 -1.84068 -0.163385 1.57346 -0.721646
853 1 12.8135 9.68765 -15.6164 3.50909 0.816118 8.79847
854 1 -22.7586 -13.399 4.89142 3.5339 2.24344 -3.08901
855 1 -16.675 22.1717 -20.1825 -1.23229 -2.40163 0.885493
856 1 -21.3404 -3.67094 -7.6417 0.13363 0.339265 -2.13299
857 1 -23.3103 -5.30324 8.71774 2.34293 2.20296 -1.62507
858 1 16.8411 -11.7315 15.2333 -0.0740347 3.10807 -0.51429
859 1 -14.3988 -8.44834 1.45325 -1.27534 1.63596 1.37851
860 1 12.3557 -11.1461 -15.0785 -0.44881 1.55962 4.37372
861 1 -23.6226 19.4275 -13.5709 1.09224 -0.474029 -4.71867
862 1 0.499705 15.359 -9.45643 2.16442 4.05452 1.81049
863 1 18.5643 -15.1633 5.91025 -1.95204 1.88459 -3.97833
864 1 -15.2506 3.30648 19.6853 1.56384 1.16949 0.987908
865 1 -0.185913 -21.0835 12.1606 3.97145 -0.910071 -1.97864
866 1 13.5609 -3.12095 22.2642 -0.534081 5.05312 0.00660265
867 1 -3.23152 10.597 21.8023 -1.02614 5.56222 3.67508
868 1 0.949621 17.0147 -5.24264 -3.95603 -3.72332 3.58354
869 1 -0.429024 18.4115 3.99032 4.67183 -1.61419 -2.59
870 1 15.5161 20.6944 19.2788 6.65007 0.13658 -1.93071
871 1 4.92517 8.38654 -17.2248 1.62883 0.333386 -0.607623
872 1 -2.72432 -8.16468 -21.1329 1.75626 -4.60106 -4.30104
873 1 -4.38242 -1.17167 -22.5833 -1.79767 3.57652 2.66518
874 1 12.842 1.40688 0.773046 0.796816 3.67394 0.637677
875 1 20.2109 16.051 10.7918 2.83351 0.827738 -0.979475
876 1 14.4969 -15.6567 -8.64451 -1.17598 6.47397 0.678085
877 1 1.46658 -19.2732 17.8845 -1.11791 2.33173 1.62193
878 1 6.29705 12.5783 -22.5338 4.2453 -0.997918 2.56507
879 1 15.4024 5.42509 -17.7984 -1.99271 -3.82891 -3.77703
880 1 4.1822 14.1868 21.2024 -1.61491 -2.01943 1.76983
881 1 -2.3769 -4.95464 20.0983 -0.90308 -1.13943 -1.70777
882 1 -11.8194 -2.73188 -2.89819 2.45779 1.29419 0.278112
883 1 16.6929 18.3762 -7.779 -1.30823 2.37187 2.56888
884 1 17.9576 -19.3105 -15.02 1.39458 -5.49116 -2.02622
885 1 -4.53882 -19.1558 -4.68996 -1.96521 4.00089 1.18323
886 1 -5.80854 22.892 3.4369 -1.97516 -0.972522 1.09309
887 1 10.0354 -23.1519 18.9487 -1.0575 -2.94429 2.77528
888 1 -9.03024 10.3442 -17.3322 -0.690247 5.41084 -0.161215
889 1 -16.0204 -4.58662 15.7832 -3.07714 -4.3555 -0.218602
890 1 11.9808 -17.6039 13.8563 -5.9803 -1.70951 1.73916
891 1 -23.8209 -3.59497 6.14835 0.194773 -0.322932 0.567671
892 1 4.87938 -10.0962 -4.51977 -1.95051 1.00691 -1.80326
893 1 21.0806 -4.0885 1.77315 -0.0438491 -1.53183 1.03481
894 1 -0.268231 10.31 21.5948 -2.23558 1.15947 -1.18703
895 1 1.773 -23.2766 5.83991 -0.43133 -3.09256 2.18161
896 1 10.2439 -3.52252 20.3755 -3.98351 -0.486111 -1.24533
897 1 -12.372 -24.4299 9.72972 0.172163 6.4892 -2.80138
898 1 16.6961 1.02667 -24.0243 2.7449 3.46253 1.92332
899 1 14.7062 -18.6115 15.2641 2.25473 4.13841 5.70485
900 1 -14.3722 -15.1721 -14.797 4.80192 -2.19645 -1.15202
901 1 4.39815 -20.2586 8.22456 3.93469 -1.29155 -1.78919
902 1 -7.062 16.8411 -1.24161 3.26079 6.05328 -2.6124
903 1 -5.75441 23.8289 -21.1181 -2.51928 0.988251 -1.83703
904 1 -11.0793 -7.54665 -7.49186 -1.65641 -5.23371 -0.109043
905 1 22.17 -7.68048 -23.3787 0.650826 -1.58528 -0.0926823
906 1 -6.07652 -24.4378 17.266 -0.574288 -1.49324 3.46999
907 1 -13.9837 2.63775 -10.5689 -1.08085 0.766368 -3.28227
908 1 -8.78048 -15.6027 12.0363 -1.6148 0.338744 -2.96042
909 1 15.676 -20.5576 11.1775 3.47733 -2.08793 3.73016
910 1 -9.55965 5.38223 -4.65195 -3.30812 -1.19801 1.52482
911 1 -1.49838 12.2481 23.7118 0.664069 0.135628 0.0487504
912 1 -16.267 22.4729 -10.078 2.00053 0.378062 -1.89677
913 1 -4.28809 22.9553 17.0295 1.59527 1.69415 2.95526
914 1 -23.1087 15.8502 10.7358 5.20317 1.92094 3.90368
915 1 15.4957 -8.33227 -13.811 1.5239 -1.63961 -4.9364
916 1 -16.5087 -14.7253 20.1637 1.28043 -1.99058 0.331259
917 1 23.0053 3.73438 -21.4216 2.57349 -2.33303 0.654991
918 1 -5.57278 7.86982 0.874032 4.90104 6.33549 -4.48506
919 1 -10.134 16.8246 10.6402 1.20813 5.10864 -3.06035
920 1 -0.283899 15.1114 -20.8151 -2.71236 6.3752 -0.442157
921 1 9.41447 -9.61591 -19.8391 -0.0643603 -0.0534826 4.06477
922 1 -11.9105 2.69492 -20.2181 -2.44143 -2.95091 -4.30963
923 1 3.05977 -12.0528 1.20985 -4.1169 6.80284 1.50337
924 1 -6.83776 15.7092 5.42185 1.09078 8.15078 2.66497
925 1 1.30131 12.1804 -3.58905 4.54835 -1.58577 3.87617
926 1 1.33179 -13.958 7.75496 -3.61179 -3.48801 2.74294
927 1 5.97154 12.9949 18.9759 1.50643 2.88721 -2.80677
928 1 7.90772 -18.7281 10.7361 1.13829 2.12476 -5.40245
929 1 -8.40093 -13.3354 -4.19995 2.42461 3.46605 2.35886
930 1 -18.7528 -21.0942 -14.1112 0.134914 2.58049 1.52621
931 1 17.5293 -1.59867 -7.34957 1.87497 -3.83324 2.29372
932 1 -19.2362 16.1722 14.8942 2.29221 2.88281 4.28036
933 1 -19.1086 -21.4799 -23.8617 0.195535 -0.538297 -4.09287
934 1 -3.63548 16.7443 -20.6475 -2.21978 0.416164 -2.76925
935 1 22.7221 -11.9688 -2.26585 -0.751672 -5.28842 -5.88163
936 1 8.49968 12.8691 13.2128 -0.444215 -2.01188 -1.14625
937 1 1.85 12.2988 21.2743 -3.04837 0.792321 1.99174
938 1 19.6145 8.20126 5.94318 -1.17387 2.95485 4.89882
939 1 -8.25892 -12.6646 -16.5453 -0.644679 1.33907 3.67519
940 1 21.0613 0.973222 -9.02795 3.67215 -1.01045 -5.28978
941 1 -21.1305 22.3118 7.77362 2.89511 0.557081 -0.330112
942 1 -6.68432 -16.6322 -20.0743 -0.800182 4.02202 1.77627
943 1 18.1063 -4.0771 1.25824 -0.949458 1.97047 -4.42491
944 1 -15.5502 -2.92534 23.1489 0.313889 0.00940306 0.305107
945 1 5.31895 -23.9353 16.7759 0.871295 -5.7777 7.68828
946 1 -15.0121 -7.83052 5.71819 -4.59369 2.37734 -0.168018
947 1 -8.87809 17.9208 19.7494 0.544126 3.66333 0.450319
948 1 -21.4559 4.75193 -7.44264 -2.21784 4.02553 1.99627
949 1 -3.31706 12.6778 19.6284 -0.176302 1.18234 -6.29256
950 1 -21.3484 6.56052 12.2377 -0.314525 -0.931227 -2.11547
951 1 -9.28634 -24.3271 -15.045 1.98653 0.0123723 -0.553553
952 1 12.1211 -14.5558 -9.71465 -2.27062 1.79658 -3.4232
953 1 16.407 -1.9179 2.55926 -1.42725 -0.713854 -1.9298
954 1 14.9436 8.05161 -10.5674 1.95782 -1.66397 -2.0074
955 1 -11.4583 18.8914 -18.8962 0.400462 0.793199 4.47634
956 1 -13.1666 -8.16327 -9.48502 -0.429081 -0.720304 3.71505
957 1 -6.06744 -2.18783 15.2793 -1.4428 -0.446287 7.45794
958 1 1.60789 12.1801 18.3762 0.944206 1.29833 -3.95783
959 1 -14.6647 -16.8248 -23.0117 3.3656 3.33134 0.924958
960 1 -2.60953 -22.4055 4.45429 6.69927 -1.43218 1.32035
961 1 -5.14629 12.8661 -0.297471 -1.074 -1.88512 -2.82624
962 1 -5.22514 6.00837 -7.31358 -3.29659 -0.454638 3.75434
963 1 -16.3663 24.3446 -13.1905 -0.836409 -3.41383 3.24301
964 1 12.038 -16.4975 -22.6695 -2.74161 1.30282 -6.00107
965 1 -13.0186 12.8924 6.41559 -0.871817 1.51057 -2.0229
966 1 -18.2499 -7.09191 12.8176 0.198587 -0.0972938 -1.04789
967 1 20.3469 -5.05239 -15.2073 -2.64194 -3.64156 3.8994
968 1 -2.15675 24.565 -14.8383 -2.56217 0.965617 -6.65226
969 1 16.1296 -23.1004 4.12141 3.41357 0.459373 1.91424
970 1 -4.05097 -22.9891 -9.0278 -2.71185 1.34908 4.01417
971 1 15.2294 -5.45744 21.6244 -1.43611 4.85993 -1.66225
972 1 -7.2826 -19.4606 -0.788698 -1.11271 3.83087 3.12621
973 1 -11.4617 -4.15349 16.7531 4.90709 -0.709972 -1.1278
974 1 -0.87695 22.857 -12.9017 -6.16947 -5.66004 2.42873
975 1 -11.3838 -10.3565 4.80198 2.32637 0.87292 0.220889
976 1 -19.7731 -6.5642 9.44071 1.70672 2.29794 2.07282
977 1 4.05204 -22.8998 12.7303 3.2143 2.26228 -0.514039
978 1 4.41435 12.9297 23.7186 2.55021 -2.09848 4.19139
979 1 6.03396 23.5478 -18.7127 1.69253 -1.62995 -0.48275
980 1 5.4296 20.3164 11.4672 -0.668729 3.51205 -3.90562
981 1 4.51781 -3.31327 -5.4343 0.64666 -2.1468 -5.2543
982 1 -5.10197 -7.47253 4.24006 -4.20424 -1.55353 -2.5745
983 1 -21.2248 7.22475 17.783 0.72573 -2.57211 0.862126
984 1 -14.8376 17.3514 -4.90856 1.12078 -1.48895 5.18831
985 1 -17.6803 18.9729 11.9067 -2.43276 -1.03898 2.46439
986 1 -1.30856 4.28176 10.204 -0.0207252 2.10436 3.93057
987 1 -22.7363 -16.5152 11.8667 -0.331104 -1.61272 -3.59178
988 1 -9.65701 -24.2853 8.88688 -4.13151 0.261876 0.0233765
989 1 5.42469 2.07927 -6.34605 0.208957 -2.54153 0.638694
990 1 12.2937 -7.66945 13.6027 -5.93847 3.82666 -0.318254
991 1 -7.42587 -8.42878 7.08974 1.488 0.870206 -2.83457
992 1 -21.5262 10.2916 2.71996 2.30955 0.454291 4.12281
993 1 -22.0306 0.838818 -23.5284 -1.9809 0.197427 1.41854
994 1 21.8099 -15.9222 18.1617 2.8655 -2.63104 0.72296
995 1 8.7717 1.51696 0.130827 -3.16328 -1.61725 -3.9442
996 1 19.3224 13.0053 -15.7095 -0.534395 3.52708 2.39572
997 1 -22.3594 23.7524 23.7378 -5.67133 -1.12735 -0.547332
998 1 -2.90007 10.7526 10.8513 1.06602 1.8904 -1.17499
999 1 -21.3252 9.82413 7.60638 -0.724665 -0.257851 -1.17455
1000 1 16.8264 16.0651 -9.83824 0.0907435 2.13884 -1.90986
1001 1 -21.3212 -4.43387 -4.84677 -1.54375 0.353573 0.882374
1002 1 -13.7267 -16.0611 3.14046 -3.90176 4.14295 -3.84221
1003 1 10.5513 -12.7015 10.7814 -2.55032 -1.47382 -3.57917
1004 1 23.0857 23.8464 8.97661 1.16768 -4.73451 -0.805367
1005 1 -15.1994 17.2017 1.24528 3.37874 -2.75244 -0.0247694
1006 1 -22.296 9.81294 18.1002 -4.5583 -2.50881 1.15157
1007 1 12.3439 0.49603 17.9173 1.55689 1.22293 0.42837
1008 1 4.23776 -3.03154 15.578 -0.732909 -1.41185 -6.12563
1009 1 9.18882 -16.2408 5.31671 1.66242 3.932 -3.03732
1010 1 -11.4862 2.66474 -9.4445 -6.39627 2.41718 -2.00947
1011 1 -18.5824 0.714346 1.21847 -1.2692 -0.262032 4.01895
1012 1 -0.149907 2.08394 -1.75738 -0.624241 4.24031 1.06409
1013 1 2.20859 -15.3405 3.58538 4.06451 -0.494999 0.800047
1014 1 -21.8147 -22.1098 2.69741 3.12745 0.641763 1.41261
1015 1 -1.34722 4.52078 -22.1438 -0.297376 -2.52213 2.50518
1016 1 -22.8406 3.28243 6.70562 0.433057 -1.33051 3.11432
1017 1 -8.00875 3.58028 12.0529 0.678114 -0.154045 2.96141
1018 1 -21.4171 -20.2844 5.74375 2.21242 3.65304 3.34996
1019 1 7.79243 16.7938 1.69868 -2.67849 -2.73893 -4.05131
1020 1 -18.7212 -24.4121 10.5809 0.906737 0.101564 -1.43601
1021 1 20.1652 -18.707 -4.28303 6.9738 5.25792 1.3083
1022 1 -8.1032 -21.7115 -10.3058 1.78723 -3.28955 1.07627
1023 1 11.1367 -0.455502 5.667 -0.23816 -4.12182 -1.5759
1024 1 -3.75047 8.93152 24.2401 4.51871 2.27579 -0.286665
1025 1 6.93032 5.82193 -19.7331 4.21867 -1.36229 1.47202
1026 1 2.9041 13.5585 -10.4285 3.40872 -0.484341 -0.870082
1027 1 -22.1427 -5.55007 13.9758 1.25788 -2.37344 -0.199508
1028 1 -6.54894 -12.8144 -13.0113 -1.56832 1.42357 0.595562
1029 1 12.3821 12.4925 1.57735 -0.794492 -3.20391 -3.56285
1030 1 -17.3737 -17.6281 -23.8377 -0.47982 1.45499 -1.7814
1031 1 -4.30941 -12.021 -4.86249 -3.63853 7.00681 0.55637
1032 1 11.0296 7.89486 17.7675 2.73199 1.47264 -5.51885
1033 1 -6.5018 -17.9229 2.93664 -0.489808 2.37432 0.293303
1034 1 -13.7622 11.5085 -12.2558 -5.75705 1.86894 -1.21851
1035 1 12.1324 20.0271 -3.123 -4.34112 -2.31446 -3.62459
1036 1 4.01813 -11.9577 18.1695 -2.91632 -2.10807 4.96707
1037 1 -12.79 -16.5702 18.2021 -2.42342 -5.27537 0.101184
1038 1 -2.09816 7.22135 10.5836 0.38238 -1.77745 1.60141
1039 1 22.7199 21.2815 -10.0104 6.07509 0.539309 -5.82178
1040 1 9.68655 -1.90118 -23.2138 -3.63577 -0.297842 0.870886
1041 1 -1.38091 8.80155 -13.5046 -4.16209 4.54678 -4.2264
1042 1 13.1932 -5.85709 -23.0308 -2.03232 -1.35612 -2.92796
1043 1 16.2129 9.42211 -5.04232 -4.27494 0.254665 -1.32759
1044 1 -5.79003 22.3659 -9.6937 3.18085 -2.28266 1.00532
1045 1 -6.02937 -2.63496 22.8794 0.364428 -3.99872 2.65016
1046 1 15.7344 14.7655 -16.2676 0.85722 4.00776 -1.2889
1047 1 -18.025 1.92755 19.9042 3.67502 3.59605 -9.1061
1048 1 -0.446257 0.634613 18.2349 0.258024 -1.41552 -0.980072
1049 1 -24.1435 -1.02437 -12.79 -1.96863 -3.77417 -1.18357
1050 1 18.0276 22.0419 19.3019 2.99689 3.25658 2.71811
1051 1 0.761147 -1.56052 10.087 -3.25729 -1.68385 3.06652
1052 1 -20.7113 -2.92747 -19.7592 1.88624 -0.133681 -3.35717
1053 1 4.12661 6.23603 -19.2176 3.26661 -0.516607 -2.62025
1054 1 -14.9004 23.7573 1.6724 -0.10362 0.00961412 -2.51406
1055 1 -9.13604 16.947 15.7453 0.634142 -3.20296 1.67871
1056 1 -8.88653 17.842 4.93486 -0.444541 -7.93017 1.24876
1057 1 -9.04546 -16.7791 -17.3261 3.62194 -2.6329 -3.51335
1058 1 0.419073 -3.43669 -9.53938 3.46756 0.00816742 -0.800242
1059 1 4.85664 -22.5481 -15.5879 -3.18056 -0.0982294 3.5755
1060 1 -17.3088 -11.0385 7.44751 2.17013 -3.92455 -2.60314
1061 1 8.55614 9.06377 -14.4691 4.47446 -4.2909 2.69217
1062 1 -9.08179 -0.244042 9.18881 -1.59431 0.352293 -0.48481
1063 1 0.744361 18.9409 11.5304 0.81443 -1.01477 -2.08483
1064 1 15.2711 -16.0818 7.73482 -1.66 0.918764 2.1888
1065 1 16.2201 19.6509 -17.4721 1.46553 6.3383 -2.56236
1066 1 15.7823 -2.57748 -22.1601 1.35509 0.237191 2.611
1067 1 -21.865 6.54724 9.60179 -4.34556 3.34565 5.29837
1068 1 -3.68918 18.7778 0.430586 -1.20002 -1.47728 -3.26309
1069 1 -24.3388 16.4527 -21.4741 -2.49985 -2.0491 -2.04107
1070 1 -7.49224 6.99962 9.04274 3.21403 -3.72679 -3.19701
1071 1 -19.2198 24.0933 -12.0827 2.68576 4.08299 -2.9091
1072 1 13.9342 9.06449 -18.6981 -3.23881 0.633365 4.87806
1073 1 0.531159 -22.9663 -11.0492 -0.729135 5.33344 0.529025
1074 1 -11.3575 11.1746 -15.909 -3.04997 4.57638 2.2766
1075 1 -1.2087 10.4512 14.7648 -3.24286 -0.278512 0.726261
1076 1 21.0765 4.44625 -23.4936 9.81787 5.52567 2.31663
1077 1 16.0335 -8.73307 -8.73466 4.25926 1.46345 4.51283
1078 1 10.7347 -7.36849 11.0561 3.45296 0.552537 3.72871
1079 1 -16.9672 -0.0711981 10.657 5.0129 -0.812383 -0.766555
1080 1 -18.9082 -10.2252 -9.59829 -0.0732092 -5.56799 2.23083
1081 1 8.72736 -8.29463 15.9609 -0.0486749 -1.54787 -3.08142
1082 1 -16.0634 -19.7475 -5.96484 -0.669938 -2.61755 -3.42443
1083 1 -1.3433 20.5338 -18.5894 1.17398 -1.892 -2.42327
1084 1 -2.92344 -14.3915 -4.60959 -2.61111 2.94993 4.34588
1085 1 -10.45 -16.1859 -4.00774 0.586753 -2.32259 0.77658
1086 1 -11.1097 9.03512 -4.26143 0.635763 -0.841926 -4.5823
1087 1 8.79753 0.0865015 -18.0812 1.60048 1.77654 -1.44142
1088 1 -22.5444 22.0145 5.57784 -1.64071 0.401862 2.75604
1089 1 -15.6046 7.59947 15.1556 -2.28892 -0.87592 1.002
1090 1 -21.3643 -21.4995 -12.7947 1.34535 -1.4214 1.96702
1091 1 -14.9898 10.7403 5.19222 -2.30267 2.89644 0.793131
1092 1 -17.9977 -19.1772 -3.55842 2.5436 2.27526 2.67015
1093 1 -23.7056 7.11294 5.49639 -0.949057 -3.91568 2.30603
1094 1 -23.8799 20.5355 -22.1528 6.83156 3.14784 -1.63939
1095 1 -7.18238 23.4562 -12.1777 -1.87162 -2.15538 2.17234
1096 1 10.7318 20.1495 -12.3279 1.82946 -3.70039 2.56549
1097 1 18.9335 23.8609 14.6546 4.3694 3.10619 -4.72078
1098 1 -11.8749 -2.65047 20.4349 5.00689 -2.66013 -0.137899
1099 1 15.7861 11.3753 16.2368 1.70562 -1.68114 1.36648
1100 1 9.51733 -8.98791 20.3363 -1.48919 -1.5767 -2.57585
1101 1 6.22835 -14.2454 11.5698 1.23005 4.71598 -2.39556
1102 1 14.0177 -12.3524 15.7389 0.283805 0.456929 -2.0634
1103 1 23.1 8.1953 16.0229 -3.16456 1.15586 1.11111
1104 1 -23.9378 -1.78194 9.93009 -0.0288236 -1.86792 -2.6862
1105 1 19.7663 2.17753 -0.739733 5.39222 -2.34526 0.427015
1106 1 -17.2321 -18.1635 5.84972 1.00537 -0.713657 0.141037
1107 1 1.57877 -14.8329 0.631184 -4.81272 -3.73958 -1.34625
1108 1 15.3874 12.8589 -22.9589 -1.42222 -1.10873 2.08425
1109 1 -18.1345 -10.3482 4.61602 2.855 -0.717482 3.57765
1110 1 -10.1875 22.6416 8.74869 4.21718 -1.30925 -7.30042
1111 1 12.8958 -8.93539 6.68146 -1.88871 -1.92872 -3.34269
1112 1 -2.18918 -15.1546 17.6301 -0.0845586 -0.864043 3.90342
1113 1 -19.8812 20.0491 22.2893 0.575866 -2.33314 2.05688
1114 1 -19.2356 -3.85582 11.1386 -2.70757 2.12668 -1.62847
1115 1 23.3464 22.7793 -23.2851 -4.99079 2.88016 -2.07889
1116 1 -16.2177 1.68444 7.03462 0.551685 -3.87794 -0.432066
1117 1 -5.68065 13.5081 7.33765 0.530673 3.83838 0.559734
1118 1 21.1971 -1.20921 -12.8907 2.11932 -6.17302 2.27327
1119 1 7.68771 -10.0158 6.02549 1.4401 5.15536 -2.13006
1120 1 -5.75803 -15.958 -2.15177 -1.13373 5.57349 -5.29507
1121 1 13.9789 -2.73506 -18.3321 0.662007 0.0427564 -0.438659
1122 1 -8.66568 23.088 -2.00464 -0.880437 -3.72974 -9.18586
1123 1 14.6347 -5.91485 -3.95213 -3.25189 -2.57411 0.289794
1124 1 -2.84359 13.3552 -16.0027 2.57958 -1.68139 1.48708
1125 1 -20.8458 7.4071 6.11545 0.100393 1.93324 1.25437
1126 1 -0.451613 -12.4409 -11.9124 -5.53583 -2.74356 2.04309
1127 1 15.0788 20.6188 -8.06009 -3.18859 -0.376785 -2.46995
1128 1 1.00977 14.4056 0.169142 4.57784 1.00682 -1.86191
1129 1 1.50325 -8.73232 -23.784 1.53832 -0.880519 1.80063
1130 1 -0.572857 14.9577 -14.3648 1.67515 0.15193 3.51588
1131 1 17.9208 -7.69427 -3.23192 6.14393 -0.296721 -4.49371
1132 1 21.3102 -5.00466 20.0122 1.45949 0.181131 -2.23707
1133 1 11.1831 14.7041 18.4605 -4.97315 -1.70039 3.9162
1134 1 10.2697 -19.1053 17.2845 2.00522 3.58401 -1.22298
1135 1 4.83501 -1.19167 21.9668 1.34484 -1.02505 1.37241
1136 1 -21.0104 -21.1439 -21.8147 -4.30247 2.91942 5.10309
1137 1 4.98898 4.67818 2.03945 1.19723 -0.283589 -3.34321
1138 1 -22.1122 -22.9688 5.34984 -3.29552 -3.58607 -1.23523
1139 1 -4.73305 9.01249 3.74117 -0.462641 3.79136 4.1309
1140 1 15.1708 -8.55111 -17.6107 2.4996 2.96761 -1.1103
1141 1 -18.6518 7.30111 12.8133 0.803666 4.56807 -2.17812
1142 1 7.99445 14.1558 5.00277 3.07402 5.27564 6.47585
1143 1 1.35417 -7.0892 -13.3842 0.372613 3.30552 2.91375
1144 1 16.2085 3.34575 -12.0164 -4.61452 -1.80645 2.90972
1145 1 2.95626 20.6928 22.0045 1.31064 4.20088 0.203994
1146 1 10.7526 16.4017 20.9023 2.77804 5.41052 -1.20727
1147 1 -6.07231 11.3924 2.29718 -0.0316042 -5.02637 1.35857
1148 1 -10.7948 8.75632 12.8 3.67001 -0.00635318 -1.24978
1149 1 1.67682 -15.2728 10.3677 -2.40399 5.08014 0.0539812
1150 1 -12.9478 14.3838 8.76093 4.96356 -0.13937 2.92918
1151 1 22.1787 -22.8427 19.6805 -3.48643 -0.270067 2.08104
1152 1 -13.8648 14.885 19.0681 2.20621 -0.203248 -2.98995
1153 1 -3.75033 -22.3592 -0.141775 0.629826 1.20563 -2.71179
1154 1 -0.100266 12.4055 -22.0967 2.53148 -2.72504 -8.11894
1155 1 5.07142 -19.3637 15.7582 -0.462778 -2.97943 -2.70708
1156 1 -18.2573 -11.7673 23.1096 -0.761493 -1.10029 0.215871
1157 1 3.63011 2.77078 -10.4345 -0.581518 0.401943 1.11705
1158 1 -18.5036 -0.3019 17.6112 0.343422 -3.00943 -0.6601
1159 1 19.2026 -4.11199 13.554 -3.95894 7.27093 -1.59323
1160 1 -9.09215 5.32434 -8.26167 1.56307 -3.42433 3.54752
1161 1 -8.50721 -23.9164 -20.1125 2.06816 4.75246 3.4365
1162 1 9.82179 10.3162 3.91199 2.95822 -0.908285 -0.565117
1163 1 -16.6909 -23.1772 12.0754 2.61146 -1.58071 1.69204
1164 1 -19.4392 -14.9895 9.47419 -1.91662 2.87598 1.79102
1165 1 18.0226 22.2754 -1.03738 0.661215 1.75885 6.73354
1166 1 -14.7673 23.554 17.9717 -1.55598 -0.453557 -2.04454
1167 1 -0.852832 13.5008 18.2597 -1.61182 7.16732 3.44163
1168 1 10.5885 -10.3611 -1.34597 2.79772 -0.125402 -2.60949
1169 1 13.7105 -7.65622 17.4715 0.457432 1.64202 0.692573
1170 1 3.06712 12.2149 11.4515 2.23677 3.47946 8.92765
1171 1 21.9489 -1.19887 -7.18351 3.84909 0.380923 -1.3642
1172 1 -21.2884 -17.6289 -15.4919 -2.2731 -2.33841 4.40887
1173 1 7.00641 -19.9204 19.1766 1.49659 -3.03588 0.777235
1174 1 -23.1502 -19.7476 -15.8166 -0.443998 -1.05236 4.5974
1175 1 -10.3198 14.2111 21.5437 3.2983 -0.655157 2.05306
1176 1 -0.854554 -10.3046 13.6397 -1.37231 0.915602 -4.35488
1177 1 10.1399 3.61401 -19.0712 0.458938 -5.06248 0.513312
1178 1 -5.06699 7.15042 7.49402 3.04748 2.29402 -0.139965
1179 1 8.37988 -8.09442 -9.20787 -4.14405 2.20969 0.049686
1180 1 -9.80435 47.2443 -12.286 1.02185 2.57747 2.07343
1181 1 11.142 18.8273 -9.99365 1.30797 -2.46881 -6.41525
1182 1 19.5922 7.5452 0.656258 2.36337 -7.52403 -3.1505
1183 1 3.7726 -6.07822 -16.6494 0.910814 -1.56699 -2.07684
1184 1 7.07293 19.6935 22.7965 6.0769 -0.763235 -0.106703
1185 1 14.6683 8.52073 24.3116 -2.37142 -4.00218 5.72546
1186 1 6.97235 -8.37586 1.8012 -2.76805 -3.32434 -3.21841
1187 1 -13.4793 17.8016 -7.47403 4.92936 1.29352 -2.53862
1188 1 2.21949 2.04919 -0.0330175 -0.881582 1.52709 -1.92675
1189 1 15.2904 14.0453 4.82491 -0.40382 3.55549 1.27282
1190 1 16.6256 -2.32307 -19.2325 -3.27328 -1.54433 1.4356
1191 1 -2.24754 -3.85645 -19.8374 2.43409 2.08412 -0.735743
1192 1 -16.3675 -0.232669 -10.4736 -1.74837 0.870313 -3.25841
1193 1 8.30004 -1.8615 15.5342 -2.76477 -1.68949 -3.54946
1194 1 8.63902 16.6507 -7.66123 0.352538 -0.279039 2.90569
1195 1 13.4762 -13.4286 -16.662 1.03294 -5.05558 3.20947
1196 1 5.13671 15.9062 -13.2225 3.05843 -0.525308 4.70481
1197 1 -20.0391 17.5019 21.7984 1.70794 -0.699374 -0.746315
1198 1 20.3517 -21.5166 11.1216 2.95483 -1.4172 3.42303
1199 1 -13.5621 7.73418 -10.7885 -0.148644 0.679625 0.0518705
1200 1 14.3097 -10.1203 9.45431 -3.06761 3.92074 3.93044
1201 1 22.6404 -18.6947 18.2216 1.69448 1.077 -3.18899
1202 1 -16.5345 -0.607089 -5.30576 4.45016 -5.50991 -2.25774
1203 1 -15.6616 -12.7327 -16.4347 1.30299 -0.264235 5.21849
1204 1 -3.46833 21.4046 2.9778 1.26636 -3.28697 0.619856
1205 1 -4.2446 -14.7343 11.4368 -1.44618 0.469988 0.9412
1206 1 21.6972 -20.7523 -22.407 2.65649 2.76613 -2.59417
1207 1 15.8784 -5.47163 -14.7217 2.9054 2.1615 1.11275
1208 1 22.434 -6.8392 8.84733 1.90348 -3.15561 2.12119
1209 1 5.05474 -6.0967 -23.7065 -1.01576 -0.0826974 0.978741
1210 1 -2.28491 17.9725 -7.06673 1.64396 0.29229 -0.683595
1211 1 -17.1575 -10.9765 10.6264 2.29499 3.40053 1.76596
1212 1 21.0781 5.07994 -10.5784 1.11317 -3.82671 -3.26658
1213 1 21.1525 -15.7263 20.9584 5.03505 0.462974 3.38182
1214 1 11.0548 1.0607 -1.82598 1.74603 1.79917 0.301965
1215 1 4.7961 9.89606 -8.75185 0.887139 -2.03558 -1.78503
1216 1 14.7496 -7.61463 -10.9876 4.40338 -1.49601 -2.4505
1217 1 16.208 -14.0952 2.39818 0.311771 -2.69133 0.276066
1218 1 16.926 -4.4119 -10.1116 -0.0981208 -0.3114 2.50429
1219 1 13.2093 10.7754 10.1408 4.32646 0.373863 5.20949
1220 1 -18.5769 23.1915 15.0886 -0.344231 -0.299269 -1.85249
1221 1 0.50306 19.3398 -20.4363 -0.103988 -0.930743 -2.27141
1222 1 19.7626 20.2753 11.8364 1.47806 3.77773 3.35839
1223 1 -23.2149 11.1921 12.343 0.232874 -1.58219 0.63675
1224 1 14.9596 -7.0257 13.2098 3.7634 1.70334 1.23129
1225 1 -0.603785 -21.2508 21.1907 -1.08917 -2.49413 1.7723
1226 1 -21.3204 14.7776 1.36537 -4.34012 -3.13606 -0.180449
1227 1 -0.463091 -8.53663 -1.11395 -4.20218 0.972783 -0.119731
1228 1 -23.1237 -21.6127 -10.2735 -1.12438 2.30465 -0.0724939
1229 1 18.9475 -16.9791 -0.638542 4.76692 -0.726983 -1.84954
1230 1 -14.4875 -19.0786 -10.6773 3.62934 1.63478 -2.86737
1231 1 -19.3822 -7.49072 -9.29686 3.63984 -2.45448 2.19229
1232 1 -22.2375 18.1599 -22.3562 0.267175 -1.95285 4.90022
1233 1 -2.99804 2.30919 -21.5396 -1.31931 -0.472514 -2.96984
1234 1 15.6016 13.4396 7.64752 -3.28833 -1.21009 0.808413
1235 1 12.8685 18.4093 1.38753 1.23809 0.664214 0.507805
1236 1 -5.32359 -23.0205 14.6631 0.557882 5.26806 0.223572
1237 1 -18.4913 20.5692 15.9163 0.538758 -0.339415 1.14438
1238 1 8.02474 -1.69642 -13.4888 1.81671 0.492945 -1.37191
1239 1 -1.06025 -23.7919 6.2981 2.16545 1.63681 2.95744
1240 1 -4.86195 -24.1089 3.00685 0.616384 -0.94153 0.27978
1241 1 13.0989 13.3145 -18.2912 -5.7122 -2.43246 -0.0304219
1242 1 8.19905 -18.759 -13.8587 -3.2719 6.33724 -4.19946
1243 1 9.77867 16.7153 -21.3256 -0.952176 -1.06665 0.641959
1244 1 -17.9461 2.31139 9.39557 -1.15985 -5.87267 4.24577
1245 1 -20.5446 12.7664 -23.4399 1.72366 -0.0710589 3.74499
1246 1 -7.07164 -15.5771 4.65319 0.960937 0.85973 -5.3638
1247 1 -2.94856 1.56697 -11.1961 -3.24658 4.81867 -6.10229
1248 1 9.4714 5.93668 19.1879 4.55377 -0.054266 4.31171
1249 1 7.51508 14.8925 -21.0745 -1.96496 3.12358 -0.499212
1250 1 5.99597 3.54659 22.675 2.54753 1.45965 -5.19228
1251 1 20.9651 -0.233128 22.5279 -5.03296 -0.7251 -3.22465
1252 1 18.4148 -18.4105 2.02223 0.57453 -3.71097 4.57658
1253 1 13.8377 24.6495 -2.78934 -2.85013 3.03023 -0.063109
1254 1 -20.5177 -19.4186 3.19197 -2.92209 0.994599 0.920592
1255 1 -5.05617 -12.0883 7.27741 0.208356 -0.183457 -0.992257
1256 1 5.3544 -19.9556 -19.5713 -3.40488 -2.32871 -3.68823
1257 1 -5.42191 -24.4134 -11.0419 1.32 -0.654644 2.80316
1258 1 -16.5896 8.56523 20.8495 -0.838511 -0.9335 -2.67163
1259 1 20.0145 -10.1427 6.79995 -5.00308 0.0492596 -1.76965
1260 1 4.3597 -7.63051 -14.048 -3.49592 5.48206 -3.57528
1261 1 13.2426 -9.96731 -11.4963 -0.665402 -1.37887 -2.97816
1262 1 12.0811 -13.5891 -5.40365 0.759371 0.424118 0.614143
1263 1 -14.6754 -6.0548 -2.81268 -0.457407 -0.495587 -5.25111
1264 1 -22.8564 -12.3685 -2.62205 -0.97743 2.97768 0.822353
1265 1 -7.48409 13.3576 -9.94448 -2.38062 1.11472 3.35704
1266 1 14.353 -7.73144 2.81525 1.77647 2.89277 -0.376085
1267 1 22.8411 -16.1687 3.1006 2.50305 0.193728 -2.90483
1268 1 -21.8484 -11.7497 -17.9878 1.0529 4.78493 1.10761
1269 1 10.3014 -6.34436 19.9294 -1.77576 0.507621 -3.51727
1270 1 -23.3595 17.1752 13.334 -1.60284 1.19899 -2.90501
1271 1 -0.388925 3.47672 17.504 -0.570573 1.13461 2.51013
1272 1 -19.9878 9.50562 16.1117 0.312821 0.50927 1.15573
1273 1 19.5502 4.25091 22.1394 3.37408 4.17029 0.383314
1274 1 22.3714 18.6645 -21.0939 -1.46874 2.06047 2.31924
1275 1 2.69557 3.63794 9.62578 -4.4004 3.41138 5.57225
1276 1 -0.547838 -9.4074 -19.735 -2.28547 -0.502425 0.597114
1277 1 -11.3946 22.3202 -4.0239 1.14722 3.27431 -4.49781
1278 1 15.8285 -8.03038 -20.7115 -0.32664 1.76726 4.23392
1279 1 -17.0299 17.0834 -12.461 -0.0750828 1.21253 1.41404
1280 1 0.10151 -3.73509 -5.01344 -3.44788 -1.55117 -1.12274
1281 1 14.0352 -9.45775 21.4358 -0.0217082 1.5548 2.66321
1282 1 9.834 -19.0432 -1.91178 2.33257 -1.97027 3.64233
1283 1 5.49995 -20.6797 -10.0071 2.95678 -0.336211 -3.83261
1284 1 6.74133 -13.7033 2.42667 -2.6056 4.93257 -1.03945
1285 1 -11.7563 21.4637 15.2415 -0.0200788 0.895961 4.50988
1286 1 -7.66046 5.38936 -15.6568 -1.00749 3.87843 0.336546
1287 1 8.57444 -16.4759 19.3384 -4.32273 -2.80293 -3.29919
1288 1 2.47496 -3.44361 -15.9867 1.33449 -1.71199 0.497587
1289 1 22.5637 -11.9431 -8.18216 -0.0568817 1.56989 1.3121
1290 1 0.955806 6.37064 6.3684 1.00766 4.18467 -0.947229
1291 1 -18.2576 15.2567 1.66389 1.07452 -1.01911 -5.03984
1292 1 -3.869 19.5898 -3.70799 0.201475 2.71758 3.18925
1293 1 -6.07754 -3.05392 -2.81569 0.316177 3.83479 3.84703
1294 1 14.3936 -13.2821 -7.2913 -0.491805 -6.74861 -3.89275
1295 1 13.5264 5.15762 -2.56045 -1.27725 1.7024 -1.16555
1296 1 -5.9897 -10.1356 5.17055 4.98567 1.36926 -2.22783
1297 1 15.2911 15.5477 16.6718 0.74877 -2.32933 -1.02858
1298 1 0.899848 -6.3744 -2.67946 4.79162 -3.51673 1.86751
1299 1 -9.60427 -11.3454 -6.58429 -2.27848 1.13189 -0.17506
1300 1 2.15402 -1.43916 -2.55841 -0.169261 0.650866 -1.55344
1301 1 10.5608 16.0653 -9.59663 1.46261 2.14171 -1.55107
1302 1 -4.17174 -3.96008 -23.49 -3.29341 3.82363 1.68135
1303 1 -6.33854 -8.77292 -17.4484 -0.229156 0.820812 4.03963
1304 1 2.31569 0.0175361 -5.49372 0.269854 -1.14766 -5.03492
1305 1 -4.8976 2.64808 9.34832 -2.42699 -0.24226 4.76282
1306 1 7.12368 -22.488 -0.696009 0.376099 -0.357993 -0.0406155
1307 1 -15.5355 46.5144 -2.92271 -5.32209 5.33448 -2.09021
1308 1 -18.4765 -3.61021 6.37274 -4.65774 -2.28408 -2.2864
1309 1 -0.168658 -10.3808 -6.91311 -2.91572 -4.1768 -1.70854
1310 1 -2.74438 -18.3855 -2.66386 -2.4755 -4.76437 0.351341
1311 1 -2.54036 17.3797 -13.5725 0.651056 -1.91614 -3.09181
1312 1 -16.5799 -8.19172 3.43552 2.05294 3.43442 1.21152
1313 1 18.1978 18.4679 23.1973 -5.11925 -2.31613 -1.42944
1314 1 -17.7784 11.6177 -18.2969 2.29914 5.76973 -0.901504
1315 1 -20.062 -11.6185 -22.7362 3.91252 1.12689 -0.566557
1316 1 21.119 -10.8954 -15.6685 -0.406727 -4.00494 0.46431
1317 1 -11.5904 9.37256 -12.2757 2.70329 -1.66489 4.33816
1318 1 23.6082 21.4146 -0.662388 2.82627 -1.37778 5.72958
1319 1 13.497 22.8155 -0.259074 2.70157 3.32144 1.29768
1320 1 20.1954 -6.69852 -7.82467 -2.03072 -2.69265 -2.89021
1321 1 8.41194 -21.5491 -5.70366 -4.10033 2.11243 0.401376
1322 1 -0.45672 -13.1732 -5.43722 0.278524 -2.26607 -3.50808
1323 1 14.5742 -11.3319 12.0474 -2.55899 -3.64347 0.75625
1324 1 -12.9121 -18.1633 -19.3252 3.3516 5.48355 -1.3871
1325 1 -2.78198 13.5277 7.19172 5.04616 -7.06863 0.320095
1326 1 -19.4801 -18.75 -20.7468 2.76766 -3.77025 3.27363
1327 1 -9.35777 21.6332 -22.787 -2.72519 0.695212 -0.0833812
1328 1 10.6436 11.7949 7.03776 -0.732754 -2.51602 3.10901
1329 1 21.0916 -13.8156 -3.93218 -1.12427 -3.49692 3.55195
1330 1 -10.6769 15.0665 -6.79218 -4.1735 -1.5179 -0.944262
1331 1 -19.5802 2.63861 -2.87616 1.85752 3.10614 0.72815
1332 1 12.5565 -21.3206 22.8709 -3.06793 -3.91491 -3.05935
1333 1 1.74797 10.2679 5.99555 -2.40559 -4.74973 0.424891
1334 1 11.7163 -10.4476 -8.69248 -1.66056 6.51268 -0.390443
1335 1 -15.1135 24.9447 -15.5824 -0.223353 0.766558 -2.8024
1336 1 1.93409 20.5673 -7.66104 -1.49279 -1.03529 -0.893897
1337 1 8.13904 -20.2987 8.08692 4.75075 3.0534 1.43517
1338 1 1.64404 6.04161 -1.37618 1.67681 -2.44959 -4.47635
1339 1 1.59042 -19.4594 20.7801 0.929165 -4.164 0.926155
1340 1 -19.4113 16.853 10.9481 3.4803 -1.21631 3.81796
1341 1 2.45369 9.81378 14.3096 -1.23606 -1.40148 10.1496
1342 1 1.9581 -22.569 -15.6956 1.93306 -0.335937 3.62556
1343 1 -12.1274 -10.509 -7.87132 -4.20099 -0.478888 -6.17549
1344 1 18.0585 -8.65676 3.33466 0.609072 0.936326 -3.49693
1345 1 -23.5076 2.85048 -19.6322 0.662145 -1.63079 -3.75311
1346 1 16.5924 -3.48603 -12.8555 -4.47811 1.7943 -0.206521
1347 1 -16.65 -12.8221 -20.557 3.5998 -3.93012 1.98767
1348 1 3.52641 12.2762 -16.4405 -1.26181 -0.594274 2.73681
1349 1 2.53015 -12.2911 9.67821 -0.809412 -2.10688 -3.02243
1350 1 -15.5592 0.279663 -2.76303 1.00978 -0.957351 -0.822169
1351 1 15.3556 -14.7432 16.6076 0.515038 -4.96603 1.73732
1352 1 6.15298 23.5219 21.346 -1.2225 -1.35904 -0.56714
1353 1 6.50424 21.1775 -0.301453 -6.11651 -1.85186 -0.831266
1354 1 -1.47866 -5.54483 -17.4286 2.38389 -0.684626 -2.7347
1355 1 -8.25128 22.0088 18.0522 -2.672 0.328428 7.2175
1356 1 -19.6847 -13.4647 -2.87936 -2.59084 -2.52216 -2.39755
1357 1 -19.8249 -7.48297 -12.111 -1.55719 1.64288 -5.45097
1358 1 -10.6326 24.6084 21.7674 3.14688 -3.76597 5.74378
1359 1 -21.656 -22.7538 22.2364 -6.99885 -0.0458516 -2.61135
1360 1 20.2278 -12.1279 9.02003 0.290118 -2.98402 3.66541
1361 1 -8.04988 -21.6742 4.05598 2.22199 3.57103 1.19726
1362 1 20.4893 19.2717 8.44699 1.86009 -0.669869 -4.61563
1363 1 -15.3852 -10.22 -21.5955 1.41379 1.5296 1.34131
1364 1 13.8647 -13.0693 -11.407 4.19842 -1.99552 -1.28817
1365 1 8.97886 -5.40679 -20.8693 -3.6115 -1.02599 2.54975
1366 1 20.5613 -14.4405 0.315794 -2.95964 -2.66906 -3.87254
1367 1 -9.26694 -11.8656 14.1836 -5.995 4.75424 -0.055465
1368 1 -18.6023 17.6787 -2.09956 -2.43083 3.47025 -0.270163
1369 1 23.2005 2.41831 -5.10684 1.66261 -1.28351 -3.068
1370 1 1.83132 -12.4267 22.6154 2.97526 5.55579 -2.60389
1371 1 -19.9713 9.50951 -1.54336 -1.03968 0.526197 4.95585
1372 1 -11.0392 11.0193 4.87328 -2.64343 1.33426 -3.17894
1373 1 -13.734 -8.60315 10.9834 -0.573644 -7.97834 -2.60888
1374 1 -17.2711 24.4273 17.1414 3.20811 -0.197481 -0.162649
1375 1 16.4932 -6.1233 3.21329 2.20567 4.31667 -0.0578723
1376 1 5.96161 9.72306 -5.78366 -0.564184 -3.91504 -1.18121
1377 1 -12.9313 22.3816 23.6544 4.43519 8.14661 -5.21741
1378 1 9.313 -10.3645 1.47441 -0.954498 3.01422 -1.95453
1379 1 -18.2119 -17.6913 2.9197 1.27287 -2.26108 1.93026
1380 1 16.1553 22.3134 -11.7355 2.93312 2.23182 -3.72706
1381 1 17.7327 17.2853 11.7864 2.33979 3.08999 0.451029
1382 1 17.5021 -13.2935 9.75485 1.32746 1.59345 3.43433
1383 1 -6.95678 -23.2822 -15.9072 -1.50876 2.27878 1.49445
1384 1 2.93088 21.4812 -13.1052 1.19793 1.602 -1.81038
1385 1 -15.6451 23.7658 12.9981 2.46711 -0.867442 -0.67844
1386 1 -12.5463 9.05141 1.17369 -5.23769 4.5066 -4.79666
1387 1 -19.0377 -1.87646 0.242386 -0.382665 0.321324 -4.59953
1388 1 15.2706 -2.39963 19.2436 1.87876 -1.11968 1.42138
1389 1 20.6761 -4.97853 -1.03322 -0.71258 -3.94338 -0.737043
1390 1 7.03717 -1.19443 12.2572 -2.6759 1.42299 -2.05591
1391 1 -11.0153 20.6631 21.8759 2.18118 0.0780579 -0.932727
1392 1 22.4569 2.78478 2.63498 -2.04642 -1.29563 0.203279
1393 1 -0.645412 -6.27661 0.727416 4.16028 1.03386 -0.0724633
1394 1 3.48347 6.77279 1.00295 2.10573 -3.19607 -3.94214
1395 1 0.155439 10.7337 -7.85409 -2.85898 -0.413844 1.82176
1396 1 -18.5369 -8.45909 7.57962 -1.01788 -0.411736 2.69025
1397 1 6.06247 24.1259 -7.30009 -2.68198 -0.972327 -0.746332
1398 1 2.47328 22.1213 -5.35738 0.725966 -2.8473 -2.47918
1399 1 -1.42965 -23.5203 -1.68784 -3.4593 1.48477 -6.00249
1400 1 -12.1238 15.2903 -23.1606 3.8043 -0.809268 2.19959
1401 1 21.6876 -22.8159 22.4701 -4.69044 -1.02873 -1.63418
1402 1 -18.4213 -5.39002 -16.6528 6.13461 -1.6339 2.83394
1403 1 14.0337 -22.1991 15.0347 -4.40017 -3.2655 -7.40831
1404 1 21.2504 -9.43696 9.61149 1.02941 0.437829 -4.71627
1405 1 19.9521 20.4846 -20.4713 2.45734 2.25331 -2.39118
1406 1 -8.92859 2.82811 -12.8343 -5.96599 -1.80215 3.16101
1407 1 23.2654 10.1199 -0.0195745 -1.00341 1.67895 -2.83201
1408 1 -4.87386 -6.0562 -14.4271 -0.296904 1.92066 -6.55715
1409 1 -3.04789 3.57585 22.8869 0.464808 -2.86053 1.22481
1410 1 -1.53832 -17.3507 -18.3751 -2.51533 -3.18048 -1.20077
1411 1 18.4487 3.28392 -22.759 0.540046 -0.395708 -1.88463
1412 1 -19.5803 9.97481 -9.56494 0.534653 -1.24731 7.63567
1413 1 -16.1045 3.10469 -22.0538 -0.310673 -1.1571 -0.163939
1414 1 6.35983 22.3975 5.26793 0.269745 1.25286 1.0488
1415 1 -6.14741 -23.4435 0.559923 -0.804026 -5.37345 -6.5819
1416 1 -22.2145 -7.80458 9.15113 -3.07754 0.398607 -2.96285
1417 1 10.6033 5.52508 13.9516 4.24595 3.20265 5.47001
1418 1 14.5571 -7.61621 0.0515602 -0.419412 1.94433 5.58925
1419 1 8.9578 23.534 -1.7676 -3.54632 -3.14786 -1.98346
1420 1 -12.9462 18.8978 -22.912 -1.22501 -2.42172 -4.83285
1421 1 -23.978 -8.55321 6.94142 -2.01793 -0.862089 3.05634
1422 1 -11.7402 -20.1876 -16.4172 1.5373 2.76492 0.839298
1423 1 8.1591 21.5235 -18.5964 -3.50687 0.405309 3.30882
1424 1 21.3034 11.0612 -8.10369 3.0981 0.00591678 -1.36249
1425 1 -2.42951 5.78526 -11.1332 -0.140565 -4.26429 -3.05311
1426 1 8.25818 -19.6213 2.62313 -4.57468 1.46598 1.41746
1427 1 18.6031 -14.3367 -2.01222 1.41787 -2.37997 3.07803
1428 1 -4.52226 -18.1907 19.9343 -4.27795 1.64576 -0.477063
1429 1 -19.8104 -16.3987 6.53958 -3.56684 -2.81978 4.75957
1430 1 1.00756 14.4766 6.65115 0.994275 0.303029 -3.54901
1431 1 -8.10322 0.374262 -8.99621 1.78783 -2.52268 0.263906
1432 1 -13.1159 8.64594 23.5496 0.0221813 6.14888 -1.99125
1433 1 -17.9024 -11.996 -18.262 -0.854981 -2.01959 -2.13325
1434 1 -23.5418 6.20411 22.6917 -0.445038 -1.86167 2.34593
1435 1 20.1569 21.2104 -3.58013 -0.804241 -1.44279 -2.84918
1436 1 -16.4385 -4.94217 -14.5894 -0.217894 0.177522 -4.49098
1437 1 3.23034 15.6067 -21.5765 -4.59972 -6.24315 -3.35664
1438 1 -0.462927 -0.414888 -14.8813 0.169152 1.59085 -1.44988
1439 1 -18.0116 8.9257 -13.1237 4.46932 2.90646 -2.91424
1440 1 -22.8597 14.3172 -2.98119 0.201494 -2.34932 -0.898934
1441 1 -17.579 -15.4487 17.4808 -4.64683 5.07931 6.11776
1442 1 -20.1482 -9.23046 -4.97433 7.18389 -2.22113 4.64482
1443 1 17.3505 -12.9116 17.7919 -0.885247 0.897785 8.96971
1444 1 13.0702 20.5608 -23.5709 2.26323 2.86967 -2.99896
1445 1 12.0709 -18.9107 9.36444 8.14947 -2.93926 -1.12875
1446 1 3.81286 -8.50088 -9.59315 0.174012 3.50441 3.31854
1447 1 22.8032 -5.08197 -16.6685 -1.58085 -0.15547 -4.12857
1448 1 -16.7843 2.62987 4.54202 -7.48517 0.188529 -2.13084
1449 1 10.1244 -2.6735 0.322002 -4.85602 3.62674 -2.63499
1450 1 -7.26806 -4.89473 -9.13026 4.06084 0.0338273 -4.16575
1451 1 9.10012 22.3325 -11.1859 1.66905 3.99864 2.75457
1452 1 -5.97579 -23.87 -18.4365 -1.26287 -1.70706 -2.07675
1453 1 -0.35282 -22.5942 -7.4928 1.54751 -0.567525 -1.21918
1454 1 7.90621 -12.3272 0.128854 -1.02442 0.974312 5.37655
1455 1 -14.7623 -17.2594 -5.27612 3.33111 -7.55965 1.19989
1456 1 -15.5007 14.5135 10.3464 -1.4125 -1.3829 1.33427
1457 1 -19.2255 0.986069 -20.9759 -0.543094 -1.1371 1.66975
1458 1 -21.0076 12.6853 8.35108 -4.80622 0.0286593 1.57475
1459 1 -12.5532 -13.9143 -3.99118 -1.71385 -3.14701 0.121837
1460 1 -14.9822 6.83812 -13.3308 0.382596 2.7503 4.14852
1461 1 -13.6605 15.5728 22.8889 3.91417 -5.62349 -0.921302
1462 1 -7.77487 -17.0933 8.63467 4.53983 -1.83814 1.16948
1463 1 6.27314 0.833376 13.8939 -2.64216 3.51561 -2.06605
1464 1 3.47185 -19.8131 4.63572 0.835517 4.27194 -2.61118
1465 1 -20.8217 20.5967 -14.4123 -0.041591 2.916 -3.30871
1466 1 -17.5866 -6.21471 -2.66478 5.32254 -4.35726 -1.32218
1467 1 -23.7647 -16.0173 -15.8846 2.25319 -0.392224 4.69397
1468 1 18.5646 24.8604 18.6441 -2.86939 -3.48909 -3.04246
1469 1 19.9593 13.1742 6.39755 3.26077 4.25601 -0.458892
1470 1 -2.38429 -12.501 5.71542 -0.103672 0.747987 1.35396
1471 1 -5.37778 -4.99737 -11.5708 0.637387 -2.7656 -1.67005
1472 1 22.7082 3.97096 16.6242 -2.09966 -3.86762 3.56568
1473 1 15.4062 -18.2412 -14.167 -3.87919 -3.65667 -2.74227
1474 1 0.237154 20.59 -23.2103 0.642398 1.46474 0.885391
1475 1 -22.3474 46.5502 -3.55396 -5.10383 4.24381 -4.29093
1476 1 -21.4707 13.8444 -20.0061 0.789273 -0.47829 -6.50588
1477 1 19.7093 -0.576803 -0.440701 5.77932 -0.758843 -0.38287
1478 1 -1.23214 4.00972 3.06874 0.560354 -1.07476 1.18777
1479 1 9.52669 -7.55942 6.77539 2.98013 2.93336 0.14598
1480 1 1.48553 14.3033 -5.74381 2.44071 -2.521 -4.15527
1481 1 -7.86552 15.4724 -3.30607 -1.53028 -2.97164 -7.53926
1482 1 5.16014 22.5444 -22.2371 1.86365 -2.70044 -1.40246
1483 1 9.77501 -22.4652 -20.2412 3.42592 1.44707 0.62152
1484 1 -6.44672 9.23921 6.00258 0.206978 -3.82079 2.21779
1485 1 11.0637 -8.70731 24.1453 4.71678 4.38615 -0.0486337
1486 1 -18.5545 -6.10288 15.4065 -0.219969 -0.697078 0.480239
1487 1 -5.27306 4.21799 -15.9605 -0.639084 -2.3419 -0.554296
1488 1 -17.9274 -15.8009 11.6424 4.52087 4.2558 -3.28624
1489 1 -23.1743 17.1642 -2.31366 4.48999 -1.72027 -1.86309
1490 1 -22.2816 6.09804 -3.18552 -2.23519 -4.55263 1.92809
1491 1 12.938 7.00006 -4.79673 1.48461 0.357948 -1.17677
1492 1 -12.2166 12.1456 10.585 -3.87311 -3.79651 -0.0818237
1493 1 -3.99453 -6.84299 -17.2879 0.0436603 0.0395663 3.95099
1494 1 -10.2736 5.92511 -19.3933 2.08233 2.83809 1.77407
1495 1 -21.2216 -9.47087 19.569 -1.71464 -0.595331 -0.392623
1496 1 -4.14484 10.1293 -9.67382 2.48088 4.90774 -1.98556
1497 1 13.6868 -9.99302 -19.6554 -4.3065 6.50083 6.71946
1498 1 -13.3932 5.85134 11.6107 -3.35262 0.117969 -7.331
1499 1 14.7509 3.36666 22.1896 0.717003 1.35533 -3.60366
1500 1 -19.5951 19.0324 13.8454 -1.58046 -3.47041 -0.133566
1501 1 8.35987 17.2284 -15.207 -1.54828 3.20416 -2.31713
1502 1 -22.039 -7.14996 -4.26728 0.316997 3.35987 0.159287
1503 1 9.675 24.7382 -22.3418 0.711055 0.702012 2.16311
1504 1 -3.87254 -23.8977 -6.05114 -3.64707 -1.82622 0.822388
1505 1 18.2416 -22.1668 -20.315 4.54024 -2.08804 -1.96059
1506 1 15.5264 15.0227 0.656446 3.68895 -3.15547 -0.00881764
1507 1 -19.866 20.6104 -6.01527 1.07256 -0.819758 1.52874
1508 1 19.8684 -11.4523 -2.06075 -2.5876 1.15698 0.64333
1509 1 11.9694 20.7359 -7.83136 -1.67023 4.40129 -1.46098
1510 1 -15.048 -11.5637 -0.791822 5.58556 -0.451784 3.93693
1511 1 -23.4798 -5.03796 17.4415 -1.91198 5.36396 2.37286
1512 1 -13.6457 -14.2255 -1.51681 -3.04352 7.27207 3.11409
1513 1 -20.7795 1.53398 18.5263 -2.22071 -2.07182 -0.889506
1514 1 -14.757 -4.95395 -5.5744 2.12308 -2.1152 0.179603
1515 1 -8.85734 -23.4147 20.5925 -3.25041 -1.8437 1.88418
1516 1 -9.11956 24.1067 24.0337 -1.57851 -4.47592 -0.430003
1517 1 23.2072 -16.0856 -9.97006 0.0484222 -0.356928 -0.736942
1518 1 -3.9792 11.5939 -23.1806 2.83099 1.88827 -1.50457
1519 1 -12.0152 -18.4844 -0.45428 4.57596 -4.57688 4.42079
1520 1 10.4276 3.41672 -13.0736 -3.60809 3.12122 -0.811691
1521 1 -9.08234 -8.12072 16.9062 8.59891 4.00142 -0.228708
1522 1 -13.7105 -1.9851 -14.1184 3.04312 -1.31078 -2.02551
1523 1 -6.31425 5.59134 11.4264 -7.28572 1.88074 -0.895206
1524 1 1.14916 -18.8139 6.11896 1.65437 1.30421 2.72784
1525 1 -10.8314 -5.77123 0.14675 -3.37588 0.924283 2.55051
1526 1 22.0635 23.8805 1.52377 1.50445 0.707432 -3.22536
1527 1 1.8497 0.520712 -8.50669 -0.631349 2.03665 -4.97669
1528 1 10.8406 15.6247 15.7665 -3.19606 1.93219 0.704659
1529 1 -6.65586 0.933449 10.7614 0.826785 -0.418942 1.43942
1530 1 16.822 16.5051 5.43344 0.668844 1.25298 -1.12661
1531 1 5.67374 -8.44834 9.63833 -3.00055 -2.4997 -0.657515
1532 1 17.9407 -4.7655 -16.6429 3.4952 3.09485 -0.65013
1533 1 13.2443 21.46 13.0723 0.589929 -3.11763 -4.60116
1534 1 -16.9831 -5.75364 10.4711 0.944129 0.702902 -8.57687
1535 1 3.24193 -5.67337 15.2508 3.27583 -4.64636 -0.943986
1536 1 -6.91358 -0.351752 -23.7932 -1.86666 6.04317 0.993297
1537 1 -3.19394 24.3957 -17.5789 3.64737 -0.273363 3.06502
1538 1 6.86523 17.486 18.8033 4.80168 1.85574 -1.82054
1539 1 2.43031 6.65799 -15.1363 2.58393 2.77534 3.27988
1540 1 -21.5384 6.28415 -23.786 -4.13345 3.26622 0.678952
1541 1 6.36528 -16.4376 -8.48842 -3.3175 -2.15003 -1.37391
1542 1 -20.1033 -3.7899 18.4986 2.08553 0.0354027 -1.06384
1543 1 3.70684 0.0343426 13.4115 -0.00202541 -3.22583 5.4134
1544 1 -4.31132 20.5292 -17.9552 1.0177 -6.05246 2.9385
1545 1 -6.88186 -13.5267 13.418 -2.21565 -0.505928 0.168892
1546 1 -14.2326 -13.0774 20.2804 0.306566 2.73056 -0.964059
1547 1 14.1578 -0.425114 -2.45468 4.07163 -2.56376 1.3927
1548 1 15.6643 46.121 -7.29549 0.608904 -1.63652 1.37736
1549 1 -0.342528 -3.28446 -15.9776 0.888444 0.206705 1.50551
1550 1 -3.99557 -7.45783 -10.4605 -3.07317 4.27405 0.281311
1551 1 9.28586 -2.33141 -7.22342 6.26685 0.216682 -5.51575
1552 1 17.8342 9.65991 -18.4867 0.400583 -1.36582 4.12812
1553 1 -10.3406 19.9718 -11.9948 -4.73399 4.05281 0.969715
1554 1 -5.70025 -7.87624 -21.6297 1.9484 2.08959 3.59026
1555 1 -21.1769 -4.18091 -1.92296 -0.466945 -0.299168 -1.60986
1556 1 20.7333 -20.0896 -9.19813 -0.132524 2.76697 4.77647
1557 1 8.22781 -22.0152 -17.9909 4.95802 2.63522 -3.24107
1558 1 8.21449 -16.8195 -0.127685 2.95855 5.67566 0.47388
1559 1 23.67 19.3908 2.86879 1.12478 -2.50158 -3.73291
1560 1 -18.9846 -18.2226 20.0911 0.89281 5.96765 -3.36829
1561 1 19.9795 19.3345 -5.73708 -0.744976 -3.88464 1.95717
1562 1 -1.3888 -4.73289 -1.92075 0.891162 4.89714 0.984697
1563 1 -3.64337 -5.56924 10.2722 -0.288739 -2.1822 0.941174
1564 1 8.40438 13.8136 -6.87783 -5.83638 -1.03041 0.367436
1565 1 -6.41939 15.9267 -10.5679 -3.20088 -5.43064 2.45897
1566 1 2.23338 -7.40033 7.4075 1.85517 2.77653 -2.15027
1567 1 1.98043 -10.1046 -21.302 -2.57208 0.0879553 -4.46374
1568 1 18.6522 21.1303 -11.4551 1.48046 1.29686 4.47226
1569 1 9.3074 12.948 2.55775 -4.51838 -1.68735 0.976298
1570 1 -22.1572 1.28043 -12.6988 3.3985 -1.71736 2.42525
1571 1 -4.93679 -10.5599 -1.19605 -6.20722 -0.715312 4.02655
1572 1 -1.51183 -15.1041 10.7426 1.10716 -0.933346 -1.95897
1573 1 -10.9049 -11.8147 18.3939 -1.0359 2.10889 -0.372153
1574 1 19.8638 -16.8211 3.86482 3.13421 3.75249 -2.48801
1575 1 -18.2124 14.6602 4.45336 1.90589 -0.258139 -1.73521
1576 1 13.839 19.6337 -19.3766 2.65861 2.82171 -1.43007
1577 1 16.1421 -24.1613 6.89968 -1.75359 1.91616 4.17902
1578 1 16.6392 0.565665 -11.3538 0.127793 -2.55676 -0.101413
1579 1 -6.135 13.7335 -6.26616 1.46919 -4.29666 1.5492
1580 1 -15.2603 -24.2427 -5.47971 1.64591 2.4411 3.29411
1581 1 -8.70542 -4.67668 9.66176 2.42581 -4.76768 -4.52001
1582 1 -14.2737 4.51058 -1.86002 -1.86999 -0.391872 2.72838
1583 1 10.0742 -2.25891 -4.52007 5.34014 -2.47675 2.66122
1584 1 -8.26117 -3.56905 13.7892 -0.554581 -1.25891 -3.27138
1585 1 -9.3053 -14.0015 -23.9175 2.59398 -0.601392 -4.83224
1586 1 -17.1225 -24.1585 1.34824 -0.909228 2.2635 -2.93362
1587 1 19.014 -2.96262 -9.06248 5.18951 -0.778562 -1.86697
1588 1 4.25848 19.0533 -22.638 -3.89953 -2.4019 1.03195
1589 1 -11.4511 -23.3639 -2.9086 3.36672 -1.28959 1.3544
1590 1 21.3096 8.07855 -14.7855 2.64028 2.83208 5.6525
1591 1 15.2402 12.5622 2.27498 0.442231 2.53306 1.22782
1592 1 16.9147 8.97198 15.1542 0.838548 1.34497 -3.65817
1593 1 1.09986 24.1516 -17.8826 0.0334708 -1.0644 -0.982036
1594 1 9.19627 4.5434 -0.558708 0.739931 2.61172 -0.332921
1595 1 6.78098 16.0734 -5.53927 -0.145402 2.02188 0.392711
1596 1 -4.83842 -2.55848 -19.9888 -0.0292817 -7.60727 0.0291376
1597 1 18.6207 -23.0834 7.71523 -8.82713 5.0746 0.148059
1598 1 4.90097 11.2988 2.66007 -0.570135 -1.93218 2.70462
1599 1 -22.2654 -3.93373 11.5278 -1.32938 -2.26181 1.38625
1600 1 17.9617 -15.7622 -16.9533 3.77906 0.75027 -1.00176
1601 1 6.40012 15.2294 -18.5454 -6.7719 -2.89963 -2.17883
1602 1 -21.4189 -12.7885 -20.4866 2.31403 -2.46867 4.72334
1603 1 6.06201 -9.7337 -12.8807 -6.97046 1.12206 1.91729
1604 1 20.6481 -16.076 -15.9657 -3.75491 -0.692114 1.86993
1605 1 -0.933897 -2.28861 -11.9021 1.73679 0.264449 -0.92216
1606 1 -23.077 19.4754 5.404 -1.21228 -0.215145 -5.4867
1607 1 12.598 -22.7837 -14.9624 2.16164 -1.72792 2.55707
1608 1 -23.8045 4.4771 9.27923 -2.8973 -4.18931 0.820873
1609 1 -23.4313 18.4939 -18.3541 0.685826 2.27644 2.83119
1610 1 -11.1334 20.7619 -14.6601 -0.414372 0.526837 2.14717
1611 1 4.86038 11.6487 -2.12718 0.891345 -0.910351 -1.13871
1612 1 -22.7863 -15.8019 14.7572 3.80255 2.6458 2.92919
1613 1 -1.50278 -16.4593 1.93861 2.94149 -1.00982 -2.71537
1614 1 -16.4946 -13.4649 1.04342 -3.48868 -0.603407 -6.00931
1615 1 -2.13791 -14.5683 -10.3451 1.01711 -4.17659 -4.75036
1616 1 16.3044 -13.5407 -17.9329 0.57795 -1.33862 -2.40201
1617 1 -16.4534 -15.9969 -10.5972 1.41306 2.0462 -2.4694
1618 1 9.95296 18.151 15.154 6.43743 -4.3212 -1.46599
1619 1 15.6346 14.5091 19.465 -2.24242 -3.89968 1.74708
1620 1 14.4102 -11.3092 -9.31275 -0.430264 3.47238 -0.703267
1621 1 -20.5647 3.95395 12.8043 1.67177 -6.33958 -0.420317
1622 1 -15.7352 20.2556 16.4462 3.77762 -7.8146 0.339015
1623 1 -10.7148 -16.1755 16.3864 3.75941 2.32525 2.74391
1624 1 6.76954 20.3699 -21.0731 0.966814 1.78073 1.24428
1625 1 10.9775 13.4907 -8.23402 -0.0246608 2.51756 -3.10028
1626 1 15.4537 0.116563 17.4676 4.68048 -2.66756 1.49959
1627 1 17.6556 -6.16534 -24.143 0.0919264 -2.77379 -2.63901
1628 1 17.4126 2.45101 0.964829 -1.17844 0.120421 1.03996
1629 1 -3.54708 46.8185 15.8389 -0.196501 -6.18591 3.31453
1630 1 13.0809 -7.11072 22.7338 1.84367 4.63266 5.32568
1631 1 -22.5173 -19.756 8.31226 3.60036 4.58181 -1.85733
1632 1 -6.65677 8.22955 -23.7748 -6.23364 3.15304 -2.39001
1633 1 18.3644 19.0318 -22.137 0.462597 -1.50427 -3.18493
1634 1 -20.0639 -8.75775 -22.9411 -2.74759 2.62875 -0.00472034
1635 1 7.4192 -15.1656 -11.0762 2.25082 -7.00877 0.396568
1636 1 19.1106 -8.71755 11.3917 2.13981 1.61236 1.05113
1637 1 -1.19185 19.0228 -4.71003 -1.44685 0.483685 1.70097
1638 1 14.5856 -5.50822 -17.4805 -0.843433 -4.00691 -2.32178
1639 1 12.697 12.1052 19.0161 3.70794 -1.19026 -0.348992
1640 1 -16.6236 -24.0131 -11.3485 0.563398 -0.569961 -1.1761
1641 1 20.5479 -12.145 19.1235 -4.72707 3.24059 -3.40941
1642 1 -1.45608 22.1187 4.88212 4.05895 0.898568 -6.46492
1643 1 -7.94185 22.2137 -6.65643 2.02281 0.0756527 3.23742
1644 1 -19.4884 -0.817353 11.6692 -0.323917 -1.79832 0.29657
1645 1 -6.17038 -6.87607 -7.18823 -1.48453 -0.744695 2.53374
1646 1 -20.8777 -5.99624 -18.1861 -2.5273 -1.25158 -3.51816
1647 1 16.7838 11.8848 -16.5036 -0.898503 -1.77826 -2.14896
1648 1 -19.6902 -14.5085 23.0777 -3.27554 -2.50896 2.17452
1649 1 -17.1122 -6.78822 -11.0291 -1.8362 2.21977 4.39689
1650 1 10.8093 -1.98702 -11.8738 0.557466 1.05299 0.0511359
1651 1 14.5951 -17.621 0.217773 -2.09838 -5.19858 0.210108
1652 1 9.90765 6.74062 -19.491 -0.0930396 1.28774 1.4114
1653 1 13.2642 -22.2104 4.74357 -1.20106 1.35736 3.11231
1654 1 5.82732 -17.6626 9.08023 0.156224 -2.76629 0.103982
1655 1 -1.43761 13.6122 14.0223 -2.50109 1.77645 -4.8822
1656 1 -5.12522 11.8588 17.0926 1.01129 2.13785 2.48636
1657 1 16.6232 7.77523 -13.8847 3.59894 -0.730173 -0.495735
1658 1 -18.6887 18.6503 6.95431 2.41102 4.02515 -0.501601
1659 1 -5.19342 -23.6621 7.98978 5.03905 -0.752779 -2.48525
1660 1 4.9229 -10.826 -21.7597 -1.68792 -6.18635 0.0187127
1661 1 -24.1449 -0.213641 16.3758 -0.142427 -0.885233 3.07172
1662 1 -8.37816 -20.7243 -7.53893 5.19301 1.53707 2.42494
1663 1 -14.2622 -1.8627 -1.55189 0.463172 -3.45327 -0.54605
1664 1 2.97893 -10.9702 -14.5798 2.04212 -2.19631 0.702541
1665 1 -6.90422 6.48409 17.8065 0.086546 -5.40387 1.22633
1666 1 17.6987 -9.09894 -16.0071 -1.5412 1.15289 1.77025
1667 1 -13.9593 0.0750599 7.72115 3.38513 3.90207 1.11156
1668 1 -9.62143 17.6146 7.79268 -2.80241 -6.9282 -1.82008
1669 1 15.5473 46.8056 -11.3957 -3.53219 -4.33384 3.66916
1670 1 4.73899 15.558 -2.46811 5.52089 -2.93079 0.4552
1671 1 -13.6682 9.40878 20.6848 0.660769 0.765677 -1.22731
1672 1 3.53476 10.4342 22.407 -0.372312 -1.44632 -1.56999
1673 1 0.953918 -17.6121 1.25018 -2.9897 -5.1236 -1.09182
1674 1 3.33858 -3.47064 -8.31391 5.18704 2.58027 0.0223709
1675 1 0.69305 8.8579 16.008 -1.08418 2.8973 -2.95616
1676 1 -20.4519 0.936885 -5.10199 5.98342 -0.161389 1.43753
1677 1 -24.7778 -18.1427 10.544 -2.68058 1.24259 -0.596932
1678 1 3.45073 22.4418 -18.6864 3.91311 -5.29182 1.28351
1679 1 -10.0672 22.5875 19.8824 0.73522 -6.23667 3.47305
1680 1 23.8353 -19.1362 -20.6772 0.136386 0.350523 1.60964
1681 1 -17.2957 -8.36169 -22.4421 -2.06564 -0.0597459 1.62892
1682 1 7.80616 9.25241 -0.360509 1.38124 3.24564 -0.808999
1683 1 14.8236 23.0105 -15.8818 0.400481 0.51798 -2.16165
1684 1 5.94209 15.8883 16.5706 1.82064 2.85988 4.76439
1685 1 -22.2047 16.5398 23.7755 1.3148 -0.681738 4.16539
1686 1 11.1238 -10.778 22.0515 -0.693128 3.2989 -3.54585
1687 1 22.5883 -16.8669 -13.7574 -2.28725 -1.11559 -3.33407
1688 1 -19.1872 -2.39809 -12.714 3.71977 -0.105261 2.0917
1689 1 3.06549 -24.0645 -1.4608 -3.05849 2.43436 0.0112496
1690 1 -5.8732 -23.0258 11.9362 -1.19095 -0.873247 -0.618818
1691 1 -16.7835 -13.0189 5.29302 -1.73703 -0.864286 3.64365
1692 1 -0.752679 21.0412 -6.54736 -0.577857 -2.92305 -0.818507
1693 1 18.6142 8.11391 21.785 -5.78402 1.45596 3.04988
1694 1 -14.1095 2.76481 -13.195 4.90156 3.36426 3.94065
1695 1 17.5998 45.7502 -9.43951 -0.494177 -2.42538 -1.29353
1696 1 11.1846 -2.60978 3.20911 -1.11289 5.69917 -3.28281
1697 1 -10.8628 -22.9688 6.63134 -0.0631202 3.36986 -6.66396
1698 1 -8.85547 11.1286 -1.97177 -1.72759 -0.646797 -2.20327
1699 1 13.6174 1.94017 15.3682 -4.49873 -2.84339 0.963149
1700 1 13.1449 -1.19866 -13.4934 -1.18998 0.528266 -2.54503
1701 1 11.6289 24.1527 -4.87515 -3.72965 -0.317977 -3.14203
1702 1 1.92728 -19.021 11.6571 2.86368 -0.497768 5.00032
1703 1 2.74684 2.76151 -14.037 1.21432 -2.75496 -2.57922
1704 1 -8.4138 -11.6086 4.02315 3.54798 0.0790096 0.571252
1705 1 -0.526033 23.9849 19.5361 -3.22107 -0.393322 1.63254
1706 1 5.54759 10.9775 -18.181 0.0883362 -7.80408 2.59379
1707 1 -11.66 -7.86219 15.4291 -0.944196 -3.39079 5.66892
1708 1 -5.56239 21.4626 12.7499 -1.31352 0.134712 0.0713558
1709 1 18.4353 19.2944 -1.9177 -2.30247 -3.47869 -4.12408
1710 1 -6.78183 -21.2838 -12.8598 2.45853 8.61886 -3.87709
1711 1 -3.62245 3.84178 1.57595 -2.41049 3.78692 -2.27951
1712 1 11.717 14.5498 -20.4849 1.06187 -2.49787 -0.432479
1713 1 22.1659 17.1949 13.5841 -1.19849 1.67329 -1.63834
1714 1 6.25822 0.663248 -10.3195 4.2709 -0.930814 -4.22871
1715 1 12.1657 25.403 17.3665 1.65964 2.08743 2.31103
1716 1 16.4083 -23.7241 21.9652 0.912675 -2.97724 -0.455814
1717 1 9.79194 -14.4545 -0.3463 -3.9826 0.833209 -0.246615
1718 1 10.1508 -19.627 -11.6919 1.22127 2.23562 -5.19818
1719 1 22.517 7.82038 1.65263 -0.292156 -1.9687 2.91241
1720 1 -2.29078 -22.8591 8.66923 -2.00626 -0.492701 2.04774
1721 1 5.35076 2.2619 10.5397 4.06423 -0.255468 -2.25574
1722 1 19.4655 -22.7937 16.4196 2.13089 -2.03988 3.89205
1723 1 -22.9849 16.8969 2.35163 -5.53319 -0.501021 1.00888
1724 1 -17.73 47.0943 -1.36875 4.94198 1.87906 -3.95372
1725 1 -15.4112 7.30302 -17.3269 -4.95086 4.65441 0.675538
1726 1 18.322 21.5311 23.684 -1.13592 8.98061 -1.12054
1727 1 22.389 -3.84911 -19.288 -5.06929 0.823743 -4.25558
1728 1 -23.7545 -5.76712 -18.9019 5.27211 -3.65698 -3.23602
1729 1 -13.0715 7.45095 13.7859 -1.15557 2.32418 -2.77946
1730 1 -2.82932 -9.33186 23.6533 -0.119658 1.40262 -0.273216
1731 1 21.5258 5.20767 -3.77608 -0.220883 0.907575 1.50301
1732 1 15.4312 -13.2376 8.02527 0.648951 -6.14273 3.01037
1733 1 -10.6912 -16.6938 8.40667 0.836339 -0.861377 3.64607
1734 1 -7.09314 25.3912 -22.9085 -1.03184 -0.974365 3.73629
1735 1 1.09814 21.2556 -17.1334 2.08925 0.606973 -2.83618
1736 1 17.9472 5.27225 11.4099 1.54152 -3.19502 -2.52207
1737 1 -18.7131 0.657131 -7.25348 5.93685 6.51645 3.9825
1738 1 2.71993 12.8039 -22.5506 2.95095 1.74843 -1.70616
1739 1 -5.44579 -19.8834 14.3558 -2.43272 1.8658 -4.37454
1740 1 3.36188 19.8624 15.8793 1.87295 0.309557 -1.79789
1741 1 12.0042 11.9766 -23.8513 5.78292 -4.86571 2.84265
1742 1 1.47634 -6.84053 22.0938 1.89171 -1.2584 -0.475682
1743 1 18.849 -15.7613 10.366 1.58206 -1.0207 3.10546
1744 1 15.2402 21.3817 -5.54692 -5.08912 -2.22005 1.06321
1745 1 5.97394 12.6169 -6.79742 -5.31719 7.88544 -2.65119
1746 1 17.6954 24.8359 -11.7733 1.94871 -5.20768 2.70237
1747 1 3.65276 -16.1433 -7.15235 0.302492 -3.9189 -0.444304
1748 1 14.5493 -0.210733 -5.10922 -5.22393 1.33957 -0.667221
1749 1 21.6241 10.3493 15.2922 1.77815 -1.29342 5.20818
1750 1 16.6611 24.052 13.1815 -0.229509 -3.62543 3.27853
1751 1 1.03567 -7.31431 13.6134 -0.943971 -0.995613 6.78688
1752 1 22.4635 20.0773 -18.4811 -2.50482 5.66226 -3.1789
1753 1 -22.9385 -15.2719 -21.1964 0.196946 -7.07755 -1.39361
1754 1 21.0276 9.94942 -21.4948 -3.70949 -2.06961 1.11437
1755 1 -10.596 -1.42687 -9.45555 -5.97884 3.23073 -5.28153
1756 1 -16.2936 4.35725 8.08606 1.38099 2.21765 0.255603
1757 1 18.1807 -12.8939 -8.10875 2.58533 -0.506616 -2.01571
1758 1 21.512 -23.6885 7.43527 5.14214 -3.34469 -0.0514088
1759 1 22.2785 10.4975 12.5733 -1.98791 -4.73005 5.74945
1760 1 -18.132 -13.8415 -22.8842 1.28353 0.254264 1.85208
1761 1 22.6546 -16.5378 -21.3853 -6.01901 -2.546 1.28897
1762 1 4.60401 18.4307 5.35858 -1.76326 -2.86008 5.80714
1763 1 -2.78336 3.9021 12.8824 -0.725923 3.81064 2.29701
1764 1 -14.9122 19.1902 -12.9248 -4.33489 2.87996 1.96277
1765 1 3.91678 -18.0993 -5.0642 -0.0967908 0.580529 2.67731
1766 1 -18.7578 2.43236 16.0693 -0.618032 0.977952 3.28596
1767 1 9.56042 24.0465 18.5602 4.87335 0.286967 -1.00116
1768 1 12.3859 -3.95712 7.80717 -6.15177 0.818404 -1.97902
1769 1 -23.2682 16.4785 16.1533 -2.00933 -2.97696 0.75482
1770 1 -8.88178 -5.65115 20.4751 0.371813 0.726897 -5.43628
1771 1 -0.169626 22.0282 9.04321 0.816389 -0.980965 0.560254
1772 1 14.948 -20.5619 2.74597 1.76439 1.12939 -1.70352
1773 1 18.1315 13.9478 8.56356 5.24653 -0.277037 1.98341
1774 1 14.4097 -20.3726 19.4044 -1.2592 -2.95307 3.97898
1775 1 6.9773 13.5008 -9.40411 3.5488 -1.60935 -0.778561
1776 1 10.9787 12.9208 -1.05317 -3.8165 1.19033 -1.30749
1777 1 -23.1584 -9.65169 16.0901 4.00375 -3.7366 1.0429
1778 1 -16.4266 -7.65547 -13.7917 3.76388 2.59659 3.72481
1779 1 6.24611 3.49052 -3.91698 3.35659 -3.94647 0.328568
1780 1 5.3586 6.9079 -5.74448 6.34655 -5.25212 1.09413
1781 1 8.25001 18.52 -22.7884 -0.800965 0.685007 1.97511
1782 1 -22.349 -14.8171 -10.5658 -7.50394 -3.92657 3.81435
1783 1 16.1075 8.19178 -7.72235 4.15061 -2.32748 -1.0719
1784 1 -8.805 14.654 13.8051 1.61303 -2.16545 1.56067
1785 1 -6.88845 6.45536 -9.88048 -0.99481 -0.386269 1.8572
1786 1 -6.42005 -0.218502 -6.55957 -2.27381 1.14219 0.00336394
1787 1 5.25694 19.834 -13.4326 -2.63102 3.67562 -2.18021
1788 1 -15.1532 -16.5184 16.3743 -3.34021 -4.51286 2.35633
1789 1 -24.1352 -1.65238 -5.37972 0.970386 -0.100254 -2.69178
1790 1 7.58089 3.65453 -12.8497 -0.378045 -2.74472 0.585816
1791 1 0.548435 -7.56487 -16.2252 -0.459834 1.25317 1.16484
1792 1 -15.5076 6.22616 6.08012 -0.558208 3.53104 -0.387255
1793 1 16.8354 7.96981 -21.8156 -1.15169 3.89588 0.358037
1794 1 16.7146 1.79106 -19.0858 -5.46133 -2.92953 -3.38084
1795 1 14.7763 -1.8312 -11.3528 -1.13669 -1.34362 1.16211
1796 1 -22.5825 -10.0581 -23.8096 1.73593 5.94799 3.40045
1797 1 0.879964 16.1871 15.6335 -0.664158 4.29398 2.22625
1798 1 18.7922 -7.80987 -18.6291 -0.744913 -2.02469 -1.58777
1799 1 -11.8617 8.49412 -14.9231 -0.822624 -0.848632 -1.61662
1800 1 -1.52543 0.245099 10.5667 -0.272153 -6.42917 5.01359
1801 1 -11.4078 -20.6732 -3.6731 -4.4665 0.146396 -1.19624
1802 1 -18.8464 -18.9509 -10.5898 -5.00632 -0.117523 2.82784
1803 1 -15.1247 13.8844 -8.98241 4.41436 -0.321298 -0.846496
1804 1 -2.78879 -22.5089 -14.4109 0.455934 0.497217 3.90725
1805 1 9.86996 4.75759 -7.97112 -0.177654 -2.65866 -2.77335
1806 1 10.3234 -3.66318 16.7872 -1.92386 1.89826 -0.0285501
1807 1 -18.8491 -8.81774 22.75 2.36469 3.28646 3.90105
1808 1 20.3561 -9.79226 17.4567 5.22571 0.3227 -2.19504
1809 1 10.5777 18.8892 0.0117159 3.43879 0.44465 -3.77748
1810 1 11.2254 -21.6612 -5.32177 0.486127 1.84749 -2.09872
1811 1 -1.82938 3.51938 20.218 -4.5758 -5.88706 -2.16162
1812 1 -10.3368 -3.92138 -21.2282 3.44262 -2.25179 1.53744
1813 1 -15.9102 8.61723 17.9068 -5.3545 0.747275 -4.59233
1814 1 11.4391 4.4448 -10.3841 0.458779 -4.53756 -2.5024
1815 1 13.1931 -2.81441 -23.2837 -4.97097 1.08455 -5.212
1816 1 0.101607 18.075 -10.6057 -4.59179 -2.06018 -0.401684
1817 1 -1.8099 17.878 -17.3876 -6.10489 1.89264 -0.143053
1818 1 -21.1673 -9.28297 6.78815 -1.67142 -0.29563 -1.2571
1819 1 -13.7969 -11.0233 18.3033 -1.86452 -5.69908 -3.55234
1820 1 15.5829 12.9902 -11.9402 -1.44832 -0.700329 0.10981
1821 1 20.6348 22.8121 12.8854 -3.63269 6.61205 -4.42096
1822 1 15.8604 -2.98992 -2.327 -1.90266 1.69675 2.26721
1823 1 7.48441 45.8071 11.2521 1.99903 -5.81089 -2.55977
1824 1 -16.4676 -18.9367 8.56462 -0.32114 -4.9279 1.55324
1825 1 8.97556 -10.6546 -5.18954 -0.613397 -2.40347 2.15776
1826 1 20.0538 10.8028 4.52851 -0.611207 0.247428 -4.89289
1827 1 15.4301 -21.5428 -2.28332 3.31114 2.72242 -0.123034
1828 1 -13.0639 -21.7883 -21.8781 -0.239813 -3.80422 -3.50148
1829 1 5.49498 15.8164 7.01616 -4.87468 -5.00828 2.50351
1830 1 -15.9881 3.04032 -16.8073 -1.80896 0.464474 2.77883
1831 1 13.8315 -15.6023 -4.04426 0.977877 -0.284985 -0.864362
1832 1 -23.5237 -12.193 22.7929 1.56065 -1.15587 -0.793135
1833 1 -10.6911 2.32442 20.094 1.00257 -0.0840833 1.74751
1834 1 6.669 -8.97311 -20.2504 -0.0303261 3.42875 0.151878
1835 1 5.12345 22.7082 18.7964 1.96048 2.89864 1.49225
1836 1 -10.5712 46.289 -19.1448 5.24991 2.37569 2.11615
1837 1 14.3399 -20.7278 8.5085 -3.30644 -3.39228 2.13533
1838 1 19.7987 21.875 1.25842 0.988117 -1.51801 0.0667398
1839 1 18.9262 21.3684 5.76321 0.66081 -0.705695 1.1949
1840 1 -21.1194 -12.7344 -0.193185 0.128105 -2.43354 -0.840392
1841 1 9.16453 -23.7283 -11.2089 -1.00934 -1.82772 -2.51538
1842 1 15.8076 -17.8051 2.87396 -0.196134 -1.72422 1.4654
1843 1 9.62685 -1.94007 -20.2013 1.53487 -0.738477 4.04436
1844 1 -6.91664 -1.19597 4.08182 0.307597 -1.74636 -2.96955
1845 1 20.7741 17.8403 -23.2225 -4.45872 1.47526 0.860965
1846 1 12.5665 -19.4473 5.19374 6.24873 3.01591 0.781615
1847 1 18.5311 -14.199 20.3155 3.83391 -4.03379 -1.69972
1848 1 6.15925 7.61796 -14.5545 -0.345989 2.59292 -1.84741
1849 1 13.037 -24.4471 -12.4939 -1.36203 1.8947 2.50094
1850 1 17.5394 -20.8696 -5.94472 2.36416 -2.38473 0.347762
1851 1 -7.19239 3.5345 -1.267 0.684423 4.53207 -0.112898
1852 1 0.875955 1.40196 -20.2582 5.23027 -3.84844 3.37376
1853 1 1.93362 -12.0046 5.78506 3.87843 1.76712 2.02767
1854 1 4.79865 46.9297 10.7983 -3.11253 -0.0948037 0.828214
1855 1 0.375753 25.3799 -15.3331 1.23807 -1.61416 0.263998
1856 1 9.54552 -4.04862 -18.3977 6.73505 2.89319 -3.41296
1857 1 0.242794 -20.0856 2.4047 -3.4784 -0.475871 -0.00732596
1858 1 2.44579 -15.516 -12.5443 2.69319 -3.24346 1.00665
1859 1 6.21098 -15.2083 -15.8179 2.89206 0.185858 6.86173
1860 1 7.68332 0.688359 9.88579 -2.1809 0.813744 -1.44829
1861 1 -15.3786 -22.4807 -17.6752 5.63053 5.76079 -2.47462
1862 1 -13.8469 -1.40065 -9.41172 -1.40404 -0.61547 -1.96883
1863 1 -2.83447 -14.9391 -7.57922 2.67433 -0.0202309 4.00026
1864 1 -6.30888 12.3391 19.8022 0.731466 1.37264 -0.0137078
1865 1 -10.5445 -3.67842 5.57019 1.37601 3.2379 1.41174
1866 1 7.93796 21.1819 12.6565 2.0514 -2.20206 4.75195
1867 1 6.8629 -8.03714 -1.03176 1.56444 1.40144 1.40747
1868 1 -8.16013 2.89831 18.644 5.70273 -0.263438 1.25534
1869 1 -1.51985 23.924 16.8322 1.83942 -0.947869 1.62485
1870 1 -18.573 11.0478 14.2921 2.88363 2.0079 -4.35834
1871 1 18.3989 -11.5192 4.25994 -0.282582 1.70069 -7.09317
1872 1 -1.66225 -9.10834 -10.247 2.17797 -2.46519 -2.36332
1873 1 -10.1595 14.8596 8.19119 -1.077 -0.413627 2.0585
1874 1 -11.2134 -15.8526 -20.1923 -2.39445 -0.5631 5.4515
1875 1 23.3295 -7.58888 -10.8384 1.19744 0.756156 5.59524
1876 1 -22.7212 9.33469 -18.9516 -2.70123 -0.873222 1.68549
1877 1 -16.1376 -4.97515 7.69041 -2.4111 -3.60939 -0.687935
1878 1 -24.2477 24.3257 -0.526436 0.516769 -0.263559 4.02114
1879 1 -20.8449 -18.105 -18.3186 0.55676 -2.07514 1.00077
1880 1 -1.31154 23.3273 -19.5135 -0.290297 5.50251 -4.426
1881 1 12.1627 5.45857 20.276 0.564461 -5.25727 -3.00863
1882 1 -9.51031 7.93067 17.9365 7.00321 -4.08008 -1.77843
1883 1 -6.79191 -14.6869 -7.67024 -0.992997 -2.59091 -2.79126
1884 1 16.8305 14.5078 11.1577 -0.873529 3.70564 -1.37896
1885 1 -6.88067 18.6328 22.3617 -1.54622 -0.953405 -0.630552
1886 1 18.8561 21.7263 8.82997 0.442459 1.45725 2.92902
1887 1 17.856 -4.18669 16.3388 -0.0536053 -0.0613076 3.72984
1888 1 -9.60183 -18.8577 -15.5326 -0.362464 -4.15867 -2.21323
1889 1 -12.9372 1.39074 10.2585 -0.667764 1.98459 0.125075
1890 1 21.5391 8.40345 -23.9511 -0.16325 6.97863 0.448244
1891 1 -11.4706 -15.7738 -23.1174 -3.86794 0.482139 -5.15873
1892 1 -1.338 -13.9113 -15.5926 -5.79769 2.59406 1.24091
1893 1 2.21334 -0.10462 22.8236 2.74536 0.596842 1.76708
1894 1 0.675408 -18.3243 -5.67901 -0.0112955 -3.00486 -0.695898
1895 1 -20.9103 -5.87088 16.7592 -1.66466 -4.26967 -4.13991
1896 1 16.0067 22.2838 0.973599 1.35788 4.49903 -0.606717
1897 1 -12.4566 45.1478 -9.03088 -0.233387 1.84685 -0.464757
1898 1 -22.1412 19.7512 12.9584 8.2483 0.0972923 5.67612
1899 1 -5.67398 19.1439 -5.65386 0.218408 -1.31666 2.76197
1900 1 -12.0799 0.254675 4.42144 2.17052 -0.540257 0.12099
1901 1 -11.3226 -14.7785 -17.5475 -3.14586 -1.03226 0.156478
1902 1 19.817 -0.185583 -21.1962 5.6123 2.85515 1.42742
1903 1 0.407717 -16.0356 -14.7475 4.07239 1.70046 -1.25191
1904 1 -7.33005 -21.8862 16.4108 0.675175 -3.80699 0.519205
1905 1 -14.4103 8.93964 -8.20395 2.54268 -3.63396 -1.63888
1906 1 -21.0189 -24.2386 12.1777 1.30906 0.379762 1.56093
1907 1 -21.9377 -9.74856 13.5792 -2.2031 -3.53952 -0.421859
1908 1 -14.9314 -5.82554 0.242878 -1.78906 -3.15939 -2.27454
1909 1 10.1127 -10.0161 10.2291 3.78266 0.221985 -3.20968
1910 1 -7.4206 -10.2609 15.3156 2.82903 -0.696409 2.53883
1911 1 19.8222 -2.24001 -5.59812 0.204952 2.7005 2.42283
1912 1 -16.5469 4.34275 -0.0689225 3.86957 -0.999489 -4.79055
1913 1 1.07123 18.6585 -0.873449 0.439269 3.05707 -0.0404944
1914 1 20.4566 6.99183 3.44126 0.474257 1.2258 -2.54357
1915 1 19.7738 -22.7365 -15.3574 -1.18076 -4.49741 -2.77887
1916 1 -5.2418 16.2376 3.10696 6.58638 -2.51918 3.26032
1917 1 -22.616 23.8724 17.4079 3.30873 -1.78623 0.797415
1918 1 -18.1852 -1.67669 -20.2996 -3.62443 2.70498 0.640615
1919 1 -21.7665 10.3489 -14.1427 -1.06738 -3.71955 1.54777
1920 1 23.1431 -15.5666 0.383918 0.877764 -0.562781 1.23451
1921 1 18.631 12.9915 -4.98569 2.38794 -3.11576 -5.12756
1922 1 7.80432 15.1955 20.4864 -3.47721 0.520112 -2.74979
1923 1 13.1884 0.462902 -10.2397 -3.29575 -1.59784 -4.88676
1924 1 23.4947 -17.7227 -1.45281 7.19547 -0.274006 2.39946
1925 1 19.5101 -21.9841 19.1071 -1.77423 1.59281 2.73508
1926 1 13.802 -4.81657 -6.60903 0.715479 -3.92832 3.18598
1927 1 -8.33305 -23.6888 -22.9988 -3.28795 1.66356 2.00701
1928 1 21.7145 -4.05818 5.61334 2.03641 4.38796 -1.02697
1929 1 8.42651 19.6457 1.83896 -7.66356 -4.88484 3.88049
1930 1 -6.64524 -14.0226 -18.8902 1.08511 3.59915 -3.53216
1931 1 -10.2708 6.86793 -2.53316 -5.23376 1.47544 4.75123
1932 1 -0.665814 18.4201 6.81687 -0.896629 0.127557 -2.03402
1933 1 -4.3678 19.494 -20.5993 -2.14077 -0.549235 -3.52737
1934 1 1.83997 -10.5344 -0.909599 0.433114 1.86063 4.74438
1935 1 19.0574 -14.1805 2.74281 0.468001 -5.18328 -4.17294
1936 1 18.8555 -23.1806 23.3153 -1.63394 2.95632 -1.13901
1937 1 1.87951 3.72093 19.3949 1.37222 -2.47552 0.444976
1938 1 1.24408 6.25029 17.4915 2.49518 -1.90734 1.77852
1939 1 12.3979 11.394 4.403 -0.868861 5.4287 4.65491
1940 1 -20.0417 -24.8044 5.42882 2.35238 -1.58409 2.00798
1941 1 -0.0441929 -22.8505 -13.738 3.49103 3.97356 6.30691
1942 1 -1.7242 8.35767 -3.26709 -1.90295 3.8452 -1.74331
1943 1 4.57029 17.6992 -6.04088 1.81353 0.614136 0.487448
1944 1 -20.2404 -24.0576 -2.7747 -0.807666 -4.32218 4.62911
1945 1 -24.0423 -19.7016 20.6597 -4.36435 -0.14148 -0.356387
1946 1 8.89793 9.22336 -5.42688 -1.85018 -4.26527 -1.63219
1947 1 -16.7028 13.5084 -14.7076 0.139598 -1.58239 -1.97655
1948 1 12.7564 1.96985 -15.1 1.52552 1.21353 -1.80469
1949 1 -8.51389 -7.60422 -8.80318 -1.63974 2.57027 -2.22488
1950 1 23.7088 21.537 -7.15435 0.163144 2.14261 -3.60898
1951 1 -5.08951 -11.4774 13.8223 -6.60036 -2.75025 0.543075
1952 1 5.35613 -15.4911 -13.0938 1.00288 0.0414106 2.93641
1953 1 15.6683 -18.8376 -2.17017 0.195743 -3.84338 -2.16678
1954 1 5.57335 7.40739 10.4098 3.10273 3.1467 0.642152
1955 1 -13.7406 -17.5359 22.5711 0.392604 -1.78972 -4.13172
1956 1 -4.91729 0.928055 7.06298 -1.06244 0.613707 -3.63909
1957 1 13.7731 15.3175 8.90943 0.552902 -3.09346 -0.0624562
1958 1 13.3126 6.21778 17.4857 0.118769 2.36924 -2.67566
1959 1 23.4958 -4.08425 -1.82705 -6.52688 -1.67019 1.20063
1960 1 -14.6921 -4.20281 -20.4938 1.49194 -0.0345407 0.413164
1961 1 16.5842 -12.4993 -5.68752 -3.23837 -2.1144 0.000820871
1962 1 0.834505 -11.8919 -3.03641 5.81732 0.217947 -0.818689
1963 1 -1.24569 18.0758 1.17664 4.2844 0.876105 1.88506
1964 1 22.0877 24.6988 -14.0681 0.0464128 0.492141 2.24775
1965 1 17.5467 -3.95706 20.9694 0.38821 0.165821 -0.38117
1966 1 -20.5961 -17.064 -11.9424 -2.56071 3.31767 -1.17467
1967 1 -14.5477 -22.5111 16.2521 3.0967 2.38189 -1.49004
1968 1 -21.9106 12.8313 14.172 -4.80949 -3.62657 0.700832
1969 1 -5.22654 -7.02488 8.27367 3.88552 4.69078 1.69693
1970 1 21.58 -7.81902 -1.18532 1.05807 -4.51952 -3.29011
1971 1 22.2106 -0.73695 8.58753 5.21605 1.3367 2.56089
1972 1 -3.12216 -6.2561 5.89709 -0.589779 -5.14125 1.84947
1973 1 14.1341 -15.9714 19.13 0.141485 2.02059 0.610118
1974 1 16.9464 -10.4232 10.2131 -1.6424 2.50025 -1.68236
1975 1 11.2306 -16.164 -18.2318 -6.31233 1.97889 -1.7611
1976 1 20.7559 -10.328 -23.3549 -3.31893 2.79865 3.91729
1977 1 16.3144 -13.6789 12.7126 1.70423 -0.951394 0.647202
1978 1 6.023 -3.21903 24.1179 5.70152 0.736453 3.28437
1979 1 -0.837681 21.5954 12.0171 0.084593 -0.18378 0.534651
1980 1 -22.1263 5.19321 -19.3512 2.56311 -0.403747 1.63882
1981 1 16.1666 22.8797 -3.15531 -0.157705 1.00835 0.194885
1982 1 -19.7316 -3.36732 23.6316 2.27916 -3.40085 5.17543
1983 1 17.1599 -5.4794 -5.21151 -5.7868 1.5911 4.87198
1984 1 2.94157 19.1041 19.2122 5.0331 1.83243 -0.154838
1985 1 2.88912 -23.5548 -9.51357 -3.61193 -0.415485 3.78425
1986 1 12.4155 -5.13197 2.37067 3.04671 -5.40954 0.713158
1987 1 -21.6059 2.99989 10.3465 2.27896 -4.07099 4.7504
1988 1 8.79778 17.7254 9.4972 -1.04108 -6.92012 -3.73013
1989 1 -10.7373 -14.0418 10.5141 -2.64683 3.35654 4.56005
1990 1 19.7601 -14.7102 -6.51976 -1.18834 1.71507 4.31722
1991 1 -23.3165 -22.2042 20.0954 -3.02897 -4.01637 3.30218
1992 1 12.7512 19.4242 4.11761 1.63784 -1.0217 0.837231
1993 1 3.52962 13.4272 -13.547 -6.09746 -1.62655 -2.92402
1994 1 -21.8473 -17.2725 4.81741 -0.874821 1.97613 2.28527
1995 1 0.761917 2.18179 13.8114 2.93167 3.0817 -1.68813
1996 1 -10.4582 8.12878 -23.165 1.09434 0.53019 5.10177
1997 1 20.5015 23.5918 10.0538 -0.0977822 -2.76524 -4.5341
1998 1 -13.3188 11.1738 -0.717863 2.71781 -2.88117 -0.75484
1999 1 -1.46199 -11.9293 21.5636 -2.86117 0.00886968 1.26859
2000 1 3.74089 1.95089 -20.3114 3.27902 4.10423 -1.21028
2001 1 -10.9018 -11.4647 -3.59049 -5.9268 1.4702 3.47434
2002 1 -20.4049 22.263 -8.1411 4.29741 3.38285 0.647274
2003 1 11.8856 -3.79666 -10.0257 0.0841438 4.04134 0.586087
2004 1 -0.954084 -21.9076 23.9486 5.86677 -2.40148 -2.11171
2005 1 5.50103 -4.90927 18.396 1.40701 4.3656 0.868716
2006 1 9.96469 -12.6574 -9.2127 -1.41898 -8.87323 -0.390991
2007 1 -9.41432 13.9895 -11.5868 -4.0668 0.713129 -0.155172
2008 1 -8.29056 22.4353 12.9045 4.67071 1.15673 1.429
2009 1 -4.13535 1.17242 -1.24352 1.23981 -1.19473 -2.68455
2010 1 -5.80152 2.18262 23.417 -0.966685 0.691262 -0.32366
2011 1 -3.46521 9.10491 19.2276 -1.27244 4.75643 3.18855
2012 1 19.1248 -18.4116 14.503 -0.633048 7.50836 -1.42963
2013 1 -13.4598 22.9389 5.14537 -0.627807 0.601879 -3.96329
2014 1 -7.78148 -8.34235 13.0204 1.73503 -2.71572 -3.03803
2015 1 -3.30261 -8.4595 -2.63834 -4.35832 -1.98693 -2.59496
2016 1 -4.93847 -17.0337 -7.93014 2.40128 -0.35447 -0.842491
2017 1 10.7905 8.63725 22.4223 -1.18088 4.23273 3.43565
2018 1 -17.1426 -0.88813 6.078 -2.95892 -1.84662 3.3914
2019 1 1.54187 22.3625 19.7022 -0.432759 0.303871 -5.84066
2020 1 7.78729 -13.1774 -15.0542 2.41873 -6.67091 1.30227
2021 1 -4.64051 12.9125 11.6935 0.581776 -3.3346 -0.796902
2022 1 18.1779 25.022 10.8663 2.00768 -2.28557 3.34889
2023 1 -20.2499 -11.7156 8.09282 1.80698 -4.99294 0.508279
2024 1 9.29124 9.91874 12.405 -5.47097 -0.382165 -4.93561
2025 1 6.4601 -11.6988 24.126 1.87253 -0.476013 1.82033
2026 1 9.19855 20.5522 10.1177 -2.29959 -1.16369 -1.82307
2027 1 6.14214 18.0588 -11.3613 -2.73983 -1.13552 -1.06527
2028 1 2.63694 -2.3534 -20.6214 3.64684 2.50828 2.74811
2029 1 15.162 -8.41161 -2.54115 -0.516531 3.9538 4.73479
2030 1 10.0616 -18.1798 -21.9145 0.348685 -1.3888 -4.53252
2031 1 -5.59901 -20.5955 -9.12671 -3.52979 -7.44786 3.09937
2032 1 -8.4366 5.27167 3.98139 5.77293 -1.73631 6.81984
2033 1 9.06241 14.9657 0.15063 -5.20003 1.95667 1.66885
2034 1 -9.30905 -2.65292 -16.2806 0.324851 -0.823759 2.94896
2035 1 16.7102 -15.2897 23.4128 0.269407 -1.70999 5.49063
2036 1 -15.8428 7.45416 -22.1636 -2.19422 -1.57852 0.624782
2037 1 -16.9034 8.90996 10.7217 3.13941 3.17367 -3.92938
2038 1 18.0082 0.233143 11.5392 1.78868 2.57416 -2.80096
2039 1 8.58808 -22.3193 -22.6284 -4.79129 0.728474 0.107089
2040 1 -6.37279 -23.7642 -4.46113 2.16846 9.09966 -0.150485
2041 1 -13.5101 -12.9899 23.0593 0.190904 -1.01486 0.0197497
2042 1 5.99006 -21.3333 22.7143 -0.738974 -5.05643 2.01516
2043 1 18.3556 13.067 13.4731 1.68641 4.84062 -0.316843
2044 1 3.53718 -5.5678 3.36398 -0.415296 -4.34174 4.36582
2045 1 6.66908 -17.9472 -15.852 3.42763 -4.01432 3.18092
2046 1 -7.37297 16.1774 17.9466 0.566354 1.39352 -4.00199
2047 1 -7.26363 -13.7269 6.88791 3.27966 0.921863 -0.369808
2048 1 1.14535 14.3848 -16.7903 0.406502 -2.65105 -3.99851
2049 1 18.5576 21.5088 -17.4394 2.75942 -2.42182 6.76125
2050 1 -11.5871 5.44227 -9.62938 -0.887327 2.01279 1.13081
2051 1 -22.141 9.13929 -3.58989 0.662347 -1.2111 -3.83875
2052 1 -9.25213 3.62016 -20.6417 -2.73695 -3.19055 3.00402
2053 1 -23.8569 12.3869 -18.6765 -1.91689 3.28006 -2.37786
2054 1 15.2782 3.61907 -0.745078 3.51903 -3.35875 4.67898
2055 1 5.09418 13.032 7.65106 -1.56214 0.516423 -5.80378
2056 1 -4.80889 24.4359 23.7317 1.26854 1.81939 -2.38589
2057 1 16.3906 -4.84575 7.78732 -2.63042 3.14867 -1.42012
2058 1 21.1528 9.46633 -12.0898 3.55572 1.58062 -0.147835
2059 1 2.42795 -9.67163 21.9393 -1.4486 1.47281 2.64601
2060 1 -8.75267 -3.27459 -5.41042 -1.11052 0.0357967 -0.421537
2061 1 -17.0125 -24.8041 -24.3557 1.40869 -7.09315 0.259894
2062 1 -16.6356 20.0342 -8.40475 2.59455 -0.421455 4.91187
2063 1 -10.4971 -11.9956 -18.1152 1.50137 3.39712 -1.7057
2064 1 -14 -17.432 9.57048 3.22019 1.87724 3.93576
2065 1 14.5763 -19.1507 22.201 -0.20485 1.90099 0.336762
2066 1 19.4205 7.71037 10.5758 -1.67725 -0.165775 0.999089
2067 1 23.0721 8.32749 21.7398 2.96693 -0.672706 -2.23322
2068 1 -15.4499 10.339 -5.48858 -0.211492 -0.13009 -6.66513
2069 1 20.992 -23.4875 -11.3988 -5.06122 1.09274 -3.32524
2070 1 -24.5513 0.714332 -0.992621 -3.51184 -1.35989 -1.92715
2071 1 -20.8387 -14.2002 20.612 3.02175 1.54541 0.86318
2072 1 -18.6523 6.64777 21.1079 -3.7137 -3.03512 -0.603842
2073 1 -18.1451 8.369 -16.9553 1.55781 -0.377413 -2.73492
2074 1 3.07912 10.7312 -11.0277 0.43863 -0.562583 0.96348
2075 1 -9.09311 -15.9595 22.2503 1.36777 3.15936 -2.09571
2076 1 -13.6219 25.2137 -8.77409 1.79343 2.30591 -5.30052
2077 1 -17.2227 -4.43834 3.75086 -1.39938 1.82132 -1.35589
2078 1 -13.184 2.44423 -22.6363 1.15752 2.36977 0.754995
2079 1 6.87525 -15.1157 -18.6726 2.3188 -5.05418 0.787106
2080 1 -23.0451 -22.6535 -16.1266 -0.598835 3.36588 1.98929
2081 1 -23.7027 17.445 -15.6705 -4.01843 -0.254884 -2.85346
2082 1 -8.65826 16.9946 2.23733 0.0634169 -1.42378 -0.747281
2083 1 18.9047 9.07615 -7.8427 -0.95804 0.752663 3.22842
2084 1 15.9554 18.7441 21.323 0.177671 -0.554398 3.52699
2085 1 -19.8714 -21.6692 -10.3751 0.0393468 0.470558 -1.28695
2086 1 -11.3854 -14.4719 6.21524 2.28705 -2.03323 -0.356088
2087 1 -11.1462 5.39986 -16.6643 2.97335 1.39488 3.12899
2088 1 9.47311 20.6171 21.2921 -5.24933 -3.88806 -0.248441
2089 1 9.30127 14.1301 -18.9461 2.722 -2.08971 3.31846
2090 1 16.3104 7.89133 18.017 0.649957 1.26082 6.49738
2091 1 -8.30459 6.99992 12.9529 -4.00784 -0.403446 2.54539
2092 1 -17.7261 23.9246 -22.2839 -0.938283 0.444915 3.93497
2093 1 -2.05548 12.4192 -2.68862 1.44736 9.0353 4.93026
2094 1 23.678 12.4309 -1.84572 1.08677 3.05581 1.11242
2095 1 -20.6594 -9.10612 4.00187 -0.292562 -2.26155 3.98645
2096 1 8.88671 -5.04324 -0.037732 3.28185 4.6275 2.10143
2097 1 -4.09048 5.40529 9.60242 3.04832 3.92849 -2.33028
2098 1 -15.246 -17.5103 -8.295 -2.0304 -3.55345 0.444544
2099 1 15.3122 -10.5562 6.32295 -5.33501 2.54911 -1.71827
2100 1 0.439672 -4.22327 22.6359 2.45214 -0.170887 -1.62576
2101 1 -23.1323 -6.98887 19.5983 1.72464 1.41117 -1.31922
2102 1 5.69879 6.73538 -8.73285 0.110642 -0.988791 -1.62597
2103 1 10.9918 -17.1969 -14.1274 -2.30615 0.799029 -2.18951
2104 1 -19.4664 -5.33306 21.0741 -0.838288 -1.82185 1.09061
2105 1 13.5902 10.5979 -11.4019 -1.99522 2.88532 -7.72884
2106 1 -19.1791 -16.3232 -21.9189 1.56673 2.22657 -0.718643
2107 1 -10.1523 5.52324 -12.6304 -1.07291 0.464825 3.78013
2108 1 -8.86668 11.4403 0.896535 0.787404 -0.224324 -1.74538
2109 1 -4.75619 7.21325 21.234 7.70166 1.37188 2.95039
2110 1 1.82376 9.34292 1.5997 3.32201 -1.24228 -6.50673
2111 1 23.8364 -8.86634 21.5697 4.48024 0.438668 -1.02522
2112 1 -10.9248 4.18132 11.524 -1.85376 0.959634 -1.31565
2113 1 -18.0492 -2.13945 19.781 2.09242 0.519488 -3.48745
2114 1 1.05298 -24.5206 19.6171 4.42304 -3.81876 2.28048
2115 1 18.0187 -16.1844 -10.1134 2.55263 4.14127 -1.07422
2116 1 19.2539 -3.50762 4.1348 0.481717 -1.75994 -3.68447
2117 1 23.119 22.3759 6.39452 2.73166 -1.27776 -1.17315
2118 1 -12.5927 -0.265146 -4.76609 3.61804 -4.97344 0.620696
2119 1 -11.5564 16.1541 1.78303 -0.61282 0.645634 -0.0391128
2120 1 16.3892 -17.5816 11.29 0.0682098 -0.443834 1.1261
2121 1 8.39182 -19.697 22.6627 -2.14386 4.01816 0.209904
2122 1 11.0044 8.90154 -7.63625 2.39679 -3.18716 0.55784
2123 1 21.7488 -7.7883 -17.6663 4.34559 0.615644 -2.98265
2124 1 20.6563 -1.2113 -18.7348 -3.61637 2.32985 1.17079
2125 1 -3.11866 -13.8129 14.0145 -1.3517 -1.28241 -0.969062
2126 1 10.211 -7.12601 -3.79579 2.42355 2.91586 -2.41566
2127 1 -24.4849 -9.60029 -21.8637 -5.98937 -5.84249 0.215801
2128 1 -17.0502 -22.3047 -1.8711 0.532926 -1.06961 3.84005
2129 1 -12.6602 -22.2219 11.5706 -4.14625 -1.82776 0.0837784
2130 1 -20.0038 8.77033 -5.94008 0.0946958 -0.426915 0.9377
2131 1 18.9156 -9.13482 -0.817091 -2.20373 1.62491 -2.24825
2132 1 10.5117 -20.4456 -23.8419 -3.58333 3.55398 5.35908
2133 1 -13.2948 -12.4559 6.03878 -5.26377 -3.07724 1.55554
2134 1 12.2594 22.1436 8.08763 1.79045 -6.64651 -0.98209
2135 1 16.7757 10.6651 24.0084 5.11459 1.40426 3.63635
2136 1 -5.51857 -22.3471 5.32951 -1.56631 0.580041 -0.267863
2137 1 17.4304 15.7271 24.005 2.6727 -0.38303 1.94889
2138 1 17.2264 23.4489 -14.0767 1.42499 -2.5874 -0.125381
2139 1 -9.61239 3.21739 -15.7488 2.63684 -4.20509 2.77035
2140 1 9.79463 -13.6099 17.2295 1.21064 1.82946 2.67843
2141 1 -21.31 -23.4552 -0.0619112 -2.7247 2.59673 6.07735
2142 1 -16.7455 -7.17232 17.2917 -3.02961 2.12154 -1.91834
2143 1 19.2262 3.5729 -15.2572 -1.75019 1.16991 1.5621
2144 1 3.61562 -0.972011 4.83924 -2.77018 2.8731 -4.76307
2145 1 19.3226 10.9925 22.1841 -0.356385 -2.02914 -0.973599
2146 1 2.70262 8.3672 19.3201 -3.24842 4.37023 5.72313
2147 1 3.12057 6.20994 15.4698 0.378929 -3.65107 -1.64574
2148 1 11.7687 -21.0021 20.2385 -0.120876 2.26526 -4.3946
2149 1 19.6258 -4.507 -3.61068 -2.82391 -1.77401 -1.54016
2150 1 17.5509 -6.94986 0.623023 5.32965 1.16375 -2.82913
2151 1 6.81716 6.10311 -11.2517 -3.73441 -4.794 -0.426928
2152 1 8.12748 22.0007 -4.41968 2.70123 -1.73521 4.94752
2153 1 -8.42679 -12.1447 -1.44877 -2.30899 1.70878 -1.13943
2154 1 -10.3613 17.6104 -23.5025 0.132431 -2.62415 -1.01563
2155 1 12.5869 6.22011 23.0064 -2.45973 0.314047 -2.85564
2156 1 -22.5916 17.6841 -8.47942 -2.17921 -1.69016 4.22534
2157 1 -2.94436 16.2877 18.6251 0.535745 0.317431 -3.48979
2158 1 -17.1838 13.8284 14.3632 -0.341235 2.76827 -3.52859
2159 1 4.47076 -20.4966 11.4237 3.63253 -1.54517 -0.15804
2160 1 -19.3442 -1.17647 22.0679 -2.10228 -2.40449 -1.52325
2161 1 -1.42991 8.81928 -6.03972 -2.5617 2.58194 -0.207919
2162 1 19.7016 10.834 -3.13243 1.43677 0.858794 3.10316
2163 1 6.49014 -7.17377 14.4623 1.14059 1.11561 -3.34881
2164 1 16.3916 1.61165 -8.73297 -3.48789 1.2184 4.64449
2165 1 17.4849 18.6779 -12.7962 4.30128 -2.55891 1.89521
2166 1 -14.9407 19.7474 -15.8314 2.57592 -3.33943 2.1077
2167 1 -13.3558 -10.8883 -17.7448 -1.24873 -1.25767 4.10648
2168 1 -20.93 18.3725 3.88194 0.882567 -4.41699 0.863492
2169 1 11.1588 -7.12694 -20.0861 0.580524 2.61549 1.42278
2170 1 -8.18745 -16.7737 -1.44762 2.57175 -6.23016 0.475955
2171 1 -4.62508 3.07576 3.97331 1.85033 0.149981 0.274197
2172 1 1.0269 20.416 -3.0493 0.994046 -1.75557 -2.99053
2173 1 20.6032 0.949389 -14.7521 1.91257 -0.461068 0.347445
2174 1 5.25557 7.58648 -3.09725 -4.20835 0.612322 0.96797
2175 1 10.8471 -22.3039 11.596 0.251403 -2.18432 -1.27025
2176 1 9.21871 -17.7373 14.903 6.55167 -1.79219 1.9553
2177 1 20.1343 18.043 20.9905 -0.0500438 -3.09118 -1.91037
2178 1 19.3702 -18.0175 -8.2778 2.82354 -0.589449 -5.94799
2179 1 10.5636 -3.25939 5.92202 -2.85998 0.662862 -0.368792
2180 1 9.80666 -7.45127 -11.5806 -1.76363 1.31693 1.25121
2181 1 -16.4671 -19.231 19.0133 4.80671 1.45876 3.65513
2182 1 -3.06526 -1.72341 12.4533 6.53618 -8.12032 0.64865
2183 1 4.46092 -2.85166 12.7078 2.0294 1.3723 0.312093
2184 1 15.8293 16.1818 -20.126 -4.69678 -2.6196 -3.1621
2185 1 7.41276 8.15828 19.0307 -2.28076 -1.92959 -1.8682
2186 1 3.05206 -8.91631 -16.5883 0.164195 0.976924 3.31142
2187 1 14.545 -4.74726 9.78126 0.853153 0.246223 1.33293
2188 1 -13.7522 4.36833 9.23637 1.56377 -0.137393 -2.00636
2189 1 3.27131 18.6041 -10.4679 1.61809 3.63539 -3.89398
2190 1 -1.35303 3.48419 -12.8352 -2.92654 -1.45848 3.38676
2191 1 14.4487 9.37833 4.84453 2.93443 -5.02264 0.556371
2192 1 -0.200468 3.44646 23.9412 -0.0224852 1.20716 -3.19438
2193 1 16.7841 -15.2923 -14.3205 -2.2581 -0.872128 -1.73594
2194 1 -21.0687 3.6114 23.7802 4.84633 -3.52233 -2.27201
2195 1 -10.2653 -19.6315 -9.96818 2.33313 -2.18906 -3.65098
2196 1 -4.23547 5.46022 -13.34 1.81904 2.60767 3.38142
2197 1 17.483 23.4551 21.7471 -2.48269 -1.77394 2.00015
2198 1 3.50243 10.6585 -4.53399 1.20846 -0.86734 4.58942
2199 1 -18.3351 11.3056 0.135328 -1.50503 2.48357 4.3574
2200 1 -2.02045 -23.6064 1.7812 2.11213 -1.26023 0.841105
2201 1 13.3261 -12.4077 -21.7286 0.191632 -0.907955 0.100136
2202 1 18.2335 -19.1362 -20.082 2.3089 -3.67279 -2.39468
2203 1 7.64678 -1.33367 -3.24009 -1.79145 0.729739 -3.51875
2204 1 4.7373 -0.539006 -2.42941 -3.47542 -4.81301 2.76766
2205 1 -22.1316 7.59658 -15.1849 -2.14609 -4.2331 1.23952
2206 1 -1.9266 -9.49637 -14.1581 -2.13921 -2.73201 1.62448
2207 1 -22.1403 -9.7178 -2.80223 -1.9293 -6.91352 1.17656
2208 1 16.4753 19.2165 -3.78729 0.49823 -0.746248 1.35128
2209 1 -23.7798 25.1114 21.7499 4.60508 -1.57429 -0.925088
2210 1 20.8729 -18.9419 -1.54507 -2.1679 -1.06464 -5.80725
2211 1 -17.4718 5.56027 -20.7079 0.895053 0.535853 2.25053
2212 1 -18.5402 -4.81622 -4.69018 1.12187 -0.0850709 4.93468
2213 1 18.3759 8.37558 -3.82692 0.326961 -2.18976 1.99524
2214 1 11.6076 9.6986 19.7626 1.89749 -5.4693 -1.12429
2215 1 9.95837 16.875 -1.92384 0.0828059 -2.75001 2.36747
2216 1 4.05613 -2.05507 -14.1953 -0.699684 -5.83413 -3.82947
2217 1 11.1992 -12.9231 20.4258 -0.695264 6.68765 1.29284
2218 1 -15.4002 -4.45521 20.775 -7.86154 -6.19812 -2.0913
2219 1 -10.1738 -22.57 15.3699 -0.665841 4.57483 -1.12274
2220 1 1.68135 18.6808 -12.8227 2.02325 -0.0228684 1.74861
2221 1 17.6344 5.95122 20.2235 -0.577934 1.77433 -2.43758
2222 1 1.78376 6.85271 3.6643 4.47593 -1.59075 -0.795287
2223 1 -22.607 14.5285 -22.5915 1.62572 -1.98257 -5.52655
2224 1 -15.6102 14.4544 -4.69599 -3.14071 1.21502 0.978031
2225 1 1.35224 -17.6849 -21.7005 -1.63028 5.3913 -3.85814
2226 1 18.9026 -0.0593588 14.5211 -0.503972 3.78556 -0.340744
2227 1 8.0253 1.56589 -2.73894 1.5442 2.24388 -3.31184
2228 1 -6.93189 -7.2812 24.0597 5.38484 -3.66825 -0.285599
2229 1 16.9531 5.88686 15.7533 2.58301 2.21037 2.71676
2230 1 3.93176 20.9236 -2.80017 4.39123 0.900309 4.5294
2231 1 -9.8973 20.8014 11.1603 1.30954 2.74623 -2.87711
2232 1 -21.6352 22.812 -16.3328 0.76866 0.982816 4.6959
2233 1 -13.4384 1.94197 -17.9545 -1.7325 -0.821924 -3.0981
2234 1 -4.08872 2.91266 -3.77769 -1.51016 0.833944 -0.987864
2235 1 8.013 -23.5242 11.878 3.13109 0.536122 0.633892
2236 1 20.6968 4.21852 -17.7993 1.576 -0.893836 4.76773
2237 1 -0.754677 -22.9239 -20.1157 -1.90913 2.88921 -1.8313
2238 1 13.8439 12.6021 -15.4357 -8.13217 1.24192 1.99409
2239 1 -14.4605 -9.30948 22.4231 0.181717 -3.87423 1.50436
2240 1 13.3456 19.0696 17.865 1.77638 -1.53146 -3.01477
2241 1 -23.4123 -2.65818 -18.1206 -1.42361 -6.72022 -5.46424
2242 1 -9.34304 -15.3652 18.7985 0.681176 -0.950779 3.63142
2243 1 12.641 22.7939 -9.74084 0.618807 -4.43034 4.42012
2244 1 22.796 21.1246 -15.073 -3.66769 0.255288 6.12131
2245 1 23.0551 -20.2213 8.59081 -2.16258 -4.94102 4.12794
2246 1 2.40005 18.6129 -17.0517 2.47605 -4.1795 -2.4364
2247 1 -23.6137 -12.5733 8.50861 -3.53317 3.47705 -1.57636
2248 1 -2.45399 -6.73058 -13.0253 0.937111 -3.32338 5.77929
2249 1 -15.6273 13.5344 -17.3962 4.33368 -2.18698 0.396571
2250 1 2.91196 0.293375 7.44877 0.836886 1.79184 -1.62177
2251 1 -12.073 -8.04579 -12.1842 1.86001 5.92814 -3.25124
2252 1 -24.2932 -12.8675 0.119977 0.517935 1.23681 -6.24741
2253 1 6.46068 -16.9363 -4.23365 -1.43469 1.05461 2.7223
2254 1 4.07558 16.5999 12.8909 -0.16466 -6.6218 0.755415
2255 1 2.74308 -1.4004 -17.9811 -1.62476 -0.0484183 -1.77549
2256 1 15.2373 19.2821 -21.8848 -4.10225 -1.37205 3.07382
2257 1 -1.19514 3.2609 -7.08101 1.54461 0.735469 -0.350494
2258 1 -9.38679 15.0051 -22.0855 -1.99564 -1.93338 -1.90002
2259 1 -21.8071 -8.46967 22.2924 0.985003 -1.28998 -1.28215
2260 1 19.12 17.7491 -15.1141 -1.57419 5.34143 1.76629
2261 1 14.3693 -3.48476 -9.01581 0.820664 2.14097 -3.4725
2262 1 17.6594 -22.5734 -0.886961 -3.88807 2.8005 -1.78672
2263 1 1.94966 -16.7099 -3.4672 -0.959915 -1.47748 4.2265
2264 1 -3.44473 18.6424 3.94925 -1.87498 -0.750711 -2.09258
2265 1 -3.11776 1.15123 18.7813 -3.33507 -0.657583 2.25716
2266 1 -21.7422 9.23788 13.9374 4.67996 -2.11756 5.46522
2267 1 -11.1172 -15.6774 -1.25356 2.19657 1.91823 0.498935
2268 1 12.3505 0.75808 -6.73967 4.658 2.61717 -2.36827
2269 1 15.8871 10.5036 -20.3001 1.47427 -4.26005 -6.07736
2270 1 -6.27618 18.5487 1.74017 3.61619 2.96903 0.915623
2271 1 23.0301 -18.7197 -8.59334 -0.650141 -5.13052 0.957455
2272 1 -0.355289 11.6155 10.4836 1.27046 -2.7625 1.65462
2273 1 -23.1359 -18.4218 15.4431 -5.28332 0.207716 -4.60169
2274 1 -6.84197 -0.812665 17.7879 0.665885 -1.29818 -1.58144
2275 1 -12.334 24.4962 -15.8191 -0.577204 1.47959 -4.00789
2276 1 0.766506 11.1198 3.55173 -1.25634 2.93674 -1.52842
2277 1 -14.6662 3.36339 22.5638 -2.84627 4.69756 -2.02967
2278 1 -16.887 -15.3772 -6.5775 -0.504827 2.74956 -4.27279
2279 1 -11.4451 1.35611 6.88328 -3.45779 -0.823797 1.51695
2280 1 12.5757 -11.7072 -3.08397 1.68885 -2.14966 -0.967642
2281 1 19.4005 13.6299 23.2449 0.229951 3.97394 0.4223
2282 1 -5.80549 22.7031 6.43372 -0.989367 3.36645 0.534675
2283 1 22.989 -11.1596 6.66968 0.418766 10.5024 -1.98739
2284 1 -20.5568 24.3322 -22.3139 -5.25259 -1.97864 -1.16114
2285 1 -20.2853 17.5254 1.21608 4.43559 -0.538064 1.85582
2286 1 4.05152 -10.1969 3.30029 -0.414718 -1.37589 -1.7124
2287 1 20.4434 17.5355 18.1034 -2.19775 -2.74752 2.44836
2288 1 23.5169 -7.24201 -5.50091 -2.61572 1.65025 3.11879
2289 1 -3.66381 14.2409 -22.5864 -2.02512 -1.60025 2.69147
2290 1 15.9865 -8.11259 23.0494 3.24002 -3.95367 -1.72362
2291 1 -0.148582 18.7243 19.7113 2.54582 -1.94991 -3.39089e-05
2292 1 -13.2071 -10.0424 -2.39153 3.9184 5.90633 -0.576091
2293 1 1.44791 5.87803 10.6451 -1.30487 2.89433 -0.842694
2294 1 -19.9542 9.6288 -18.7327 1.03091 -0.642596 1.89095
2295 1 -14.5334 10.8883 -23.8269 -2.91382 1.86736 -2.5955
2296 1 -21.2881 -8.82853 -17.6521 4.9196 1.80264 2.59063
2297 1 9.44339 7.2254 -22.566 2.59339 -2.25998 -0.362481
2298 1 -2.51071 -21.1974 -5.71764 2.58215 3.86428 -3.54837
2299 1 8.7356 -12.0374 -2.79443 -4.17863 -1.5113 -7.3011
2300 1 7.29014 11.5047 0.950234 -3.09454 0.624155 2.64687
2301 1 5.99628 -23.7961 20.945 3.4052 -2.93078 -4.98961
2302 1 15.7099 9.0161 -16.4319 -0.649021 1.14051 -0.895135
2303 1 -12.4449 18.3374 -13.7202 2.11234 -3.87029 0.249029
2304 1 10.7012 17.1583 7.40069 -0.892319 0.507271 -0.554622
2305 1 -15.2106 17.1334 11.8984 0.366725 -3.02543 0.746233
2306 1 5.52098 -5.35731 22.0339 0.967771 0.23123 3.0282
2307 1 -15.1662 13.1534 23.026 3.22534 -5.31783 -5.74691
2308 1 6.03813 3.39981 -18.0983 0.0946356 -2.9217 -4.68576
2309 1 21.7505 19.1059 22.9181 8.5665 -1.60679 -2.32424
2310 1 5.78934 -16.2777 6.44005 5.94038 0.488444 -2.07266
2311 1 6.90685 1.41626 2.39958 3.22123 0.299697 2.76447
2312 1 -18.9378 -20.3424 9.55545 3.17542 -5.97089 0.90344
2313 1 -8.33287 13.0381 -18.0769 0.475933 -2.49918 -3.73474
2314 1 -17.1847 5.9934 10.5518 0.365859 1.01208 2.47454
2315 1 -11.6903 14.0608 14.5333 3.10452 0.00640573 -1.89882
2316 1 -18.3247 -11.1413 1.95695 -4.26646 2.0428 -0.739239
2317 1 -5.73687 -11.473 -9.19941 -6.79663 0.379257 -5.47023
2318 1 20.5991 -7.54614 -4.26027 -2.5546 -0.171685 -2.14743
2319 1 4.75073 -8.85073 6.83975 -0.850629 -5.76498 2.43643
2320 1 20.909 2.23726 -20.2307 2.3661 -0.344809 6.81044
2321 1 -1.90014 24.5592 24.12 -4.47444 2.90798 -1.70474
2322 1 -3.56145 20.4927 18.7782 -2.21763 0.765713 1.5504
2323 1 2.46448 -4.14348 -3.6103 -1.86515 3.80279 -2.81931
2324 1 7.53531 -19.1789 -18.2789 -1.36941 -1.31384 0.187782
2325 1 13.9725 -20.5542 -15.7559 -0.0397044 0.729645 -4.37478
2326 1 23.5501 -10.6141 -13.8199 -4.62797 -0.641357 -0.877509
2327 1 11.6896 1.41676 -17.9452 -1.31567 -0.730001 -1.19322
2328 1 -9.21955 -8.45774 -5.47855 -1.34171 2.94424 -2.65481
2329 1 6.90532 6.44891 12.7997 -0.876454 0.0850971 -0.212637
2330 1 11.3807 -23.1407 14.1829 3.06894 -5.63663 -3.16906
2331 1 -15.2616 -15.5768 11.3549 0.730307 -5.19158 2.08629
2332 1 20.4502 -14.6692 12.4752 1.45682 2.5275 0.765765
2333 1 13.6641 -21.4969 -12.5671 -0.658774 -1.46905 -0.826617
2334 1 -11.98 16.7312 15.8235 -0.376848 4.06693 3.89896
2335 1 -1.7007 18.881 23.8754 0.499474 -5.1723 9.0527
2336 1 16.0181 -11.8087 -20.3049 2.37478 3.4435 -4.08042
2337 1 8.98396 5.81862 2.00173 -4.8709 -0.551246 -4.71951
2338 1 -0.0453328 -1.26215 -21.0485 5.40766 -2.08477 2.1432
2339 1 7.03588 10.0219 -2.91011 0.450966 -0.91441 0.803082
2340 1 6.40885 10.4651 13.0262 2.29282 -4.87975 3.64127
2341 1 5.02636 -19.6998 -22.4016 -5.01401 1.62929 1.1605
2342 1 5.90208 -16.46 1.69013 -2.74618 6.0374 -1.25238
2343 1 9.56556 22.3888 2.4608 3.76581 0.135511 3.9578
2344 1 13.5335 24.203 4.33699 2.86641 -5.31586 2.85994
2345 1 7.687 14.6367 -14.218 1.84057 3.93114 0.739379
2346 1 -4.32708 -19.3663 8.13659 0.208324 2.50664 -0.861419
2347 1 -14.0468 12.1287 -15.2477 2.13623 4.19145 -1.19494
2348 1 6.91391 -2.38779 3.52687 6.63629 2.18774 1.06492
2349 1 -9.06196 21.7143 15.5124 4.57319 2.45545 1.30947
2350 1 11.2201 6.2929 -12.6458 1.31609 -4.96264 4.47457
2351 1 17.1832 11.0454 -13.4423 3.11715 -2.43805 -2.27075
2352 1 -2.71765 20.8118 -22.5279 -1.53124 -0.0953267 -3.02679
2353 1 14.6024 -3.52261 6.14999 -2.65688 2.15056 -2.15716
2354 1 20.7006 -18.1146 -23.273 -2.22967 1.38717 -0.908298
2355 1 -7.86572 -0.1878 0.773446 -1.77126 2.20747 -3.40578
2356 1 14.3677 -24.0571 -8.99689 -1.52933 7.11376 -4.06557
2357 1 -2.41641 -2.06586 1.36766 -1.80622 3.27329 -2.17403
2358 1 3.35356 -10.2436 -11.7303 4.17441 1.1401 -0.20488
2359 1 7.52479 10.606 8.98825 0.907396 -5.27733 -0.440528
2360 1 14.3204 16.2988 2.91637 0.0840664 -1.37215 -1.90219
2361 1 -22.0358 10.422 -11.3738 -1.27349 -2.76171 -2.32528
2362 1 -19.7736 9.85338 11.8122 -2.82903 -0.801834 5.91491
2363 1 17.0673 -11.5511 -1.04453 -2.565 -3.6395 -0.884051
2364 1 2.1266 -2.31372 0.122139 -1.68353 1.69156 4.22281
2365 1 23.155 -9.38997 -3.47684 -3.39269 0.307733 0.822834
2366 1 10.445 3.26222 1.72243 -2.12843 0.494645 -2.69913
2367 1 5.86883 17.8603 10.051 -2.71112 0.440519 -1.80227
2368 1 -7.60058 -18.2141 -9.2652 -1.11057 -2.12124 2.15311
2369 1 21.1031 6.11094 15.5463 -2.15095 2.16209 0.731656
2370 1 -20.4096 -10.9708 -7.19185 -1.42411 1.69097 1.16019
2371 1 19.5107 -20.64 0.209302 -1.75635 0.300708 0.042347
2372 1 23.5808 5.0365 -1.91169 -1.1219 -2.03328 0.21889
2373 1 11.2626 12.6574 16.3844 1.02133 0.271889 6.09649
2374 1 -5.51607 7.81115 -2.01479 5.62504 1.53103 0.801984
2375 1 10.5157 22.7014 13.452 0.279618 -1.3832 3.67204
2376 1 -15.3976 -0.47507 22.197 3.25082 2.85085 4.28893
2377 1 -6.38141 -9.45549 -5.78552 1.53635 -3.36323 -2.84799
2378 1 6.3533 -1.10162 19.3683 1.71135 -3.69384 -2.94725
2379 1 -24.2005 13.1993 10.601 3.2827 -0.0897885 -0.646376
2380 1 8.36972 -13.0727 21.3792 0.0130477 3.58012 3.25011
2381 1 12.8834 -8.36381 -4.73869 -0.226399 -0.904916 -0.604843
2382 1 -15.0463 17.0873 -17.4447 -3.04107 0.278768 0.592461
2383 1 -24.3996 -16.7924 5.8455 -3.47174 0.394456 -1.42585
2384 1 9.23881 -12.1354 23.888 -0.147056 -3.41641 1.48431
2385 1 -1.10657 7.97534 1.43842 -2.35658 -3.70003 2.56538
2386 1 3.08839 -2.59838 8.53031 -2.8932 1.23844 -1.39533
2387 1 -12.6072 -5.91953 11.2218 0.141229 -0.230582 -4.27271
2388 1 9.03512 23.3338 21.2079 3.92229 2.76731 -0.929964
2389 1 7.52415 -10.0143 11.4231 6.62276 1.38893 -2.87009
2390 1 -23.7227 -7.99624 -8.13568 -0.572224 -5.87677 0.126896
2391 1 -8.47482 -2.76977 7.58838 5.04474 3.64806 -2.69455
2392 1 9.92246 -22.0531 -15.2571 -3.58256 1.85769 4.2757
2393 1 4.29813 -17.2583 20.1883 3.27215 -1.17923 -0.440485
2394 1 16.653 15.2938 -4.20138 1.86868 3.37838 5.03316
2395 1 4.37903 16.7713 19.9576 1.50602 -1.95 -3.39948
2396 1 -15.4068 -21.1169 0.193757 0.00135425 -1.21919 5.74148
2397 1 -13.9201 -7.19514 18.1669 1.82363 -7.82398 3.3312
2398 1 -9.61425 -1.06391 13.5923 -1.44974 3.21853 -0.278985
2399 1 -12.3193 -10.305 9.23328 -2.17166 -0.650511 -2.13271
2400 1 11.5197 -8.66176 16.1482 0.750162 -0.452065 -3.18841
2401 1 -17.5375 21.8812 -4.92942 -0.541508 6.43867 -2.51671
2402 1 15.9595 13.4095 -19.1609 -5.46049 1.35923 -5.19453
2403 1 -9.70893 -0.380055 24.1973 0.27964 -6.20087 0.0114112
2404 1 -21.6741 -6.44104 -22.5613 -6.67244 1.21195 1.6997
2405 1 -4.53644 -10.4235 -22.6019 1.77462 -3.77195 -0.0356565
2406 1 -24.5519 8.99821 -11.6974 -0.764252 5.51668 -4.72705
2407 1 -13.2338 -12.6645 14.4552 -2.24428 0.0416703 3.84872
2408 1 -21.0983 -4.74973 -12.4011 1.2615 0.455055 2.8424
2409 1 3.7758 12.5151 15.0085 -1.11452 1.52042 -1.31283
2410 1 5.92133 -22.2854 -22.9519 -2.12241 3.20761 -0.427524
2411 1 9.07398 12.1648 -16.9786 3.01228 3.42731 -0.0611561
2412 1 10.7349 20.0198 17.4035 -2.15563 -1.21409 0.546059
2413 1 -6.8061 20.2339 4.09357 -0.650606 1.45681 -0.875121
2414 1 13.6531 -7.49615 -7.43735 -2.14204 -1.30353 -2.85124
2415 1 22.9332 -23.752 -23.2232 -6.33582 1.98866 1.93019
2416 1 7.18109 13.5379 9.66799 -3.78267 -3.73639 -1.5635
2417 1 -4.7894 -7.30388 -0.335249 -4.22121 -0.709442 3.1949
2418 1 14.1432 2.85803 -6.86405 -1.11997 0.287045 1.88498
2419 1 22.2381 6.35439 -17.0612 -1.84999 1.06525 4.27479
2420 1 -2.56142 -6.35702 -8.27784 -2.11946 -2.12955 1.71108
2421 1 22.1082 15.4109 -7.17995 2.2302 -8.41198 -7.2357
2422 1 -15.4765 4.8021 15.8133 -3.65523 -1.19589 -4.63623
2423 1 14.1564 21.1411 5.86085 0.820728 -3.13179 -0.649183
2424 1 22.8043 16.3151 9.50202 -0.71218 -1.64584 -5.15879
2425 1 -16.2316 10.4125 -21.8384 1.38474 -2.45425 -0.855621
2426 1 -0.241948 15.6119 19.997 -1.0732 2.7863 4.73331
2427 1 14.2732 4.57143 4.28344 -0.360807 -2.87838 0.0711887
2428 1 13.066 -14.9822 14.7335 2.57451 3.56653 -2.52118
2429 1 -8.26095 -10.2926 -12.3412 3.21495 4.24546 -3.87473
2430 1 -14.4018 -6.96725 15.3164 6.10602 -3.61373 -1.22927
2431 1 -18.3836 16.2735 -8.51655 -1.42087 -2.09859 1.24601
2432 1 19.6225 15.1279 -17.5233 -2.20565 -4.12241 2.64466
2433 1 19.881 -19.2806 18.0514 -2.86533 3.62545 -2.11445
2434 1 0.334755 -22.3715 -3.50587 -2.24041 -3.5962 2.24805
2435 1 -13.7279 22.654 10.8802 2.15568 -1.59931 -4.78285
2436 1 -7.81658 9.82868 19.0287 3.12317 -5.08281 -4.87632
2437 1 -14.9605 -3.89892 10.9423 -0.919518 3.93425 -0.216026
2438 1 -2.28725 -23.5962 -22.4658 0.0174486 0.0393995 0.483665
2439 1 -13.917 18.8099 9.74305 -3.41211 3.35208 -4.01666
2440 1 6.95151 -3.72472 -17.0967 -1.95696 -1.21704 2.01647
2441 1 -22.5979 14.638 19.9279 -2.01298 0.401619 2.98225
2442 1 -1.94181 -9.0366 -17.1231 -6.23785 0.694924 -1.46387
2443 1 5.1051 10.6071 -21.0125 -1.64381 0.962607 -2.11859
2444 1 13.6996 22.4024 20.46 -2.72433 1.53135 3.77214
2445 1 0.182742 2.44947 21.3877 1.98533 -2.50529 3.11442
2446 1 -1.26718 -6.47059 16.7936 1.41108 0.445961 1.93963
2447 1 0.301301 -13.3619 17.0504 0.137482 -1.16026 -3.05288
2448 1 1.6645 -13.9806 -10.478 -0.371329 -1.46666 3.22612
2449 1 16.4622 -22.2694 13.4361 -0.429447 -2.21538 1.81108
2450 1 7.90098 13.076 22.6551 -2.74275 -0.415203 2.49124
2451 1 8.72852 -21.9043 4.75195 5.87259 -2.32016 -2.50775
2452 1 12.7124 16.6571 -13.7457 6.56555 -6.24623 -0.38509
2453 1 -2.28587 8.6655 12.8826 7.60191 -1.93096 0.532617
2454 1 -5.44858 8.41266 -17.449 -1.79044 0.0843806 -1.31664
2455 1 11.0387 10.4348 14.6374 -2.9545 -2.57803 -4.51827
2456 1 21.1679 21.7099 23.5884 1.55814 0.997464 4.96312
2457 1 -3.84466 1.73487 11.697 -2.02811 0.305257 -0.782788
2458 1 -21.6062 22.3608 -2.96456 2.93371 -5.83674 -6.24903
2459 1 -20.8133 15.7618 -6.98118 -2.45821 -0.138737 0.768837
2460 1 9.15577 11.9289 -14.1728 -3.46793 -3.4929 0.703217
2461 1 -20.5951 17.3318 -4.15695 0.151626 0.125395 -0.173784
2462 1 -12.023 23.222 2.59432 3.11532 -5.11397 -5.28133
2463 1 -14.7227 -21.4292 24.2305 1.85949 1.24717 1.39699
2464 1 8.78767 20.1806 -14.6967 4.94313 -0.221966 2.88038
2465 1 -9.45021 -14.2931 -11.1613 3.37818 2.87704 -6.43904
2466 1 1.34724 3.8547 -3.25424 -2.32215 5.08986 3.59598
2467 1 2.92962 -17.9143 9.21613 -3.5246 -1.36475 0.785417
2468 1 -19.647 -23.2701 -5.9073 3.25089 1.15443 -0.680726
2469 1 14.6081 -23.0794 24.1203 -0.253902 3.44885 1.81857
2470 1 13.7084 -20.611 -8.53721 1.44011 -3.60682 -1.18046
2471 1 -2.85672 23.516 -21.7967 -0.7526 -3.64242 2.69368
2472 1 -19.8292 0.262939 14.1666 0.561693 -2.8409 4.47132
2473 1 13.4908 9.54829 -5.8957 -0.0215598 1.81149 0.566551
2474 1 -4.15211 -10.591 -17.5922 -5.23432 3.8201 -1.26034
2475 1 -15.7211 11.5234 10.0743 -0.200068 -0.312721 -0.973335
2476 1 -8.11503 -20.8614 -20.1714 -1.25554 -1.4953 0.757971
2477 1 12.6168 10.4784 -0.454132 3.82079 -2.20936 -2.35244
2478 1 -3.78854 -22.6944 -3.16209 -1.0505 1.92099 1.43306
2479 1 -21.8381 -3.45538 4.12636 2.28573 2.40559 -1.5516
2480 1 -1.95347 23.0654 -8.51934 1.88713 -0.0533547 -1.44584
2481 1 -15.8592 -8.45186 -9.15676 -0.339531 -1.69747 0.724564
2482 1 6.05663 -4.77462 -0.894766 -6.50437 -1.87924 -1.1168
2483 1 0.15078 9.58136 -11.3044 5.89204 -1.13386 -0.389759
2484 1 1.41369 -14.2555 -7.40273 -1.08942 -3.12412 2.92816
2485 1 -1.50062 -19.6523 4.7032 -1.30336 1.07301 -1.11293
2486 1 -1.53232 -18.5295 7.32334 -0.679664 -0.91636 -2.14789
2487 1 3.45547 18.6107 0.525219 -2.46006 -1.77027 -0.527521
2488 1 -6.87891 19.9846 19.4406 -4.05362 -1.09675 0.543385
2489 1 4.78389 22.2756 -9.42917 0.7174 5.90635 1.91835
2490 1 -12.2505 22.3606 18.1742 -0.924219 -0.441405 -0.191655
2491 1 11.4679 -21.2661 -2.4647 3.40425 2.73953 3.45591
2492 1 23.6474 14.4279 3.09623 3.93068 0.440595 2.4079
2493 1 19.9967 23.2097 -20.1926 -5.73157 -1.67955 2.51863
2494 1 -14.987 -14.0578 -22.9941 2.10448 2.40708 2.54224
2495 1 16.4205 -13.8224 -10.2113 4.76336 0.349473 -1.23314
2496 1 3.86773 3.94053 -22.4144 3.97119 -2.90818 -1.93795
2497 1 5.23321 8.44866 20.9507 -0.312772 3.59164 -1.75044
2498 1 -3.3872 6.68429 2.7289 -0.754562 -1.18112 1.51221
2499 1 -23.8281 -15.737 8.4826 0.489413 -5.52709 2.03529
2500 1 10.0348 21.5619 6.62016 -4.71138 -3.43086 0.440705
2501 1 5.34229 13.2312 4.67925 0.758821 6.17162 1.23736
2502 1 -6.73361 -10.3735 9.13745 4.66602 1.16933 3.38505
2503 1 18.2582 14.8231 -0.469611 2.78604 1.29064 -4.55168
2504 1 9.85425 13.6406 10.9901 0.237695 -0.330092 -3.04597
2505 1 -10.3487 17.9436 22.1173 -4.00503 -0.347755 2.30872
2506 1 -23.5335 11.0775 -8.89393 -0.950862 3.88474 4.75038
2507 1 9.28917 -2.07084 -16.086 -2.22258 -5.35403 -0.939976
2508 1 12.6162 21.6709 -5.29927 1.02273 -1.02782 1.26729
2509 1 -3.94682 -5.02912 3.18749 -0.339975 -2.35013 4.51455
2510 1 -21.8216 1.32067 -1.55735 -0.687268 -2.10081 -3.78051
2511 1 4.01995 5.61597 18.9236 1.01794 -0.19025 -0.151434
2512 1 -9.86066 11.1303 13.7396 -4.84802 1.83254 0.0409313
2513 1 21.1021 8.81433 8.48702 1.42478 3.1869 0.406304
2514 1 21.9157 10.8432 23.259 2.41781 -1.85356 -3.44855
2515 1 2.37725 -22.0055 3.39987 -2.41593 4.89469 3.64131
2516 1 2.99936 12.331 -19.4309 -0.690024 -4.27158 0.970778
2517 1 -10.8622 -13.1896 15.983 -3.13587 6.14725 2.28518
2518 1 -3.34754 -5.74251 -4.18526 2.68693 -3.65251 -1.8765
2519 1 -23.7403 20.5755 15.2393 0.954039 -1.7011 2.19677
2520 1 -24.3669 1.32073 -7.91113 -2.09111 -2.16772 -4.33693
2521 1 7.28966 6.89703 15.6674 -3.42727 2.87003 -0.387099
2522 1 -3.88494 10.1065 0.410261 0.838947 1.23759 -0.365696
2523 1 -17.8272 -23.5276 -21.8034 -1.08772 1.5308 1.06552
2524 1 10.1277 22.5209 -20.8865 0.681392 -1.92838 -2.83345
2525 1 -12.6276 -16.0435 -9.50545 -1.18176 1.55258 -0.680376
2526 1 -9.62014 -5.07779 -14.4756 1.71327 -2.09158 1.74755
2527 1 4.93317 5.23979 8.4178 -2.02598 2.32689 -2.95478
2528 1 -8.58265 11.6263 5.97348 -0.202861 2.9718 0.753002
2529 1 -18.5128 -8.74967 -2.18414 -1.08625 -3.37289 -2.64707
2530 1 3.74737 -13.4582 -15.9571 1.01269 2.43567 2.69729
2531 1 -18.3795 -9.46565 -17.7172 -3.16299 2.15953 1.39349
2532 1 -14.3818 -17.5526 0.871458 1.95326 -1.51885 -4.77312
2533 1 -14.1863 23.9589 -2.43556 2.81525 5.85967 1.17421
2534 1 -16.9087 -12.6558 -2.74955 -1.07811 3.65796 -0.182005
2535 1 15.691 -6.44557 15.8217 1.62254 3.76613 -1.36304
2536 1 23.6496 -20.5192 23.7142 -1.46582 0.746801 0.373198
2537 1 -0.644865 -23.8535 12.9957 -3.76379 2.48125 2.79999
2538 1 -8.24697 3.52548 -23.1937 0.681644 2.40283 -1.40976
2539 1 10.8983 -11.1467 17.2835 -1.39507 1.56602 -1.7344
2540 1 19.7138 -7.21291 16.5442 2.18265 -2.97526 3.17755
2541 1 4.9312 8.01042 14.3092 -2.58475 2.11164 4.32474
2542 1 -11.5381 -6.8361 -20.9359 -3.40092 1.25162 -6.50343
2543 1 -18.6745 -7.19237 -6.51921 -3.16369 0.478114 0.197286
2544 1 13.3818 1.44257 7.24866 1.07761 -2.92607 2.05902
2545 1 -12.0978 11.4048 -20.2536 1.533 -3.61691 -1.75545
2546 1 -15.2934 4.299 13.13 6.94361 -5.33631 -2.9875
2547 1 -12.7037 -2.0246 6.14696 3.30411 1.39265 -1.70107
2548 1 17.2387 -6.30345 -7.86571 0.999481 0.847934 -0.940354
2549 1 6.50895 13.1423 -16.4603 -0.955705 1.29248 -3.95546
2550 1 -23.5278 -18.341 -18.1336 -3.1135 -2.00887 -0.56586
2551 1 -6.65195 10.5657 -15.9615 -1.27883 0.600345 5.67883
2552 1 -1.47975 -14.0475 8.05698 -3.09787 0.240502 -0.531128
2553 1 0.399031 22.3576 15.7538 -1.42588 1.56764 2.0606
2554 1 18.3455 23.1287 -8.11041 -0.363695 0.921826 0.577558
2555 1 3.4226 13.692 -7.55975 2.58116 2.38002 1.20491
2556 1 -9.46184 -11.6002 9.65185 0.302655 5.44909 -1.84261
2557 1 16.35 -22.5718 -12.4947 -2.3878 1.99483 -1.23145
2558 1 -19.9873 8.76577 -21.6926 -2.50212 -2.42817 4.74804
2559 1 -17.9926 7.02052 4.89968 1.13228 1.31945 1.98665
2560 1 22.47 -22.7029 9.88924 1.14138 -0.0375355 -2.98571
2561 1 -11.1888 -0.986923 10.8788 -1.13994 -3.17192 -2.21492
2562 1 -21.8168 -6.21307 -9.11045 1.5117 1.2437 1.30305
2563 1 19.9587 -2.70511 -22.708 -0.645859 0.0922553 -0.657037
2564 1 -11.7929 -15.9904 -12.249 3.85374 -1.77003 -5.40389
2565 1 12.4042 19.619 14.9679 2.20919 -0.682819 0.174332
2566 1 23.0707 -8.04527 15.0257 -5.08726 -0.609168 0.398085
2567 1 -12.2047 -0.977977 -17.9346 -2.34513 -4.21667 2.21979
2568 1 19.7992 -11.3344 -19.19 2.70201 0.53526 1.0305
2569 1 -24.5981 -18.4169 -11.5688 -3.30014 -1.89244 0.614271
2570 1 -21.1157 16.304 -16.779 -0.665688 -0.855047 -0.680543
2571 1 11.6131 0.611988 21.3812 -3.32157 0.630777 3.90096
2572 1 -22.5644 -19.2176 -4.7794 -1.94735 -0.720925 6.96436
2573 1 18.9076 -23.6672 -3.05516 0.234145 -5.11805 -4.08773
2574 1 -17.4059 -24.1623 -7.45654 -3.97007 3.37404 -2.1144
2575 1 3.7277 16.6225 2.83991 -0.514955 -2.3169 -0.359246
2576 1 22.6216 18.5901 15.9888 6.48972 2.8531 1.83258
2577 1 14.7509 20.6642 -1.97073 1.10014 0.348777 1.57279
2578 1 -19.1151 -16.4544 -3.00329 0.19108 3.01328 4.76719
2579 1 -10.169 9.60533 2.43438 -3.13044 -2.29382 2.43014
2580 1 -24.5625 10.9476 -20.938 -0.523622 -0.450692 -2.10635
2581 1 -7.1111 15.8327 21.719 -0.089121 5.29586 -4.32028
2582 1 13.3107 24.3605 9.39889 0.541435 -0.481635 -2.30431
2583 1 5.7456 18.8604 -1.68491 1.12412 0.0388146 -3.1363
2584 1 -11.1644 -22.2982 -11.1822 -4.21058 -1.75972 1.71787
2585 1 15.5796 -13.8305 20.0122 -1.74607 4.45061 3.01172
2586 1 -14.5267 14.5847 13.1735 -1.62357 3.62993 0.586511
2587 1 17.9402 -17.374 7.97164 -0.148298 -3.13899 1.56674
2588 1 16.3509 0.250086 -16.7308 5.69455 -4.14423 -0.281809
2589 1 -0.913429 -7.34395 7.56352 -4.47238 0.809621 3.36894
2590 1 13.8814 3.2004 -9.96346 0.871885 -3.67986 -0.323386
2591 1 -2.94578 -20.8337 13.3788 -0.605004 0.5274 -1.2914
2592 1 -0.121134 -17.6131 9.88052 0.934217 3.27637 3.59379
2593 1 -24.4871 -6.00364 -21.8455 -0.424955 -5.67181 -0.593978
2594 1 22.0769 -5.74971 17.4304 3.81483 -1.92766 2.13981
2595 1 -2.92785 -18.8742 -20.6347 0.052508 -1.51972 0.0197651
2596 1 -15.0681 10.8017 -19.2441 1.83433 3.22742 0.747817
2597 1 -18.2868 -2.78626 -17.7393 -3.58743 2.42611 -2.35824
2598 1 20.1265 -0.670828 -3.29813 -2.48404 -5.13183 2.90638
2599 1 -7.74197 2.28728 6.14845 5.11072 3.14064 -0.624792
2600 1 4.31554 22.7582 0.554569 -5.4518 5.6453 -2.70936
2601 1 -1.08258 7.34523 4.34227 2.44925 1.08201 -3.18835
2602 1 -5.86324 -13.2481 -2.35643 0.14396 6.00224 0.082401
2603 1 -23.8261 18.8513 -6.374 -5.24898 1.7494 3.19513
2604 1 13.6843 -13.552 -0.931266 2.09145 -2.07353 -3.09322
2605 1 -17.3263 8.17788 -5.15004 -0.676485 -0.946375 1.21002
2606 1 17.4479 16.7931 19.8802 1.30764 -3.39916 1.06725
2607 1 10.6252 2.5484 -22.4949 -2.23268 -2.94154 -4.17162
2608 1 13.3241 -19.1218 -23.4863 5.97066 4.62081 -5.2611
2609 1 -13.7156 -4.9435 -17.7157 2.1317 1.43331 2.60036
2610 1 0.169987 5.90862 -17.3507 2.21802 7.96505 -0.954271
2611 1 -21.1898 25.1468 -19.7852 -1.80231 -1.02042 -0.55842
2612 1 -17.2277 -21.7132 17.6555 -5.31402 0.441199 -1.91186
2613 1 -22.8472 5.41365 16.4345 4.41062 -3.14643 -3.16857
2614 1 -13.118 12.5499 -18.1135 1.22335 -3.72187 2.27858
2615 1 -4.46066 2.08052 16.4119 -5.39485 0.441698 -1.67887
2616 1 -24.1451 -2.53786 -10.1527 0.638423 -2.6907 0.498393
2617 1 -4.85867 11.919 -17.7009 3.82566 0.905567 2.308
2618 1 -7.84 -18.5679 -12.2891 -1.17814 0.613354 3.09502
2619 1 -0.0172054 7.83302 -20.3361 -2.30972 -3.94201 1.83885
2620 1 -9.39613 14.601 5.51545 -1.85083 7.07489 7.90634
2621 1 4.41169 -22.8198 6.66134 -0.303439 0.851161 -4.40429
2622 1 -1.8196 -18.445 21.0432 -6.34559 1.95072 0.50383
2623 1 -19.9078 19.8224 -23.0803 -5.87341 1.25076 -1.33966
2624 1 -18.4105 18.2326 -6.54205 -3.41241 0.585982 2.7282
2625 1 -6.47766 -5.18611 22.0017 2.74207 2.31001 -0.519349
2626 1 -4.84215 2.49387 20.5897 2.41168 5.21994 -2.98187
2627 1 16.0293 24.7766 8.78272 2.88692 3.76134 -0.165587
2628 1 13.1116 -8.61957 -22.1038 5.33736 -7.9007 -2.52879
2629 1 -22.2167 -1.47067 7.60814 -6.37964 -0.717971 3.39656
2630 1 -11.5952 -9.03106 18.2896 4.49039 -1.72578 0.447714
2631 1 19.3698 16.0682 1.88357 -0.163754 1.45733 -0.0682606
2632 1 18.3829 -1.88195 -17.1069 2.95332 1.27569 4.04283
2633 1 -3.90946 -16.7175 -13.3806 -1.7492 -4.26476 2.93904
2634 1 -6.67009 12.4011 -23.5327 1.95409 -2.26839 5.2786
2635 1 -1.03436 8.1627 23.5545 -6.23505 -5.37472 -2.8762
2636 1 -13.7179 -19.8023 15.2194 1.25966 2.09303 3.01938
2637 1 10.1195 -14.89 -15.7715 -2.4289 5.27264 -0.927973
2638 1 12.2106 4.93704 -6.47474 2.05381 -6.52261 0.917824
2639 1 -0.989959 -10.0876 19.6061 -5.85677 1.69456 3.40794
2640 1 3.41531 15.1455 -18.7219 6.34182 3.02333 0.188148
2641 1 -24.6525 7.1143 -13.8498 2.70002 1.52445 6.36277
2642 1 -5.48002 -19.4872 5.24653 -0.631362 2.32199 -3.29624
2643 1 -3.41407 -15.2691 23.4586 1.36679 -3.63435 -0.390191
2644 1 22.7118 -22.4111 -15.0791 -5.34592 0.656273 -6.40362
2645 1 5.49475 -21.8518 14.882 -3.0563 5.42118 -0.696211
2646 1 -3.73222 9.97159 -2.4704 -1.47609 1.84101 -1.99401
2647 1 -12.3757 6.54801 2.99118 1.29827 -0.0723461 0.85689
2648 1 17.9811 1.95491 3.59633 2.90227 -1.47465 5.32157
2649 1 -18.2178 18.444 -10.1266 2.30979 1.50125 -3.5881
2650 1 -4.76812 8.78343 14.4973 -4.50786 0.364237 -0.149255
2651 1 -16.5251 -19.238 16.1423 -1.32892 -6.32312 -3.42052
2652 1 -20.3679 -6.25044 -14.7679 -0.552148 0.598736 3.85976
2653 1 -8.13993 8.43995 -2.25665 -0.331699 -1.38082 -5.48624
2654 1 20.5378 -8.9108 1.57509 0.428321 3.07124 -4.54534
2655 1 -7.34144 -10.3534 0.505989 -4.63283 4.39628 1.87352
2656 1 -6.51889 7.79109 -20.8606 1.57796 5.802 -0.915749
2657 1 -9.90832 -6.36696 6.44097 -2.22196 4.15042 -1.84061
2658 1 -7.16975 1.46262 16.5753 0.352857 -0.60409 -2.84371
2659 1 15.6995 -5.46214 -22.0051 -2.21669 -0.34067 -3.33134
2660 1 -11.3269 22.772 12.5944 -1.13701 0.547481 4.9752
2661 1 6.72407 7.66896 23.0544 3.48491 -0.260274 -0.368368
2662 1 -21.2726 -22.173 8.98253 -2.37492 -4.54398 -4.95657
2663 1 -10.3685 9.01658 22.4362 -1.99319 2.12933 2.05947
2664 1 -15.8326 17.7013 23.2675 6.34141 -0.794933 3.98079
2665 1 -21.5822 1.49536 1.22389 2.42223 3.53143 1.34234
2666 1 20.2181 -20.7627 3.20538 -1.78919 0.96892 -1.92347
2667 1 -11.1197 -4.6966 -6.80483 -5.60557 3.83752 -0.446384
2668 1 -7.71308 -18.303 -22.6418 0.716506 -2.51334 -2.46363
2669 1 1.9747 -7.81173 18.1021 -5.12603 -2.95461 1.39148
2670 1 -24.3 23.6841 -16.3238 -7.10344 -1.64471 2.16191
2671 1 12.1469 20.9884 22.2588 -2.5054 0.739935 -2.29342
2672 1 5.98265 -5.43773 9.71852 1.60911 0.143284 -1.07981
2673 1 -13.793 -24.396 -1.18795 -1.88971 2.12957 0.809811
2674 1 -7.98836 -22.1709 -0.889153 0.940857 -1.69684 2.67107
2675 1 17.0626 4.38512 -9.32252 0.585383 -2.29965 3.4153
2676 1 21.373 22.6485 -17.6834 1.61934 3.62138 -1.06673
2677 1 0.0996914 -22.1033 0.386571 -0.874917 -4.02683 -2.21676
2678 1 4.4115 -19.5239 -15.8547 1.24169 -1.02448 2.49357
2679 1 9.18772 -0.812949 2.47574 -8.24306 1.34989 0.363624
2680 1 10.5681 -4.96415 -7.36025 -0.300542 -2.64763 -0.702203
2681 1 -14.0501 -7.89869 -17.9246 2.10088 2.49439 -3.49102
2682 1 -21.9019 1.90981 13.9979 1.31802 1.91017 -0.96975
2683 1 -17.713 5.15506 -17.6345 -3.74946 -0.853426 -1.36057
2684 1 -23.0853 -10.5854 4.7866 -2.00084 -5.15562 -1.40713
2685 1 -1.81087 -8.99753 3.25538 -0.80984 -0.416664 -1.14568
2686 1 5.96821 -23.6508 -17.9278 -1.98451 3.17342 2.05484
2687 1 18.9548 -17.0162 -13.4244 3.03838 5.65085 -7.6293
2688 1 -16.2908 -3.28897 -0.422947 -4.20981 -1.68333 -3.50505
2689 1 -5.97299 -1.57163 -9.86315 -0.0967969 2.80432 -0.180857
2690 1 -14.2066 -13.2442 -19.095 -3.23809 -4.3272 1.70466
2691 1 -19.4952 -21.2065 19.3646 -2.83361 -0.863942 1.45797
2692 1 3.30701 -0.23192 -10.9304 3.40233 0.0355047 -0.0171902
2693 1 9.15477 18.8476 -17.5435 -2.45607 -1.79202 -0.434186
2694 1 -5.70655 -11.3701 20.4543 0.405242 0.542428 -4.82605
2695 1 14.5053 8.20613 13.8944 -1.74173 -4.28356 -4.34198
2696 1 21.8838 -18.8909 22.3471 -1.98295 -0.884773 4.24233
2697 1 5.378 -0.666218 -5.10969 -2.64372 -1.83907 0.391203
2698 1 16.4256 -12.534 22.5795 3.05442 -1.24557 3.90593
2699 1 -17.2737 15.1298 -2.48156 1.09992 -1.38988 1.80952
2700 1 -8.39201 -19.7068 1.85979 5.23134 6.11482 3.53945
2701 1 -19.5403 24.2357 0.228871 -1.46868 -0.663311 -1.42618
2702 1 -7.8651 17.9958 -18.6735 -1.1425 1.53841 0.174701
2703 1 12.2595 -6.12744 -11.3694 4.92645 0.437273 4.37153
2704 1 2.27568 -23.9869 1.12604 -3.17839 -3.9994 -3.5217
2705 1 -4.05908 -2.04888 4.14276 2.03502 3.15914 -1.60027
2706 1 2.0238 -24.2195 24.0365 2.62731 2.76959 0.678861
2707 1 -10.0657 -13.5979 0.296494 -1.00744 -1.47255 2.54335
2708 1 -13.1311 1.05256 23.0552 -5.08224 -4.20668 -2.4585
2709 1 20.2628 -2.4642 21.1088 -0.94653 1.483 -6.86214
2710 1 -4.93992 14.9063 16.8193 1.18853 5.30055 0.387436
2711 1 -13.8207 -5.92407 22.9533 -1.83426 -1.4608 1.53609
2712 1 18.39 14.2281 4.26476 -3.15741 2.49248 -2.3313
2713 1 21.9617 4.58453 -6.48593 0.568746 2.76984 2.95826
2714 1 -19.5583 4.22928 -11.945 4.91725 0.929971 -4.48723
2715 1 -11.4693 11.3265 20.9075 -1.08857 -1.03655 -2.58301
2716 1 17.6657 10.9792 2.75798 -3.58762 4.32027 2.67957
2717 1 12.094 20.5078 10.4646 -0.546149 -1.725 -4.8795
2718 1 9.93151 -15.2333 24.0677 -2.86061 1.12491 6.64164
2719 1 22.3787 -9.59103 3.88384 3.94679 4.06387 1.2661
2720 1 -13.021 -9.35101 -20.3559 1.95186 1.62824 1.69733
2721 1 3.0479 -11.1251 12.2408 -5.92169 -2.04844 0.176303
2722 1 -11.158 20.6504 -6.7544 -1.9149 1.18385 0.681484
2723 1 -5.25805 16.7901 13.3785 -2.00626 2.08663 0.313588
2724 1 -4.20119 5.63622 5.376 -1.59319 -2.05575 -5.96618
2725 1 -1.80292 8.03198 -17.8944 -3.6187 -1.17706 7.34851
2726 1 -9.97383 -7.70845 -23.4111 1.68267 -0.0745016 0.7963
2727 1 -13.817 -20.0718 -1.96419 1.33761 0.40578 0.109865
2728 1 21.3976 -2.73901 12.3438 -0.60108 -0.449794 -1.14864
2729 1 -3.39257 -22.9092 -18.8764 -1.76867 0.642035 -1.48159
2730 1 -7.83647 -14.0739 9.67708 -2.49033 -6.26488 5.57299
2731 1 -22.9089 23.7253 -7.90647 -0.269838 0.0121858 -1.56546
2732 1 1.16711 2.44447 3.93055 2.53766 0.581417 -5.23983
2733 1 -8.74568 9.42433 -19.8647 2.86145 -2.07292 -1.07444
2734 1 17.8596 -9.12633 21.1096 -3.3699 3.46901 3.78707
2735 1 -4.15538 8.12608 -14.8376 -1.01323 0.14025 8.35363
2736 1 16.3796 13.4251 22.7642 -1.52572 3.29083 -1.33569
2737 1 -20.6195 -18.4772 0.364876 4.33405 -4.45523 0.818667
2738 1 -7.1786 9.61678 13.1668 4.47502 2.41777 5.69101
2739 1 -10.2717 -8.04153 20.5425 4.33078 -2.03213 1.22332
2740 1 -12.6315 -13.7694 -21.4117 -4.44838 0.644515 -1.66892
2741 1 -8.31138 7.33312 1.79304 -1.85143 -1.12946 0.283511
2742 1 -15.4347 14.591 6.05939 -1.00383 4.44089 -0.290119
2743 1 1.64759 -20.3766 -7.79323 -5.4689 2.10763 -1.78282
2744 1 -16.8243 -19.5423 -20.5519 0.266646 -4.00568 4.34489
2745 1 -11.5725 20.3651 2.73678 1.45553 2.19337 -1.67412
2746 1 5.82336 -12.4889 -3.02962 7.22498 -2.51352 1.2935
2747 1 -1.83001 2.52048 15.0678 -3.96571 1.11619 -2.96766
2748 1 -4.2514 -0.862677 -12.1985 3.11669 0.663097 -5.63241
2749 1 -11.7081 -8.11201 22.7584 2.4547 1.40035 0.334938
2750 1 -13.7495 21.6815 -19.5722 2.18986 -3.12816 -2.64656
2751 1 9.01665 -22.8356 7.35312 -0.892625 1.21721 0.612499
2752 1 -9.84899 20.4525 -9.16878 -1.27864 -3.27248 5.74018
2753 1 -2.03408 -7.81506 10.0399 0.182251 1.15609 3.2555
2754 1 -12.6686 24.2839 -0.116148 -2.27189 0.865389 2.37263
2755 1 1.31417 -11.6535 14.9327 2.19881 -0.807257 1.97975
2756 1 22.78 12.0005 20.2361 2.55746 -1.07818 3.38766
2757 1 16.0428 -18.004 18.9946 5.85397 -2.6979 4.18056
2758 1 -21.0319 -15.3064 -8.0393 -1.72105 -5.72264 0.617593
2759 1 -17.3214 -16.2075 8.02153 2.15757 -2.56558 -0.149116
2760 1 -0.975624 12.3132 -17.7956 -4.00987 0.153195 0.124723
2761 1 -6.81689 -15.5107 15.4376 -3.73784 5.2275 -7.03199
2762 1 -11.0463 9.43516 9.76918 -0.22724 -0.59112 -3.68487
2763 1 -5.81427 -11.5918 17.7119 5.26419 -4.12406 2.46669
2764 1 6.45291 22.1 -11.7866 5.24779 -3.0372 -2.34879
2765 1 8.86899 -16.8974 -19.4909 -3.81073 -1.16034 0.317102
2766 1 8.58853 9.55099 16.4778 -3.1222 -1.79094 -2.10872
2767 1 -12.8567 -18.9736 -22.1848 -1.47207 3.7447 -1.00754
2768 1 -4.96007 23.0354 -0.734437 0.816184 -0.562838 3.76386
2769 1 -16.473 16.3262 15.7944 1.22725 2.91201 -1.38216
2770 1 -24.1364 8.98456 3.44556 1.23628 0.0636249 2.04631
2771 1 -20.361 -15.3275 -19.1626 1.73759 4.84165 -2.62054
2772 1 -14.2788 18.7283 -19.5753 0.0102977 -0.367334 -0.770722
2773 1 9.14858 23.6765 4.92689 -0.0113476 -1.51231 0.116083
2774 1 21.3669 1.1264 -17.4092 0.929257 -2.00795 -0.1569
2775 1 -1.95007 -18.1599 14.4854 1.13507 0.930931 3.35485
2776 1 8.47604 7.24165 -7.86572 4.21259 2.09836 5.83766
2777 1 -13.9814 15.8033 3.61666 2.19865 1.99007 -3.07799
2778 1 -22.2797 17.2838 19.8962 3.96475 -0.706288 -2.90604
2779 1 20.6861 14.3761 17.957 0.553453 -0.289115 -3.22805
2780 1 -14.318 0.288702 -7.13266 -1.17499 0.165006 -2.93278
2781 1 13.6728 24.0731 12.0435 -1.11363 -1.99394 2.0631
2782 1 8.15961 -10.5488 14.4057 -1.81574 -3.94089 -0.726455
2783 1 9.03499 -6.45527 -14.0294 -1.4305 -3.43101 -0.272343
2784 1 -11.4207 1.94449 -0.489676 2.25023 -4.96374 2.90034
2785 1 21.6605 -4.12251 -12.8754 4.91782 -3.31462 -1.32873
2786 1 5.98703 -4.60791 2.04776 5.983 -3.80246 2.83945
2787 1 -16.041 14.5904 0.036736 -1.5215 -0.870913 -4.01289
2788 1 -21.1132 15.1107 12.8334 -0.575506 2.5857 -1.8048
2789 1 8.17376 -5.59195 -5.23175 -1.90525 -0.773697 -0.138559
2790 1 -7.25178 -6.2876 -16.1796 2.97068 -4.43128 -1.67364
2791 1 19.2986 15.327 -6.5301 -0.541129 1.54748 1.9737
2792 1 -6.75827 -5.40365 1.67983 -4.52635 -1.08127 -2.79567
2793 1 -2.08693 0.387629 7.62438 -4.32528 2.06448 2.98744
2794 1 6.9154 18.9144 -8.72554 3.72908 -0.669623 -3.06449
2795 1 20.1 12.9895 -19.5776 4.33151 -1.75106 -1.6046
2796 1 18.8045 -13.7532 14.3201 0.00559601 -1.22028 -3.152
2797 1 17.9603 -11.3044 -23.6237 -4.42203 -0.190716 -3.61386
2798 1 -21.4732 -1.48089 -4.37502 -0.95593 1.66747 -4.168
2799 1 -0.403149 -16.4209 -7.54251 3.18071 0.0453508 3.15943
2800 1 -14.3142 -15.9626 -17.8417 5.34104 -2.16699 -0.395934
2801 1 2.18497 17.3355 6.45415 -4.92007 -2.55427 0.0258046
2802 1 6.49734 11.0405 -10.8086 -1.05237 -4.72623 0.806772
2803 1 -24.226 -5.20188 -14.0006 -2.12633 3.04935 -4.48326
2804 1 -17.6779 14.4476 -10.9039 0.139431 1.2849 0.752327
2805 1 -16.7099 4.00158 -10.8517 1.43197 0.919982 -3.58348
2806 1 -4.14502 18.4954 -15.8946 1.60076 1.94562 0.370167
2807 1 -21.2446 18.7727 -1.13208 2.89392 -5.52032 0.582975
2808 1 5.00943 -24.2824 -10.9957 -2.7991 1.99449 3.45441
2809 1 -11.5221 17.7427 18.4442 -2.46763 -5.38792 -2.76086
2810 1 6.58378 23.6167 -14.6384 -0.348904 2.69379 -1.45025
2811 1 -14.5364 12.92 3.50523 -1.02547 2.38967 1.24141
2812 1 -8.50002 -1.51873 21.6807 1.10303 -5.04842 -2.26444
2813 1 0.681431 -10.5669 -17.2513 -0.339458 -0.847454 -2.14853
2814 1 21.5984 -4.80184 -6.11751 -1.59452 6.16678 -0.250774
2815 1 22.3263 11.0425 6.64031 0.145584 3.428 -1.40966
2816 1 2.83236 -14.4581 17.502 1.36795 3.19217 -1.96138
2817 1 5.0462 -17.0984 -23.8634 2.02745 0.13588 -3.18528
2818 1 -0.685282 -3.16 3.73389 -4.51369 4.28269 -1.81822
2819 1 17.4214 13.7845 15.9482 0.0801047 3.44947 4.18538
2820 1 -15.3884 21.1501 9.3939 0.256096 -3.22351 2.18865
2821 1 20.4527 -12.8691 -11.83 -4.58895 -2.02167 1.91644
2822 1 -15.1203 -3.02283 5.10421 0.341346 -0.380387 2.19156
2823 1 13.4197 -14.7286 5.74869 1.90359 1.4135 -0.362174
2824 1 8.41917 14.6669 15.3357 0.0145608 2.26673 0.896311
2825 1 14.2335 16.8096 -8.3824 -1.70669 2.14679 -2.66355
2826 1 6.83227 -18.6487 -2.0186 -1.02507 -1.93832 -1.71753
2827 1 8.36488 -9.26929 23.8978 1.43041 -1.12201 -0.822088
2828 1 3.63466 -6.39709 -19.4842 4.2118 -3.17747 -1.64782
2829 1 18.3254 -20.7218 9.33037 0.219692 3.1585 -2.34729
2830 1 -21.8793 6.92783 0.536506 -5.86675 0.00458412 0.933585
2831 1 18.9088 4.64607 -12.693 -1.92323 0.499734 -1.11115
2832 1 -23.2024 -20.5283 -7.54079 -2.00915 0.533466 -1.28145
2833 1 -24.3251 0.820751 6.78008 -5.87658 2.35453 0.713305
2834 1 -9.66997 -17.9546 19.9671 -3.59554 1.00699 0.797164
2835 1 -4.768 5.32688 -0.646043 2.07424 -0.400667 -2.46028
2836 1 -14.0589 20.1638 -6.01582 0.429503 1.64156 -2.63934
2837 1 -16.7937 9.70892 -9.52222 -0.779079 -0.878366 -0.130437
2838 1 19.1994 -11.5173 21.8207 -4.06406 1.36725 1.61572
2839 1 -16.5682 -2.32507 -22.4965 -7.3534 -3.09172 -6.69315
2840 1 2.77068 -18.7659 -23.8284 -5.94328 -7.7011 3.15196
2841 1 17.8532 -17.4862 -3.3919 -0.990632 -0.677427 -3.37034
2842 1 -2.82143 -11.754 -10.2793 -5.81077 -2.16077 -0.297771
2843 1 12.9578 4.357 -21.6432 3.61502 2.58208 1.25725
2844 1 19.6486 16.5122 7.90673 -1.17723 -1.68119 -1.34708
2845 1 18.4782 3.74497 -19.9008 -2.36084 -2.98159 -2.35874
2846 1 -23.1836 -0.870912 4.53304 0.339886 2.65367 1.95408
2847 1 6.59424 13.6723 -1.18373 2.94949 0.531324 1.40968
2848 1 -15.2897 46.4234 -9.31815 1.91995 0.409571 -4.05737
2849 1 -20.961 -20.3035 14.1265 0.996282 -7.23372 -0.134256
2850 1 0.291299 5.46991 -10.352 -5.30038 -1.95034 1.87984
2851 1 -6.35757 23.9159 18.6333 -0.148308 2.39136 1.10794
2852 1 2.06727 -5.15596 0.863544 0.876013 2.26258 1.0843
2853 1 -2.13957 23.0262 21.7089 2.02227 -4.63372 -1.15552
2854 1 6.11371 -7.11766 -6.60738 -0.247683 -2.40176 -5.41256
2855 1 -16.9731 -5.96911 -21.1298 -0.798798 -3.51574 3.42046
2856 1 16.61 -15.6366 -0.0764099 3.06289 -0.36857 0.952451
2857 1 18.3668 10.2576 10.9189 -2.3061 -2.63729 -1.57412
2858 1 12.2818 -0.660983 -19.7831 -0.653701 -2.33769 0.817367
2859 1 -23.8031 -23.2031 -18.6289 1.16248 0.0606922 0.582651
2860 1 -21.8236 6.39304 20.6622 -1.6241 0.181371 1.94503
2861 1 13.5229 13.4324 21.4842 1.83555 2.0803 -0.433558
2862 1 12.2301 -2.99329 -16.0233 1.71331 4.0628 -3.20527
2863 1 20.8807 -18.8112 -19.0332 -1.1046 1.0308 2.09012
2864 1 -15.1422 12.2188 16.2031 -2.13325 -1.37786 -0.0888732
2865 1 3.04107 11.5014 0.0985058 -0.88669 2.37388 1.91076
2866 1 -18.0533 25.7925 -7.19672 4.08762 -1.2969 1.37471
2867 1 -16.9983 16.2463 -15.4002 -1.77598 6.40119 0.283728
2868 1 3.12361 -23.7611 21.2893 -1.45539 -0.381198 -1.98002
2869 1 -20.9346 -14.1523 17.6541 3.69882 2.11041 -3.016
2870 1 -11.7413 16.1146 -11.8573 -0.136887 0.872077 -0.887143
2871 1 -15.0815 20.2803 23.9045 0.189849 -1.12915 1.74362
2872 1 7.32574 7.87951 8.01882 -2.99774 2.94648 2.21728
2873 1 -11.2628 -2.07881 2.93672 -0.218268 2.10172 -6.00435
2874 1 0.491471 -9.69021 -12.1754 -2.10302 -1.60052 0.417618
2875 1 21.8059 -3.50476 -8.90181 -3.21034 -0.755981 1.23593
2876 1 20.024 -23.1193 -22.067 -1.62622 1.34398 1.62066
2877 1 10.3802 -5.94557 4.4177 2.19649 -0.581701 2.09473
2878 1 -18.2685 22.0429 -13.9855 2.25206 -3.04154 1.21721
2879 1 1.13766 16.056 3.99695 -3.31472 -1.48042 -4.50746
2880 1 -1.85804 -0.269573 14.7273 -1.78821 -1.54586 4.36212
2881 1 -16.5994 15.2975 -21.1344 2.66709 -2.87784 4.26278
2882 1 -22.9076 -16.242 20.2097 -0.0160569 0.731889 2.85967
2883 1 12.5395 -15.6803 0.245287 -5.44909 4.84563 -3.20437
2884 1 10.6797 -4.45931 -22.7372 -2.32524 -0.255677 -0.223776
2885 1 -5.52367 2.64901 -6.58996 0.277884 -4.41093 -0.040305
2886 1 11.9881 23.9075 1.92301 4.71616 -2.59872 1.46264
2887 1 -23.9323 18.4547 22.5864 2.36117 1.50851 2.60724
2888 1 -11.2593 5.35396 -23.5559 -0.394413 1.74369 -0.725259
2889 1 5.70502 -2.47189 9.84181 0.111443 -2.12617 -0.322353
2890 1 -1.09927 -7.36282 -23.4986 -1.51941 4.54246 -0.113853
2891 1 6.9713 -4.47068 15.9724 1.03373 1.08603 -2.65515
2892 1 23.2499 18.6469 -11.0528 0.562768 1.63548 0.828537
2893 1 -12.0983 -15.2762 22.4739 4.98996 1.99121 0.617183
2894 1 -8.66468 3.17885 14.9564 -1.90353 0.354923 -2.26644
2895 1 -18.1482 20.4431 20.2199 6.44395 -1.6795 -1.29166
2896 1 -13.5189 5.10103 17.7532 6.52407 3.86658 -4.65033
2897 1 -2.679 15.3399 -2.46656 -2.06774 4.33883 0.512488
2898 1 -7.57234 -8.92204 -19.8374 -2.45326 2.33195 1.83019
2899 1 -4.72777 -22.5354 19.1541 -2.37538 -6.01174 -1.18046
2900 1 14.9441 3.41701 -23.1997 -2.11444 -4.9562 -2.62725
2901 1 -14.412 -18.6998 -16.6931 4.88957 -4.12721 1.45962
2902 1 -22.0521 0.981536 -20.852 2.86496 2.56364 -0.415273
2903 1 -14.6746 -13.4339 3.45362 2.21817 4.12738 -1.90653
2904 1 -6.90675 12.9835 -2.45129 3.60555 0.786218 -1.17467
2905 1 -17.819 22.9364 21.2955 -0.0574549 -0.117277 0.765234
2906 1 13.1372 2.62585 19.9512 0.79515 -3.40919 2.44181
2907 1 -15.2689 25.2721 -6.6341 3.56117 -1.51154 -1.52262
2908 1 0.170218 9.59618 18.7588 -4.34827 -1.00776 3.19024
2909 1 -9.16595 -5.00922 -23.7435 2.65429 0.112047 -5.78493
2910 1 -13.1775 8.07814 18.2157 1.28356 2.27283 2.27793
2911 1 0.10668 4.03615 -19.7736 -0.235402 1.25994 -3.73091
2912 1 11.0586 -17.7618 -7.37129 -2.90126 -3.18449 1.29688
2913 1 16.9018 4.81443 -4.71969 0.657437 2.22403 2.05778
2914 1 0.927415 -0.775065 13.0406 2.84199 0.468028 -7.20298
2915 1 -15.6431 -11.243 24.0048 -0.689236 1.27648 -2.13499
2916 1 20.2465 23.2973 -10.2743 -1.02252 -0.181804 2.10602
2917 1 -8.67936 8.23558 4.57886 6.81521 -0.062509 0.694644
2918 1 20.4894 7.19057 -6.00901 -5.36759 1.46706 -3.15334
2919 1 23.28 -15.1944 -5.25852 2.72521 2.08724 -3.98933
2920 1 -23.9646 12.9385 7.8261 2.83977 -2.50476 -3.51883
2921 1 -17.8727 21.3582 10.3714 -1.32588 -1.81894 -1.54567
2922 1 -16.9036 -20.1053 -23.2807 0.578832 0.62795 0.22104
2923 1 -13.9233 1.19955 18.4807 0.0214019 2.20398 4.66219
2924 1 -1.50644 -17.2382 23.599 -5.33827 -0.319697 -0.206113
2925 1 20.3598 -7.15693 13.532 -0.183465 3.67967 -0.015969
2926 1 -8.18936 7.49897 -13.5701 6.24514 -2.51191 2.82536
2927 1 11.684 6.16073 -0.474902 -0.39682 -5.34535 -4.0092
2928 1 -21.7486 46.942 -8.9961 -1.93048 5.09343 -1.88771
2929 1 4.15315 -11.5735 7.42191 -5.55293 -3.44762 3.56426
2930 1 -20.3184 5.27376 -1.32988 0.95365 -2.90082 -3.20332
2931 1 4.61497 -9.06458 24.0559 -0.366088 -0.874439 0.876064
2932 1 9.34392 18.5591 19.455 3.90591 1.1935 -1.11925
2933 1 22.7518 -3.98924 10.0716 2.45217 2.39985 1.96832
2934 1 8.2907 2.47213 -20.9174 1.03051 7.08395 -3.15325
2935 1 7.58007 23.6702 0.713057 0.911685 0.49907 -5.99655
2936 1 23.2671 9.23111 -6.93603 1.77319 2.29155 4.95181
2937 1 -16.6027 3.26914 -13.9994 -0.207155 -5.68988 1.50215
2938 1 -7.81701 -5.86519 -5.2531 3.94204 -4.82288 6.40405
2939 1 -11.7234 17.9228 4.10067 5.03356 0.89221 4.63955
2940 1 16.7861 17.55 -0.0743091 0.63347 -0.587154 2.21703
2941 1 -8.69125 3.00232 -9.88971 -2.53388 -1.75258 -0.111428
2942 1 -21.6795 13.7372 22.3971 -1.28602 -0.760942 -0.121258
2943 1 -24.2538 8.69754 7.83858 3.18089 -3.11721 -7.28325
2944 1 8.03348 -22.2771 14.3284 3.76331 1.47862 2.42009
2945 1 -7.86045 10.3716 -9.7204 -1.79195 0.207358 -1.08102
2946 1 11.0511 -0.621161 12.1439 -2.4639 1.41852 -1.70966
2947 1 17.6855 -13.3695 -21.9175 2.76382 4.84244 -1.43939
2948 1 -0.757853 -19.7283 -1.10314 4.24788 2.69541 -1.26935
2949 1 -10.4372 -20.7026 23.0543 4.29784 -1.68283 -2.47978
2950 1 -20.0774 16.3322 5.73262 5.24183 1.63092 0.930847
2951 1 11.3619 -17.4974 -10.1737 -1.48595 3.90689 -2.13419
2952 1 -12.2788 21.5159 -21.9513 -6.21714 1.65721 -6.33075
2953 1 13.3502 4.32692 1.50136 -0.0427755 2.81044 -3.70222
2954 1 -15.9509 -1.89499 8.47902 0.842682 -0.684527 4.24806
2955 1 8.30362 -10.1671 18.1913 -2.81704 -3.52418 0.0151324
2956 1 -15.9794 20.1764 -1.45331 4.96314 2.36866 -3.89045
2957 1 1.14559 -18.0964 14.2398 0.6234 4.68403 0.0577089
2958 1 6.1123 -7.83764 -10.995 -7.14333 -0.0297573 1.99467
2959 1 -17.6234 17.6601 -22.7274 -6.26478 -1.009 -0.261133
2960 1 -11.9088 -1.61716 -22.538 -0.82556 4.45323 2.53306
2961 1 -11.1525 -11.3857 -21.0628 2.56514 -1.01992 0.256724
2962 1 -7.32904 -0.726612 -15.6754 2.46674 -1.248 5.74907
2963 1 -24.1461 10.8455 -4.35015 2.25512 -1.41388 4.78708
2964 1 -0.353913 -20.3483 -21.3667 -0.977435 0.527176 2.37872
2965 1 18.8103 -2.59877 -14.1886 1.0161 -5.68773 -0.564277
2966 1 -2.55052 -21.7665 17.8104 -5.54967 3.11022 -4.37983
2967 1 1.73815 9.70497 10.0924 -0.870762 0.46091 -1.53399
2968 1 -5.17612 -13.7838 0.800392 -1.46974 -2.40995 1.04087
2969 1 -3.23015 -4.07705 17.1609 -8.10326 -5.51163 3.23265
2970 1 21.5858 -13.5395 -14.5858 -0.192496 6.27237 2.0983
2971 1 -4.60499 18.127 10.9754 2.05583 4.049 2.91318
2972 1 -9.31229 7.9695 -10.8733 -0.878695 1.08795 1.62323
2973 1 -12.1281 16.1395 20.7557 -0.0785609 3.83171 -0.234272
2974 1 23.6237 -1.25564 18.8226 1.79415 0.930378 4.47929
2975 1 18.5023 11.3936 -0.745861 0.0553217 1.36215 0.650664
2976 1 -19.545 18.4557 -12.7183 2.20264 -4.86534 -4.3017
2977 1 4.16366 -8.90493 -1.72036 -0.610704 -2.4286 -4.69756
2978 1 13.6762 18.7672 -16.4456 -0.285733 0.436241 0.0891029
2979 1 5.05574 8.15963 17.2913 2.63805 2.16827 -3.20111
2980 1 -2.46243 13.7251 -0.0899331 -3.57393 -0.331974 3.90494
2981 1 -11.2634 9.75326 17.0706 1.17806 -2.57113 1.45393
2982 1 -13.6331 -5.42576 6.14496 1.2915 3.59196 -1.32901
2983 1 -8.59186 14.2901 23.6455 -2.58045 -1.96214 2.44654
2984 1 0.280167 -1.74732 -24.1079 -2.346 -3.31334 2.42457
2985 1 -12.6748 -12.3115 11.5098 0.0390147 6.51799 4.67417
2986 1 -6.63004 17.4857 -21.1514 2.38806 -2.08006 0.473461
2987 1 -22.1362 -24.6631 -6.22886 1.85149 -2.37854 2.51597
2988 1 1.49668 -24.0056 -5.68616 -1.84798 -1.51031 3.02768
2989 1 21.0253 18.5842 -12.9565 1.14278 -2.58403 -1.74011
2990 1 12.242 -17.2103 16.8982 3.4532 2.38323 7.03822
2991 1 0.399727 2.10953 11.0686 1.5438 1.4222 3.23792
2992 1 22.4141 11.6071 -10.6063 -0.217633 -3.54801 0.188613
2993 1 23.4579 17.4479 18.6834 -2.55655 3.53476 0.794798
2994 1 16.649 2.67649 12.5261 1.42142 -1.01078 -1.64522
2995 1 -3.68399 10.802 -6.80784 2.62171 2.8636 -0.374746
2996 1 14.2927 6.95375 6.0056 -1.78414 2.99796 -1.20533
2997 1 -7.92114 -17.9027 6.02967 1.52325 -4.22841 -0.105157
2998 1 3.35459 -15.6038 13.8702 -4.19924 3.89269 -0.684124
2999 1 11.7246 -16.7365 -2.37121 1.22005 0.984966 -1.57874
3000 1 -2.23899 11.0879 17.4023 1.39791 -2.51157 0.342304
3001 1 10.2978 10.9898 9.90331 2.74246 0.43575 0.426243
3002 1 -20.8348 17.2374 17.159 -0.795955 -0.848238 -1.33772
3003 1 15.7475 11.7919 11.0195 -0.549926 -0.114773 -3.39095
3004 1 17.4138 17.1035 -17.5554 -6.16561 0.70432 -0.340511
3005 1 3.02138 5.06208 -6.1937 -2.50087 -2.1694 4.32877
3006 1 18.2399 10.4667 -21.8884 0.935497 -0.874732 -1.1634
3007 1 -6.69517 -21.1422 -22.6784 -0.18717 -2.18839 2.66864
3008 1 -4.56117 -20.8052 23.3625 -4.7689 -1.41408 -2.91736
3009 1 -13.7229 -20.2078 9.40492 -3.12286 0.402675 -2.58455
3010 1 -14.9187 -20.1563 -14.2745 4.82156 -3.53712 4.6372
3011 1 -8.31145 -1.63561 -11.491 -2.44536 -0.52777 -4.13098
3012 1 1.37182 -21.9888 -18.4761 2.57809 4.02842 1.19241
3013 1 12.3524 -17.5633 20.7653 1.74455 -2.60211 2.75127
3014 1 -23.7576 11.7492 22.6067 3.4769 0.764425 -3.3369
3015 1 -5.6105 10.6896 8.30484 0.575614 0.959303 -1.17849
3016 1 18.81 -13.9616 -19.36 0.418675 -5.5835 -0.835119
3017 1 -13.8252 5.91785 23.1572 1.23745 -0.406696 -3.14224
3018 1 -21.7361 -2.10254 -14.2768 -2.74286 0.0444872 -1.59297
3019 1 -20.6909 -18.7616 11.5365 -1.43013 -1.1978 1.23723
3020 1 -14.8255 -10.1194 7.37706 -1.62574 -2.55356 -2.81524
3021 1 -16.9435 23.3142 -2.49352 3.9018 0.929282 -4.70317
3022 1 15.1998 -11.8978 0.742577 1.36008 -1.25955 4.0645
3023 1 3.39409 18.0799 -3.58597 2.21481 4.66518 -3.81547
3024 1 -24.4495 5.27426 0.973323 -1.46411 2.97054 -4.46906
3025 1 5.81779 -23.5943 8.95362 -0.58389 1.94769 -3.37256
3026 1 1.53793 -21.047 7.8248 -0.460096 -2.31538 -1.42421
3027 1 12.2667 3.46456 10.8406 1.12711 -3.1039 -3.09918
3028 1 -14.4224 12.2441 20.3697 -0.256583 3.16736 -0.287166
3029 1 6.2237 3.45151 12.8215 -5.60652 -3.20105 -3.19474
3030 1 -17.3005 20.5558 -11.896 2.55353 -5.93802 -1.25733
3031 1 -23.9986 -8.51896 -19.0233 -4.09871 0.250812 -0.570317
3032 1 18.3375 -10.5159 -4.19477 8.82386 -0.149403 -3.8835
3033 1 -12.2053 3.7396 5.73147 0.741044 0.520849 5.11906
3034 1 -9.87703 -7.40218 -16.4555 -0.305845 -4.35254 0.996684
3035 1 21.8466 15.3997 6.67217 -4.9217 -2.04705 -1.60906
3036 1 13.0737 18.3491 20.8131 3.29761 0.115255 -0.714642
3037 1 -3.10356 -9.46474 5.72818 0.920857 -5.08282 -4.7946
3038 1 -17.9117 -23.8059 -17.0973 -1.13625 1.35188 -0.931008
3039 1 16.6914 -22.2388 16.3115 0.911304 1.23262 1.9765
3040 1 5.7708 -18.2944 13.0468 -2.61449 3.05922 4.64021
3041 1 -21.9168 21.3342 -0.394134 1.906 -1.7495 2.88756
3042 1 -7.79692 19.2673 14.5955 4.05924 1.95415 -2.30697
3043 1 4.42055 -11.4347 -17.8133 6.28518 -3.83339 7.16041
3044 1 -6.28846 16.4448 -5.35419 -1.87011 -2.0983 3.84725
3045 1 -2.23575 -3.5468 6.29318 5.59915 -1.76916 -0.0932764
3046 1 15.3608 -11.1447 -16.2117 4.44662 1.03917 0.703343
3047 1 6.68929 18.4934 7.38289 0.017393 1.60412 0.0585812
3048 1 6.19322 -11.4307 20.1257 4.03346 -1.02205 1.32269
3049 1 -11.5295 -22.4633 -14.277 -1.82535 0.64542 -1.23249
3050 1 2.62342 -23.5911 17.4811 -2.40434 -4.24816 -4.82665
3051 1 -18.874 0.0771454 -11.5511 0.631363 -0.00960889 4.29072
3052 1 -20.2348 15.6072 -12.4456 -1.73971 2.15035 2.73228
3053 1 21.9459 -21.6508 -0.465895 -2.70146 -1.32493 -2.01581
3054 1 21.478 -3.9511 23.334 -1.86638 0.0186023 -2.48733
3055 1 20.1364 4.14339 3.25718 0.218146 -0.630213 1.75775
3056 1 -23.6719 13.7543 16.1033 -3.295 -1.62714 2.84303
3057 1 16.5802 5.55413 -23.5202 1.35225 -2.58506 3.75211
3058 1 11.8536 -6.71934 8.28705 -3.37998 -1.33252 2.05995
3059 1 -10.8803 -23.8271 -5.49267 1.81009 -5.61536 3.30493
3060 1 -19.7711 25.9678 -5.09995 1.26731 0.813247 0.149806
3061 1 -8.51342 21.0475 -16.3271 0.0757928 0.684331 0.433963
3062 1 -9.82474 15.0552 -16.503 -1.87117 3.69502 0.41206
3063 1 9.34969 23.0541 -14.1257 -1.07968 7.3378 6.50711
3064 1 -4.16359 11.1821 -20.3521 5.42143 2.02444 -5.09202
3065 1 7.09297 -12.3815 -12.3849 3.8765 -0.786163 1.01666
3066 1 21.9018 -1.30168 1.2306 -4.28474 4.80082 2.87583
3067 1 15.0813 16.8885 -11.9535 -0.422821 -6.23976 3.47016
3068 1 21.4197 18.0822 -2.36999 2.32075 1.49123 -0.58958
3069 1 7.42593 -8.14851 -4.08016 -3.85305 0.370131 -0.848421
3070 1 -24.4903 -7.97051 0.563942 3.02507 4.39685 5.30962
3071 1 -4.35249 -4.58975 -6.62816 0.461283 -1.75972 -5.09528
3072 1 1.77536 8.23005 22.0963 -2.79276 -2.91078 -0.154848
3073 1 1.99896 22.4681 -1.24988 -1.16261 0.911501 -2.99858
3074 1 -10.3562 -9.07417 7.27848 -6.70239 0.712781 2.00445
3075 1 19.3729 6.6096 24.0806 0.647846 -3.31268 0.965867
3076 1 -11.7595 19.0258 11.5873 -5.37495 -0.205404 1.83036
3077 1 -13.1067 -24.5423 -7.08946 -0.876988 2.59011 -0.195127
3078 1 -19.5639 6.19512 -15.5988 2.33362 8.21517 0.145176
3079 1 11.6053 -4.6103 -4.48177 0.141141 -4.48323 -3.45352
3080 1 -21.0586 11.1535 -7.40828 0.268501 2.10064 -2.35486
3081 1 -18.2033 9.21203 8.3261 -4.76596 1.51639 -0.485727
3082 1 -3.18158 0.940551 -24.1527 1.882 0.682054 0.410582
3083 1 7.50073 -14.2264 -7.04692 0.0376231 -1.16294 -6.87803
3084 1 -16.7461 -22.7629 6.8798 -4.33571 -1.78978 0.922169
3085 1 -16.8191 -3.22021 -6.08279 -2.34618 3.00059 -0.327659
3086 1 15.7944 20.5341 3.40177 0.655286 0.403955 1.1161
3087 1 -8.24533 -22.3082 10.8393 2.12227 2.52515 -0.667316
3088 1 9.164 4.65155 16.3821 -0.69602 0.751772 -2.57649
3089 1 8.32801 -19.8172 13.4453 0.500566 -5.16049 1.82752
3090 1 15.8795 -2.9459 -5.30669 0.682787 0.515916 2.02024
3091 1 -1.89502 -0.811931 22.559 3.8734 -1.48018 -4.06027
3092 1 -7.04192 -7.58838 19.1164 -6.32169 1.20571 2.30747
3093 1 -14.0044 5.10079 -22.5063 -4.20331 -0.973382 2.44822
3094 1 13.9817 7.75231 19.9236 -2.2115 -0.894555 0.243828
3095 1 -16.5363 -15.3469 -3.78648 1.59396 1.66515 -0.708063
3096 1 4.36992 7.69488 -21.8567 -1.03857 -5.7757 1.91717
3097 1 -8.43561 -11.6393 -19.9949 0.339686 4.22385 -5.89482
3098 1 -10.4263 -18.8678 4.64394 0.87733 8.02342 0.0813404
3099 1 -20.5617 8.27687 22.7222 -0.285785 1.39923 -4.45959
3100 1 18.0482 -9.7586 -20.7576 3.51377 -1.78499 1.08135
3101 1 23.8299 -15.6096 -18.7429 -0.688675 2.94455 -0.936236
3102 1 3.1096 2.87569 22.048 -4.02615 2.74882 1.50786
3103 1 -6.60713 -13.5712 23.2325 1.34902 -0.169911 -1.71805
3104 1 -22.6114 -6.20235 5.80029 -0.189642 -1.29048 4.40607
3105 1 -24.3086 -4.89391 21.2237 1.36081 2.63403 5.64932
3106 1 2.00377 -10.3522 -5.05898 6.28221 2.28394 1.84731
3107 1 20.7569 -13.5028 22.9595 -2.28191 -0.0634592 0.253452
3108 1 8.85692 -15.9968 -4.92596 4.58182 -2.63755 -3.69785
3109 1 2.18995 -0.0550468 1.7834 0.562756 0.56464 0.565855
3110 1 6.50955 6.8015 0.753306 -0.919557 -2.01056 4.72426
3111 1 9.90507 -19.4044 -16.1903 0.532753 4.75118 0.704292
3112 1 -0.236174 -12.9662 -22.499 2.67408 1.43298 3.86626
3113 1 7.12582 -11.3122 -17.0054 1.58399 0.000673982 -0.588283
3114 1 4.3021 4.41795 -15.7245 -3.22534 6.42511 -5.12541
3115 1 -19.3048 18.4493 -15.5957 -1.00653 -5.74843 -2.9163
3116 1 -13.3932 15.708 -0.591722 1.53591 -4.72675 -4.45315
3117 1 15.4946 -11.2615 -3.29658 1.15596 -3.95249 -0.809495
3118 1 3.31357 5.10638 5.73012 1.51967 -4.14215 0.574166
3119 1 -9.7436 -9.88448 2.3183 6.88528 1.06244 -4.01524
3120 1 -11.2337 -3.58999 -18.4832 2.19571 -1.10904 3.47915
3121 1 -2.04189 -22.8578 15.1133 2.66561 -2.02418 1.40556
3122 1 -13.2617 24.8526 22.5915 -2.06862 1.98548 -4.6391
3123 1 14.0226 17.4077 14.5438 1.14734 -6.34811 3.75997
3124 1 -12.5334 12.8828 -7.85867 5.32412 -3.37612 -2.76765
3125 1 -1.92753 -15.3404 -2.14509 3.70727 -0.629902 -1.41827
3126 1 0.803108 8.04016 -8.73587 0.374886 -1.60689 -3.00347
3127 1 16.8227 5.71954 3.58676 0.126632 1.27826 1.68152
3128 1 2.71693 9.57363 -15.773 2.30602 -1.42253 1.7056
3129 1 -3.84763 -9.44748 8.46938 0.905691 -2.19496 3.00086
3130 1 23.7644 -8.85933 10.6687 0.988114 -5.81707 -1.51663
3131 1 -9.5957 14.0547 1.39537 1.55608 1.95023 -1.02588
3132 1 3.65805 9.11222 4.02394 1.80237 1.47448 0.531954
3133 1 -1.86501 15.7737 -11.377 -5.27376 -2.15623 2.37435
3134 1 22.4642 7.80513 -1.6485 0.926719 2.34522 4.46393
3135 1 -20.7645 -13.5028 -5.52337 -5.53046 1.62178 -2.3355
3136 1 -18.7784 -20.5573 6.3981 -1.62196 -4.24106 0.226891
3137 1 6.55311 -6.18288 -19.0269 -1.55588 5.8599 -4.12154
3138 1 17.5736 -3.24238 24.0857 -2.91684 2.2439 -0.323434
3139 1 6.32297 11.9175 -13.4961 0.87463 -0.402678 -4.09473
3140 1 0.533021 16.7413 -18.5039 -1.22169 0.677454 -5.47099
3141 1 10.8589 -0.493511 -8.9606 2.79726 1.20909 3.57029
3142 1 2.72713 21.2901 -21.2329 7.28385 1.25211 3.646
3143 1 22.4789 24.215 -21.0494 -5.99058 -0.790506 -2.66644
3144 1 -0.622631 15.3965 1.92864 1.84931 0.12581 -2.94411
3145 1 20.4332 -18.8281 8.61068 -2.06201 3.15234 3.45529
3146 1 -1.98273 8.22666 -9.27478 1.05906 -1.39346 0.722328
3147 1 -2.56073 -20.0481 1.30017 -1.15604 -2.20948 1.55036
3148 1 7.28208 -6.12255 5.44624 -4.11019 -2.62873 1.87089
3149 1 10.1699 8.48168 -16.8255 4.04605 1.93833 2.28499
3150 1 -22.1646 14.7188 4.41472 -2.45208 0.583855 3.52111
3151 1 -11.4632 46.4467 -16.376 2.1385 2.61807 3.75073
3152 1 -13.9115 16.5635 -21.2939 -4.38395 0.479557 -1.24763
3153 1 14.3845 6.66294 -20.2503 -0.246585 5.10577 -0.0151319
3154 1 6.08377 20.2965 3.52996 -1.52992 -0.596866 -3.00567
3155 1 -5.61151 -11.3675 2.70195 0.231977 -8.22054 -0.389714
3156 1 20.6762 -2.99686 8.21325 -2.57559 -0.560507 -1.89088
3157 1 11.911 3.05025 5.21173 1.34964 -1.07158 4.93031
3158 1 19.7177 -22.2123 -7.52353 4.56689 0.641458 -2.7709
3159 1 17.9285 5.90479 -7.09285 1.70957 3.57666 1.13044
3160 1 -12.4718 -24.5988 22.6532 0.0499102 -1.39256 0.243928
3161 1 -9.92618 -18.7411 -2.63328 -1.68001 1.61748 6.38879
3162 1 -17.1434 -15.4378 -16.7373 -5.62583 -0.949628 -3.14297
3163 1 21.4345 1.78982 15.2113 -0.706331 -1.09155 -2.75549
3164 1 -19.4035 3.94806 21.5221 1.78886 -8.68283 -3.07569
3165 1 -5.53126 19.3149 -13.5346 -0.599248 -1.91175 -2.46882
3166 1 16.6101 -9.45429 13.0468 -2.34267 0.118932 -0.271524
3167 1 20.8729 -15.9778 -19.0492 -4.54103 -1.89104 3.69785
3168 1 -20.1742 -16.9826 17.8004 -5.44084 -0.52462 0.945006
3169 1 11.6785 -20.5003 -20.358 0.373327 -2.1311 -0.97991
3170 1 5.17459 21.6558 23.2369 2.65293 -0.667526 0.568092
3171 1 -6.32457 14.6391 -21.7255 1.23204 -4.80467 -1.95309
3172 1 -7.31871 2.61158 3.17391 1.81727 0.839216 3.79525
3173 1 12.3831 17.6938 9.99284 2.38898 -0.221427 -2.41154
3174 1 23.3137 14.045 -11.8253 2.71529 1.35521 4.11869
3175 1 19.0519 3.48842 -3.24565 -0.475469 -2.78544 3.44357
3176 1 19.162 3.75475 15.7841 -0.377631 2.5458 1.63042
3177 1 -0.329196 -10.861 23.7288 -4.49272 1.13429 -3.52953
3178 1 15.9089 19.8922 16.6105 -1.04552 4.02905 2.65176
3179 1 0.308791 -0.346377 20.7053 3.85047 -1.85679 1.90082
3180 1 2.23188 13.4528 4.18076 4.04757 3.3978 4.78156
3181 1 -21.4361 -16.3765 -23.5767 -0.402606 -2.49536 0.275405
3182 1 -17.4024 -23.1157 20.4012 1.11194 -4.23067 -6.07653
3183 1 22.1702 17.5865 -5.32772 -0.308747 2.73127 1.04583
3184 1 14.7383 -3.94245 3.52521 -1.06406 0.0222495 -3.56231
3185 1 -15.9571 20.0574 -21.7937 -1.74252 -0.982734 -1.64393
3186 1 -4.73121 19.8127 6.20306 0.353935 0.515112 5.33512
3187 1 -21.1706 -14.9696 3.14315 -1.11374 0.356971 -3.84025
3188 1 -20.2366 12.8345 -10.8065 -0.504378 3.68459 -0.745687
3189 1 15.4763 10.8721 8.08778 1.69848 3.22382 -3.09937
3190 1 -20.9966 20.0137 -17.5002 2.50168 0.269744 6.88576
3191 1 7.93901 -5.3222 -8.54949 1.6772 0.947633 -2.86515
3192 1 21.8952 11.5955 2.16771 -3.50892 -2.39943 -0.104802
3193 1 -17.0766 22.3445 0.333866 1.6207 -2.96106 0.392006
3194 1 -17.5432 -6.63844 1.33491 6.85073 1.61495 -2.15612
3195 1 -16.8959 -0.26558 3.41264 -5.77385 -2.39857 3.46185
3196 1 -0.459983 -2.05375 -1.03429 -2.5591 2.55421 0.0933334
3197 1 -2.11633 10.0037 4.05846 5.67495 2.6648 5.92478
3198 1 10.1005 3.51522 -15.9977 3.60128 1.4711 5.6224
3199 1 13.593 -23.1414 7.37141 -0.537749 -0.632382 1.14501
3200 1 -24.308 -4.31731 -4.70425 5.61591 -4.03726 5.78399
3201 1 -15.7647 -2.98488 18.071 3.25103 3.474 4.23288
3202 1 -16.2291 -11.1565 -9.47175 -4.58083 1.75613 1.28852
3203 1 16.0219 9.37561 21.4952 -4.48842 -5.26477 -3.24638
3204 1 -16.122 -8.50293 9.71039 -0.561739 -1.09555 0.777321
3205 1 -14.321 5.47164 -4.70144 1.73579 3.93746 -1.60059
3206 1 14.9748 11.1311 -2.69367 -4.53715 2.01705 4.40793
3207 1 0.668941 -6.56921 -19.2096 4.9804 0.524673 -0.0513324
3208 1 5.24367 -7.72625 4.27706 0.104706 -1.17512 -1.02829
3209 1 12.0913 -15.204 22.3174 -1.36179 5.27848 -2.65004
3210 1 -13.5155 9.95891 -3.45019 0.228576 -0.943538 -1.54005
3211 1 -2.03833 17.3906 12.0003 3.50391 2.89298 -4.60515
3212 1 -13.0605 5.29917 -19.8401 3.82904 2.2281 -3.70878
3213 1 -1.81737 3.23274 -15.7498 2.80575 2.02647 1.32907
3214 1 -1.84351 15.4091 16.1339 2.02705 5.57543 -3.7524
3215 1 9.78878 1.90634 11.16 -4.33067 -0.246032 0.54858
3216 1 20.7259 -0.274498 11.0326 -3.88433 -0.242913 0.999284
3217 1 10.7518 1.90877 8.50795 2.98126 1.91231 -1.38905
3218 1 -5.12173 21.6114 -7.1088 3.91386 -0.694274 1.60467
3219 1 -7.3721 -20.5748 -15.49 -0.499566 4.15798 1.59202
3220 1 -3.39862 -9.71295 15.1086 -5.24296 -2.0596 0.898531
3221 1 -6.10777 -8.85089 -3.14554 -0.756917 -1.04593 1.29824
3222 1 -16.1486 -19.4293 2.32398 5.09516 -2.06085 -2.50867
3223 1 23.8563 8.0753 18.836 1.89908 1.59703 1.22537
3224 1 -4.31784 -9.04063 1.89878 -2.12456 5.33323 3.29966
3225 1 -9.19395 -5.98593 14.8642 -0.742323 5.89395 1.28639
3226 1 -21.0174 21.7535 -11.8459 -0.207835 -0.311066 -0.619129
3227 1 5.42885 22.0215 -5.33835 -3.67104 0.251477 0.703076
3228 1 -11.3822 12.2336 -10.9011 2.44132 -1.71134 -0.566742
3229 1 -9.07301 0.751105 -6.20583 1.42582 -0.194454 3.40368
3230 1 23.568 12.5095 -23.1533 0.312947 -0.196282 -0.27866
3231 1 -18.534 -16.4867 0.0375298 0.43688 0.540386 -2.59009
3232 1 -23.512 15.429 6.82884 5.63963 1.98178 -3.3967
3233 1 -1.11745 15.8633 8.08465 5.19415 -1.36795 0.578129
3234 1 10.2281 -3.83915 -13.986 -2.63735 -2.20785 0.305357
3235 1 -5.88775 11.8209 -11.5738 -0.24138 0.19844 -1.17567
3236 1 15.816 19.9149 7.81981 0.84204 -0.52776 1.36089
3237 1 -4.03632 -13.4855 21.3903 -1.26693 1.36858 -3.21966
3238 1 22.8685 21.8345 -4.46781 0.856028 -0.201066 -1.5869
3239 1 -13.3054 -16.3226 7.0815 1.79261 4.28335 -1.88305
3240 1 -12.587 -23.1794 -17.3688 -1.4818 3.39953 1.62755
3241 1 0.187932 -20.8869 15.4092 -2.0553 2.65574 -0.538507
3242 1 22.6721 -10.7513 -18.0466 -3.64938 0.0335111 -0.446735
3243 1 8.71068 17.121 22.8863 -2.92038 1.67213 0.105439
3244 1 19.1855 15.073 -13.5054 0.458644 -0.314663 -1.99924
3245 1 -7.23323 19.2806 8.85228 3.96976 -0.514212 -1.3818
3246 1 18.6924 5.17747 5.74877 2.14758 -3.45698 -4.39093
3247 1 -4.56099 7.84453 -11.1485 1.57163 -0.856388 -0.582755
3248 1 7.85474 -1.04174 -0.389921 0.922675 -2.40932 -4.31321
3249 1 9.21062 -2.84211 12.999 -0.604632 4.91048 -0.774612
3250 1 12.4733 5.62457 -18.2598 -3.9169 2.24407 -0.113794
3251 1 1.65076 16.4816 11.3229 -3.23456 -1.62797 -3.48516
3252 1 19.339 -22.1405 13.6257 -2.27667 -1.11176 0.786118
3253 1 10.0557 15.7431 3.57825 0.360239 1.31736 4.7207
3254 1 19.9125 3.58942 -8.33873 0.054881 2.44454 2.25942
3255 1 -19.8238 11.6702 -20.8471 -1.96599 1.97313 3.43653
3256 1 -7.68377 18.2334 -9.28757 1.30487 -1.63287 -1.23033
3257 1 -12.5531 4.54049 20.6556 -2.8867 -4.60013 2.33456
3258 1 -17.1052 -6.65465 20.1883 -1.59121 9.52803 2.96346
3259 1 19.0057 19.7335 3.28009 -1.072 0.418643 3.56621
3260 1 17.7009 47.1193 -5.21453 -7.22113 1.22491 4.24183
3261 1 -15.0885 -3.15442 -16.0286 0.22634 0.0849793 6.84282
3262 1 9.36808 6.93448 11.7954 -2.24441 -1.62251 -6.19038
3263 1 21.8105 4.57897 20.4326 -2.67186 -2.49008 4.66321
3264 1 10.1507 9.8235 -23.1683 -0.824211 1.87891 -0.127223
3265 1 6.6414 -6.4883 -15.7408 -4.24573 1.54445 2.42893
3266 1 8.73272 -0.452647 20.7067 -3.8315 1.09189 3.10289
3267 1 -16.2481 8.94746 0.681565 2.64844 2.17513 -1.06695
3268 1 6.82552 -21.4934 10.2191 -1.08703 2.60769 -0.822034
3269 1 7.58989 17.5374 -3.27682 2.37749 0.865956 -3.0478
3270 1 17.571 -16.0724 15.6547 -0.995007 -1.19913 1.43665
3271 1 5.25007 -8.87164 21.1062 1.68915 -3.41558 0.109352
3272 1 2.8556 10.9572 -7.18323 -0.43568 4.63989 -5.03677
3273 1 -17.3836 10.665 -15.4666 2.86757 1.4971 3.93976
3274 1 15.2058 -18.1625 5.57964 0.799816 0.4728 -1.64605
3275 1 23.1555 8.35321 10.765 0.169037 1.01763 0.436683
3276 1 8.97583 3.38764 13.2984 -4.50356 1.38072 -2.67134
3277 1 -3.54415 -18.1176 3.5295 3.84815 0.697083 -0.161784
3278 1 0.608588 -5.58209 -22.0199 -1.04208 1.14686 4.62049
3279 1 6.3708 -0.0698226 16.5346 0.584355 1.28854 -0.0136694
3280 1 10.4363 16.5608 11.8537 -2.09973 -2.19088 -4.97764
3281 1 -5.58933 -12.3777 10.7454 2.19172 -2.1081 -2.67786
3282 1 5.9756 -0.0165041 -14.7274 -6.05597 2.22808 -5.35201
3283 1 -4.82089 0.326318 14.096 7.80812 -1.69813 -2.97331
3284 1 14.8268 23.9644 -18.3767 -0.465552 5.10586 -1.73436
3285 1 0.361671 20.7435 -14.5196 -2.02735 -2.16855 -0.45164
3286 1 -16.6412 19.6085 5.31434 2.38929 0.962765 1.83058
3287 1 -4.02226 -16.2025 15.5967 0.983332 -0.927109 1.74502
3288 1 2.16983 8.3266 -18.2961 1.32116 5.47237 1.94604
3289 1 -16.2257 -21.7527 9.48424 -1.10186 -0.778886 -2.41977
3290 1 -13.601 19.6957 18.5742 0.649145 -3.50566 -1.28999
3291 1 22.2177 22.4291 -12.5458 2.30245 -0.418877 1.56041
3292 1 -21.0139 22.535 2.08685 -3.02759 8.53612 -0.99756
3293 1 -10.2073 11.5816 23.6683 -0.783828 1.32699 1.15945
3294 1 -20.3899 1.32257 -16.4036 0.109905 1.84036 -5.77296
3295 1 5.575 -24.6602 -1.20421 -0.812842 -2.03163 -3.45249
3296 1 -16.6099 -14.0699 15.1139 0.465006 2.45031 4.11596
3297 1 -17.8065 21.6663 24.0477 -4.46933 -0.831328 0.00615732
3298 1 7.73673 -8.48872 -17.6275 -2.90581 -0.14415 -6.87465
3299 1 -15.7561 22.5565 -7.0377 -1.08309 -1.70137 0.0485192
3300 1 -3.2895 4.11516 -9.14233 -0.730523 0.0309872 1.06978
3301 1 -23.6388 7.92878 -9.31678 -3.82316 -1.81622 -5.83318
3302 1 -18.2504 -9.68221 19.9698 -3.781 1.21597 3.84793
3303 1 23.1025 -24.5592 -13.192 -3.4763 0.014828 3.99281
3304 1 2.13832 14.7096 13.8139 2.02456 -3.73556 1.93178
3305 1 1.05641 7.26072 -5.92785 -2.27597 -3.24754 -0.512267
3306 1 -8.53205 10.2485 -22.6734 -0.900527 2.89707 -1.67762
3307 1 -17.3069 12.8493 20.7978 2.03281 2.7092 -4.27712
3308 1 -16.8925 18.958 -4.08238 -0.2892 2.66399 -3.22693
3309 1 2.86468 0.767949 10.4989 -1.31293 2.48204 -0.0140846
3310 1 16.4364 22.7511 6.99682 0.256602 -0.891012 5.06832
3311 1 6.93619 3.43321 -10.059 2.68172 -4.51018 -2.02253
3312 1 -23.6558 6.8608 14.0002 -1.87224 -0.424572 1.74208
3313 1 14.5805 11.2703 13.4335 2.26514 -4.36974 1.29792
3314 1 -1.59317 -3.38856 10.4409 0.80319 2.27624 -0.923797
3315 1 21.9602 -11.7587 -21.2897 0.196225 -3.75629 2.77772
3316 1 3.62472 -5.93399 -6.57815 -6.9426 0.736901 -6.64109
3317 1 5.59497 0.688929 6.2686 -2.16261 0.164816 0.60811
3318 1 -11.228 0.897203 17.6402 -2.7679 -3.46422 0.700472
3319 1 1.0333 3.18497 -16.321 0.91197 2.28982 -4.12691
3320 1 2.48926 4.86412 -12.1334 -2.45366 -3.33398 1.3897
3321 1 -9.07023 -19.6759 17.6772 -1.48931 1.31974 -0.804012
3322 1 13.9346 -11.4188 23.6027 -0.257688 -1.77634 -1.16638
3323 1 -2.72399 17.6099 14.6598 5.73183 -0.781588 0.536179
3324 1 14.2574 -18.2132 -10.0964 -2.91961 -2.06115 -0.350437
3325 1 -11.4354 13.9203 3.67219 6.58818 -0.0257846 -0.763941
3326 1 22.7178 6.73919 -21.959 -3.67247 3.21129 -4.62622
3327 1 6.8749 -23.0678 -9.5171 -0.311454 6.86062 -4.00841
3328 1 2.85544 -17.9281 -9.31421 -2.26035 0.210628 -0.743662
3329 1 11.3798 6.20096 -15.472 2.5558 -4.52056 -2.79366
3330 1 -8.00824 18.0929 -14.0612 -2.31916 3.48066 -4.67097
3331 1 -18.8774 -4.92769 -0.472379 2.8054 -5.5966 -1.45942
3332 1 -4.56551 5.96993 24.2368 2.60984 -1.17104 0.0266006
3333 1 9.7442 -5.99305 23.4698 2.10807 3.58288 0.182387
3334 1 -22.6513 21.1192 17.824 4.52159 2.10358 0.906308
3335 1 22.8218 0.184077 -3.52984 -3.45911 -0.817882 -4.1501
3336 1 13.7932 -15.5278 3.14658 3.59922 2.25834 -4.82199
3337 1 -13.4859 10.6363 8.54512 3.57998 -4.20841 -0.817664
3338 1 12.1518 22.4623 18.1839 -1.02022 -0.0128781 -0.786759
3339 1 11.0302 18.7465 -19.798 0.312717 1.29258 -0.881601
3340 1 17.0757 -0.160196 -21.3938 5.73506 0.400236 0.35368
3341 1 20.0155 21.1401 -14.1804 0.609196 -3.83339 -0.20756
3342 1 -1.06008 1.11507 2.65827 4.3954 2.02085 0.855312
3343 1 -22.4463 -4.412 -15.9187 -3.00102 0.487037 -0.116526
3344 1 17.2064 -19.3701 16.497 2.15035 2.30054 2.28836
3345 1 14.2293 22.8694 -22.4096 1.49008 -1.29299 -1.04338
3346 1 11.0026 -23.731 0.924302 0.941478 -4.89356 1.64162
3347 1 -23.4189 12.6541 -14.0615 -3.07189 -0.820898 -1.25869
3348 1 -11.3392 -19.6893 2.04044 4.47246 0.337833 -1.32059
3349 1 14.5953 19.1947 -13.639 -0.0453803 -3.31612 -0.0557272
3350 1 -4.92424 -5.75188 12.7698 -0.292277 0.350086 -1.75279
3351 1 -20.4962 -8.71089 16.814 -1.49273 4.13314 6.10432
3352 1 6.25776 16.117 4.05484 -3.95136 3.47504 -0.658935
3353 1 -24.1523 5.24708 19.0292 3.22373 0.999496 -2.96264
3354 1 -14.698 8.08247 -1.78711 -1.47258 0.420643 -0.236523
3355 1 -15.1336 -21.7341 -3.97377 -0.599464 -6.4575 2.33655
3356 1 -9.59292 20.8737 4.78722 -1.11771 3.27916 1.28792
3357 1 7.74908 -7.1941 21.7281 4.36268 -6.22988 4.46155
3358 1 -1.30007 20.289 14.6132 3.74671 -0.418867 -4.65303
3359 1 -3.47038 20.6506 11.1493 -1.36084 0.338994 -4.16233
3360 1 -8.69568 -17.6669 15.3076 0.982347 -5.99115 -1.62962
3361 1 -4.06167 22.251 8.85016 -4.95692 -0.1537 3.96481
3362 1 -7.10677 5.14004 -12.575 -2.40201 4.51303 -3.3736
3363 1 12.9479 -5.45678 -14.3298 -1.1854 0.166379 0.917959
3364 1 -21.051 -8.34729 -0.612013 -1.2151 1.12024 3.10306
3365 1 0.239667 -8.8148 11.3509 2.05918 3.12948 1.9483
3366 1 -21.3855 -23.0562 -19.7703 2.6513 3.37793 3.6228
3367 1 0.808418 -19.3182 -19.0862 7.78764 -0.0672706 -0.816247
3368 1 20.997 -20.5413 15.4191 -1.15357 -4.99638 0.281734
3369 1 -3.43035 -3.02983 -10.8485 -2.37342 -0.0217774 2.67159
3370 1 -18.6016 -16.6351 -14.314 -5.44857 -4.16537 -4.41735
3371 1 -7.63076 3.30849 8.97426 0.885268 -2.21197 -3.53821
3372 1 6.43236 -3.0027 -7.77513 1.65877 0.195644 0.92937
3373 1 13.0555 -6.27577 19.6503 -0.149809 0.941477 4.34516
3374 1 22.0044 -14.0566 -22.864 -0.125104 4.94263 3.23001
3375 1 21.3256 -11.6084 0.430809 3.64896 -1.14951 1.36043
3376 1 -16.0125 9.67241 13.3029 -2.54772 4.2538 0.909771
3377 1 5.71008 -11.9013 13.2275 -0.635095 -1.93689 0.296055
3378 1 -4.60951 -18.7522 -0.224074 -6.81584 -1.48521 2.0674
3379 1 8.34768 -5.07842 7.95879 -4.22892 -0.868589 -0.658138
3380 1 0.274497 14.3805 22.5427 0.174882 0.724524 -3.30544
3381 1 -5.07977 -15.191 -22.2884 -1.80068 0.721203 -0.165232
3382 1 -19.7233 13.3996 15.7525 -2.02298 -0.367509 -0.95409
3383 1 -19.5082 24.1249 -17.7173 -1.85425 2.30568 5.02892
3384 1 18.2878 -20.8046 -10.7379 -1.71931 0.369117 -1.02954
3385 1 -3.57108 -19.3042 -7.61796 0.612078 -3.30618 0.806935
3386 1 11.0504 -10.8361 -22.2462 -7.07927 -1.78458 -3.40961
3387 1 -19.2576 -2.48229 3.15105 -2.39865 0.12424 -1.41389
3388 1 -19.667 -2.28145 15.9519 -0.689897 1.61804 4.46615
3389 1 -13.0659 -12.9458 -13.1916 -1.47011 6.14532 -1.59263
3390 1 23.0517 -19.3417 13.9491 -1.64862 4.27904 -3.55787
3391 1 -8.89825 -14.0188 2.89874 0.953923 -1.56872 -3.17007
3392 1 -6.93176 1.99833 -16.5816 -2.35945 0.692079 -2.20027
3393 1 -12.7695 15.2715 -18.6826 0.242782 7.23099 -0.623616
3394 1 -12.8231 -0.931382 13.1806 3.56736 -0.881992 6.20771
3395 1 13.9813 -13.781 10.4877 -0.722141 -6.12526 -1.16633
3396 1 -20.3963 5.83817 -5.01382 0.46671 5.10999 3.24939
3397 1 -4.15031 -1.60691 18.8304 -1.89884 -0.205976 2.63482
3398 1 -8.16058 -19.2979 -4.83962 0.442148 -2.84715 1.00755
3399 1 0.574032 -3.79925 6.42844 5.00439 -0.516489 -1.12686
3400 1 16.3479 -21.4164 -22.6996 -3.78731 2.73107 -4.9645
3401 1 -19.9033 47.0541 -12.9908 2.10389 0.820131 1.85158
3402 1 14.4006 -17.0433 -17.5802 0.310111 0.181085 3.37339
3403 1 -14.1866 -23.3375 1.49143 3.84393 1.17718 -5.69274
3404 1 -16.9005 -9.4019 0.220391 1.21192 2.18229 7.09599
3405 1 15.4375 5.41501 13.2573 4.21215 1.68328 -3.28829
3406 1 3.45414 -3.66919 5.70449 2.23462 2.62384 -2.99818
3407 1 11.324 0.687441 -12.5769 -1.44526 1.58619 -2.40076
3408 1 -17.9102 13.0661 23.6191 -0.441758 -3.50915 -6.01467
3409 1 -2.09344 -19.2038 17.0247 6.68615 -3.58492 -1.55161
3410 1 -19.5166 -11.2346 14.7408 1.23218 -4.03701 -3.47092
3411 1 -5.16854 -5.49729 19.497 2.57005 -0.890575 -4.59211
3412 1 7.12979 -2.00869 -10.7482 3.11035 -3.09768 1.97331
3413 1 -3.44138 -17.1923 -16.378 -1.49652 -4.42528 0.566931
3414 1 -18.7861 3.49674 -7.65506 -1.93041 -0.485247 1.84595
3415 1 -16.8331 0.57224 -14.9361 -0.703362 -1.84921 -5.19495
3416 1 20.1701 -21.5771 -4.77234 -1.04633 -6.04493 4.96673
3417 1 -22.2495 -10.5727 9.82921 1.71025 -1.59083 -6.1669
3418 1 20.177 20.034 16.1989 1.00417 -1.73316 3.6566
3419 1 -12.2709 -12.0978 0.103025 3.58053 3.0957 0.845616
3420 1 -18.7158 11.9162 10.0306 2.58883 -0.360942 -1.87544
3421 1 10.0952 17.3532 -13.0842 0.316468 3.08654 -2.28166
3422 1 4.55417 -15.2795 -2.94731 0.177619 -1.56964 -4.46627
3423 1 -14.5315 3.42027 1.32926 -2.37421 -1.72888 1.67286
3424 1 0.38682 -11.0795 1.36571 -5.01477 -0.934921 -1.42252
3425 1 23.1223 -8.55408 17.9391 2.82886 0.425201 3.32161
3426 1 -20.3376 -6.24346 4.28579 -3.03564 0.264938 0.114358
3427 1 23.0476 12.6514 -16.0781 -0.821691 -2.47472 -2.38978
3428 1 -3.83201 11.6263 14.2722 -2.74466 -2.38128 0.364959
3429 1 2.89804 -17.4076 16.2949 -1.59176 1.13593 -0.700161
3430 1 -11.8247 -14.2991 19.771 0.278366 0.804896 -0.378699
3431 1 -8.79641 -5.37095 -1.75273 3.54757 -0.00180392 0.67806
3432 1 -3.23164 8.88797 8.71175 -4.10357 -1.92213 5.8721
3433 1 -7.57787 -2.9838 -20.7348 -1.18873 3.83663 0.933507
3434 1 12.9623 15.0816 -10.1576 1.26869 0.421466 -2.29634
3435 1 -4.62945 23.8707 -13.6299 -1.64824 -4.74689 4.29693
3436 1 -5.48267 8.96022 17.2466 -3.84508 6.37222 0.604515
3437 1 13.0113 16.8603 -5.77421 0.197252 0.53215 -0.410517
3438 1 -18.3746 9.75664 2.76502 0.434764 -4.44981 1.14386
3439 1 1.28956 -13.7003 12.8067 -3.80448 1.14362 1.98414
3440 1 2.15464 21.4858 -10.3957 0.276068 -4.08668 -5.55752
3441 1 5.08436 -13.827 -5.63337 -0.979791 -1.9136 1.66392
3442 1 -9.37491 0.443641 3.13976 2.72552 2.79424 -1.03783
3443 1 22.4072 2.88834 -0.196646 -5.48649 2.00117 3.72486
3444 1 -19.5367 12.5465 2.53995 3.52282 3.70883 -2.13619
3445 1 -12.3022 0.18975 -11.3519 -0.714795 -3.27187 6.79913
3446 1 -3.15431 -21.0107 -16.6357 -6.59892 -2.72171 0.597268
3447 1 -5.79386 3.57887 -9.77231 -1.68655 -1.42985 2.09006
3448 1 -20.1685 4.70848 15.5165 1.80713 2.13552 1.07309
3449 1 7.20848 25.2537 -16.9101 1.10671 -0.027188 -0.185691
3450 1 -2.80242 -13.9702 -13.1731 6.50182 -1.7733 -4.25597
3451 1 3.22024 -12.6179 -20.0503 2.67842 -3.62808 0.728442
3452 1 -10.1841 0.21824 -13.1152 1.20041 -0.378414 -3.512
3453 1 13.7463 10.4787 -22.2303 -0.214403 -1.00801 -2.51322
3454 1 -21.7084 18.46 10.1851 9.0858 -2.06941 3.20129
3455 1 -18.1628 15.6599 20.2361 0.217351 -5.85507 -1.32404
3456 1 9.86861 24.7548 -16.4346 -0.103907 -0.370586 0.330241
3457 1 21.3994 15.5708 22.2353 -0.441658 3.57123 -1.32657
3458 1 12.3893 7.19027 -22.4604 -3.16591 -1.71765 2.80675
3459 1 -1.8213 18.9435 17.2445 3.42984 7.71237 0.43411
3460 1 0.884458 20.2962 17.666 1.21633 -1.98745 -2.75764
3461 1 -12.8218 -22.9647 18.376 -1.15852 -0.0164991 3.07029
3462 1 -13.1156 22.4748 -8.22587 -2.7984 -0.860426 2.61126
3463 1 21.1623 7.73398 -19.6249 -4.0772 1.04924 -1.19919
3464 1 -16.7025 -20.546 13.3319 -0.670096 2.42566 1.19911
3465 1 0.0660874 -3.66544 12.8046 -0.425277 -1.62341 4.03268
3466 1 -8.26365 3.44154 -6.38513 -1.50892 1.35155 -1.39442
3467 1 13.8507 13.3822 15.5156 4.30948 0.626595 1.39476
3468 1 -7.53012 -9.25906 21.6293 6.08058 3.86086 1.19301
3469 1 -2.2247 -10.0757 0.496404 -0.757095 3.28463 4.12273
3470 1 -15.912 -21.8127 -8.17896 0.618717 -7.22658 3.66879
3471 1 -16.4637 -20.081 -17.7244 4.21172 -3.04226 2.69449
3472 1 -14.6957 9.16711 -15.3096 1.54694 1.83762 0.13281
3473 1 -23.6862 24.0026 -19.0895 3.58301 3.07839 7.28472
3474 1 14.9371 -2.10657 13.6408 -0.445391 4.68215 -1.72055
3475 1 23.0546 -10.8772 19.6615 4.43678 -0.657771 -1.31293
3476 1 3.84601 14.2087 17.4493 6.83872 -2.22417 -1.07862
3477 1 -19.0809 -1.20366 -15.2887 4.26484 -0.63399 5.59867
3478 1 11.3467 -13.8992 2.21151 -3.10789 -0.903893 6.73725
3479 1 17.8036 -6.95508 9.24962 -5.71963 -0.966728 1.65614
3480 1 -22.4954 25.4452 -5.81336 -3.68027 2.78822 2.92604
3481 1 1.4825 -21.5414 -23.1906 2.87281 -3.03573 -2.92785
3482 1 19.5581 18.9115 0.63632 2.9226 0.710308 1.45701
3483 1 10.9514 21.5004 -1.04564 2.34189 -2.87275 -3.36185
3484 1 3.71706 10.4453 8.07465 0.745143 0.857181 -1.63782
3485 1 2.40555 8.30905 -3.45903 3.46798 -1.36554 1.80734
3486 1 16.1765 25.8347 17.5935 0.732699 0.725603 0.995128
3487 1 10.553 -9.95337 -12.878 -5.03713 3.48933 -1.94521
3488 1 16.2915 15.0483 -13.5402 -1.62874 -2.20406 -3.07515
3489 1 18.7936 0.94581 -7.26352 3.03133 1.75757 2.42856
3490 1 -18.7531 4.25998 6.32397 1.39951 -4.16765 -2.73711
3491 1 -11.4459 8.47105 -20.6373 -2.64661 1.43143 3.93197
3492 1 18.3508 -0.802644 4.51524 -2.28873 1.19021 3.10176
3493 1 4.11061 10.8142 18.25 4.71347 -0.503942 4.39374
3494 1 -17.2243 3.83546 23.7247 1.68144 -5.50382 -0.479822
3495 1 20.8043 -3.58232 15.864 3.83675 -3.1167 5.06263
3496 1 -9.46285 7.91055 -16.1474 1.35767 -1.70032 4.42125
3497 1 -16.438 11.4249 18.4838 1.45059 -1.37844 -0.386726
3498 1 -18.9641 12.3459 6.24051 -3.63128 5.97179 -0.057612
3499 1 -20.4359 21.6533 -20.8474 0.966245 2.3662 3.02769
3500 1 17.685 17.5776 -5.48089 -1.93337 -0.496316 0.0819312
3501 1 -15.8648 15.982 -7.29301 -2.72922 2.7529 -2.50211
3502 1 -6.78352 23.0128 -4.16171 -3.17728 0.577939 0.845974
3503 1 18.2239 -21.5204 5.36072 -0.204414 2.65284 -0.57437
3504 1 17.2191 -1.6179 -0.287341 -0.0580408 -1.76436 0.990971
3505 1 -0.992567 -13.6639 1.37335 -1.56192 1.50793 3.4532
3506 1 -22.1401 19.9426 -4.63469 4.03209 -3.88898 4.27652
3507 1 8.72376 9.61218 -9.7071 -1.57497 -0.227539 0.772609
3508 1 -3.26092 -12.9723 -22.7891 2.44598 8.27774 -4.59627
3509 1 -22.8954 -19.1191 -22.8923 -0.711859 0.329924 -2.30052
3510 1 -11.8991 5.87503 15.6778 2.75231 1.04674 0.408329
3511 1 15.1545 8.90723 -1.04906 -0.243062 1.79247 1.71523
3512 1 -19.242 2.91485 3.00565 5.0228 -5.65795 -0.293449
3513 1 -20.2799 -22.2594 -17.2507 -2.74205 -4.50298 -0.387539
3514 1 -4.90061 18.9306 -8.48803 -2.02248 1.4395 1.8162
3515 1 13.9032 -16.8269 10.1312 0.566708 3.33197 2.87496
3516 1 -20.5447 4.15754 -17.246 1.09861 9.2162 3.48492
3517 1 -5.17958 18.157 18.1975 3.19545 0.00853595 4.4555
3518 1 -1.55283 0.475368 0.107247 -0.131957 -0.32563 4.19676
3519 1 -4.97355 4.85449 16.1685 -0.653431 5.27689 1.3752
3520 1 -4.56078 -15.3206 19.3897 -3.61242 3.36279 1.29678
3521 1 2.16376 15.962 -14.1602 3.03399 -5.85105 -1.50038
3522 1 22.1186 15.2784 -23.3414 7.18479 -3.7902 0.340435
3523 1 -10.6127 -19.6241 8.66105 1.70077 2.74669 1.06074
3524 1 -0.637392 24.1703 0.786388 -1.60098 3.18171 0.920815
3525 1 -17.7004 12.8511 -22.1289 -0.750683 -1.90389 -1.6137
3526 1 10.6959 18.0843 -6.54628 1.98511 -0.471735 1.95719
3527 1 -1.06569 9.42993 6.75296 2.12644 -2.74516 -5.76
3528 1 -24.1212 -22.1884 0.906809 4.44338 -0.28838 1.33052
3529 1 -22.5287 9.50319 20.9975 0.786235 -0.973077 -0.310321
3530 1 -10.9369 8.91289 6.67483 -1.37252 -2.77047 6.09785
3531 1 3.51244 5.87447 21.9953 -1.30156 3.37793 -2.88189
3532 1 -8.71922 13.0554 -7.40994 1.94682 4.72229 -0.646162
3533 1 17.1421 10.0208 5.79178 -0.663129 -0.58131 0.195976
3534 1 7.24277 -3.58697 20.3643 3.53413 -2.19296 -0.875508
3535 1 12.3278 -19.1227 -17.8216 -2.17714 0.306488 2.8045
3536 1 21.7417 -16.2959 9.42912 -5.26777 -0.0713516 -3.92812
3537 1 22.8452 23.6013 17.5043 -1.39603 -1.8159 -3.08918
3538 1 4.72054 -7.9937 16.7631 -1.12778 0.715701 2.2986
3539 1 13.457 21.1556 -12.1281 -1.71685 -2.86051 -1.87261
3540 1 -1.30876 11.7941 -5.35909 4.62697 -1.87626 0.672207
3541 1 12.0484 -0.0548964 -22.7808 0.95788 -2.70399 0.511212
3542 1 20.8251 0.833404 4.11433 3.82752 -0.781882 -0.737686
3543 1 -16.4715 11.8084 -7.5129 -0.686549 3.36738 -5.46256
3544 1 -9.61843 20.492 -3.05305 1.47955 2.78122 0.564465
3545 1 3.40475 19.3458 13.1718 -1.40316 0.692045 0.404839
3546 1 19.5033 13.2019 -8.47243 -0.590182 2.14658 -1.48195
3547 1 9.07639 -18.7517 -9.27189 1.81086 0.188739 2.97354
3548 1 8.33096 -12.6307 -19.3256 2.0955 -2.55568 1.57186
3549 1 -11.0093 6.42644 5.45092 -1.09936 1.00535 -2.84995
3550 1 -14.9145 16.7419 8.03567 -4.80847 -1.01564 1.92062
3551 1 13.763 3.0522 -19.0359 0.899873 -4.32996 0.529123
3552 1 14.7179 17.4068 7.12119 -0.0093531 -0.298621 1.57884
3553 1 -10.79 15.3689 -4.11407 2.26481 0.487872 -0.74843
3554 1 12.941 14.015 -12.9319 0.791128 1.83382 -1.6557
3555 1 -23.3483 -19.7082 -0.108559 -2.86404 -0.0801065 -0.728114
3556 1 -6.77698 -14.2744 18.0216 -4.29563 -1.48512 3.07226
3557 1 8.27796 9.96038 -18.6836 1.93634 6.87322 3.2562
3558 1 -21.6267 -15.3635 -1.87835 -4.55317 5.0204 2.05125
3559 1 9.17906 -5.08175 10.8595 4.71552 -1.54478 -1.33762
3560 1 -19.7146 13.6737 -17.8612 3.85093 0.167903 1.60784
3561 1 -19.8974 21.0604 4.36305 3.71527 -4.75909 2.02108
3562 1 19.3979 12.9513 1.69718 -3.82476 -1.35583 1.0437
3563 1 3.83922 -22.3308 -6.91152 -5.03888 -4.38455 4.77629
3564 1 19.8264 11.7246 -13.1497 1.43212 0.893985 -2.73117
3565 1 17.1708 -18.0485 -6.12389 -4.28298 0.186223 -4.93323
3566 1 -10.768 -16.1458 3.48728 3.38167 -6.40416 3.32038
3567 1 1.4634 -6.98292 4.47434 1.6351 -2.95437 3.11321
3568 1 16.5671 1.9763 15.405 -1.66656 4.862 1.91613
3569 1 -5.10725 2.68754 -12.5988 1.46525 -0.0520359 3.14913
3570 1 13.1276 24.5445 23.6586 7.81289 0.527578 4.9265
3571 1 2.63976 22.0337 10.0799 1.66901 4.89297 -2.85646
3572 1 -15.5223 -17.1981 -20.2417 -3.32264 1.38228 0.963301
3573 1 17.6539 -5.08398 -1.62214 -1.35518 -1.79323 1.30037
3574 1 -16.8982 -4.08649 -11.9705 -1.58674 1.74606 -1.20782
3575 1 -10.862 -12.187 -10.2174 -0.0419068 4.0201 -0.564562
3576 1 15.0884 4.02699 16.8131 3.16584 -5.35021 0.336614
3577 1 -7.29705 8.98269 -4.99881 -2.01083 -2.58805 1.12431
3578 1 21.0101 7.48427 19.924 1.43956 4.31367 -1.67412
3579 1 -16.4564 -11.6236 -6.87873 1.88677 2.76816 7.77101
3580 1 -0.298425 -10.3277 6.54949 -1.99219 -2.06813 1.14559
3581 1 -14.4875 8.59364 3.31048 1.09414 -1.93035 -5.37636
3582 1 -14.1869 -23.514 13.4689 2.99467 0.03795 4.8547
3583 1 -17.8816 16.3798 8.51069 -1.308 4.20483 0.327345
3584 1 9.03087 6.45257 22.1048 0.876203 -3.19813 0.0134724
3585 1 10.8648 -2.64713 9.74576 -1.43581 3.36324 -0.847635
3586 1 14.6469 -0.698644 -8.02247 -1.58901 2.19346 3.06436
3587 1 23.6762 -13.2738 -16.3841 -0.8648 -1.05547 -3.49207
3588 1 -21.8923 -9.45352 -11.9257 1.50634 1.50177 -1.59392
3589 1 -11.7959 1.88953 -6.70459 -1.5213 0.694505 3.96958
3590 1 10.0802 1.24096 -4.72203 1.05276 -2.98632 3.00808
3591 1 -6.97609 -10.8445 24.1205 -2.21472 -5.71144 6.20562
3592 1 -7.90293 -16.1393 -5.13766 -2.77298 -0.417189 -5.25433
3593 1 15.3373 -11.237 -13.0827 3.94869 3.50463 0.811505
3594 1 14.027 -0.774461 5.42788 2.9375 -0.590249 0.780761
3595 1 -3.03544 -16.1677 7.32048 1.75343 -0.139678 -1.48379
3596 1 -8.63316 -10.4044 -9.32664 2.84054 3.93677 -1.00036
3597 1 -3.21102 12.6557 4.66053 -6.23218 -0.468277 -1.3717
3598 1 -13.3055 -11.1303 -5.36995 0.458703 1.86651 0.00458197
3599 1 14.3495 14.5324 -5.39859 0.589704 -0.740119 -2.51786
3600 1 -18.5223 23.8832 -9.36992 3.74162 3.33826 -0.763924
3601 1 -23.5721 -12.6989 -5.25406 -0.551676 1.2927 -0.647293
3602 1 0.271869 21.6438 22.4575 -0.483782 -2.50128 1.79485
3603 1 -5.26959 -1.51371 10.6078 2.75619 2.32807 0.534741
3604 1 9.39741 13.1495 -22.9267 1.50887 3.93779 -0.18428
3605 1 18.0183 21.6745 16.4333 1.21964 1.7961 -0.687561
3606 1 4.45574 9.72381 -13.5526 2.39066 -1.53133 0.362281
3607 1 -18.4144 6.76229 18.2475 3.56764 1.03652 -0.0708411
3608 1 19.6838 23.5416 -15.4472 -1.76906 0.715158 4.94327
3609 1 8.66691 -12.5592 6.73314 -3.07567 -1.22874 -6.01314
3610 1 13.1327 10.4157 22.3435 1.49806 1.61284 -4.34162
3611 1 -17.436 20.5688 -16.3524 0.20096 -5.19312 3.49345
3612 1 -3.53378 16.0102 -5.15466 -1.72414 -3.76562 -1.32764
3613 1 1.9729 21.9362 13.1141 -1.30472 2.05406 1.23093
3614 1 -1.0177 -6.36701 -5.86435 -2.57067 4.33749 1.77699
3615 1 3.62442 20.7109 2.37665 5.25648 4.0569 -2.21673
3616 1 -10.9549 -11.9909 23.2407 -1.66888 -4.86425 -7.44608
3617 1 14.4372 1.01384 -21.1593 5.08481 0.172048 2.65437
3618 1 -0.156967 -7.82573 -8.42876 -0.236064 4.31808 -1.05379
3619 1 1.68477 19.4571 8.61319 2.77924 -5.4349 -0.608313
3620 1 -3.51862 13.3528 -10.4593 0.182623 -0.322632 -4.36859
3621 1 -9.88041 12.9529 11.5263 5.0365 1.4112 -2.63722
3622 1 6.71622 -11.0541 8.76489 -5.55061 -1.1347 4.27508
3623 1 9.86766 -0.957942 18.0486 -3.0314 1.72056 -0.653067
3624 1 22.9688 -6.76434 4.97371 4.74952 -2.02172 -1.28483
3625 1 7.73256 -15.6203 22.3034 3.47463 1.56175 0.694784
3626 1 -15.9627 4.22431 -6.73004 -5.10647 0.024738 -1.39891
3627 1 -3.87146 15.9232 9.17313 -1.19978 1.54982 5.1059
3628 1 9.67965 -0.608954 8.27174 1.91115 1.31654 -5.05953
3629 1 -5.05729 -0.831661 1.50021 2.51106 0.572865 0.417596
3630 1 5.25984 -11.3705 -0.529043 1.63303 1.43891 -1.5928
3631 1 8.70491 10.1111 20.6884 -3.03093 4.01139 4.65103
3632 1 -14.0483 -15.212 13.7539 -0.458601 1.41528 0.19552
3633 1 10.5217 7.76615 -3.60785 1.75978 2.8074 -1.88214
3634 1 -1.09932 2.83854 7.76318 4.39131 2.04407 -4.13119
3635 1 -0.505727 -15.7491 -22.6354 -0.925657 0.0392327 -1.92329
3636 1 4.06581 -17.6081 -11.7448 0.231299 3.42289 -0.581095
3637 1 -6.08634 11.0153 22.341 -2.62198 0.524012 9.63053
3638 1 22.2317 -6.71884 22.4653 -1.33919 -2.91565 0.0704452
3639 1 6.84503 -17.6581 4.07242 -0.179309 4.28733 2.05752
3640 1 19.9101 -20.5997 -13.1157 1.19936 0.13721 0.330668
3641 1 6.21438 11.2035 21.1579 -2.88925 2.82758 -1.87908
3642 1 -4.12877 -15.5745 4.83325 1.97306 -4.17015 -8.78198
3643 1 1.65249 3.05573 6.91628 7.49808 1.63365 3.49038
3644 1 21.1679 22.7691 -1.15579 0.164099 3.53053 2.43539
3645 1 -18.5628 -13.3667 -7.81269 1.21128 -2.93186 5.57781
3646 1 16.5926 2.98899 -16.3881 -0.375446 3.96719 3.94269
3647 1 20.0542 -19.1356 5.40947 0.0584639 4.5195 -2.66772
3648 1 -23.1738 -20.7975 -2.55271 4.10398 4.00031 -2.88678
3649 1 -16.1729 -0.73002 -17.2826 2.85496 3.11788 1.42392
3650 1 10.2717 -7.98561 -16.2403 1.91147 2.80793 0.479574
3651 1 -9.98938 6.80924 10.5441 0.588321 1.33248 -1.8655
3652 1 21.7497 -10.8328 15.2221 -4.32036 -0.841585 -6.0501
3653 1 -0.233419 16.8247 -2.89522 3.41253 0.327182 0.211825
3654 1 -18.4667 23.4087 11.9746 -2.17769 -0.965817 2.17511
3655 1 -7.92573 20.9723 -13.5476 -5.76125 -0.00343162 -2.82545
3656 1 -12.2021 -18.9712 19.533 -3.46817 2.34628 3.83273
3657 1 -23.4464 22.9453 -10.8052 -2.88793 0.329827 -1.47388
3658 1 22.0237 13.2986 15.5871 -3.48799 1.58869 -4.16432
3659 1 18.4333 6.49622 -20.1038 3.85695 5.02738 -1.17044
3660 1 13.7832 8.19698 11.1369 -0.280297 1.68054 -3.46877
3661 1 20.9839 10.6871 -15.8282 -4.19839 1.77942 -2.63393
3662 1 -0.359589 0.91367 -22.8393 -3.44844 3.08677 0.224264
3663 1 -18.5689 -14.5428 -12.1187 -1.19476 -5.2216 -2.55063
3664 1 8.11594 16.8907 13.3904 0.490177 -2.6938 -1.95011
3665 1 11.3858 -10.4128 -17.9723 1.49859 1.07915 0.892487
3666 1 1.31375 -17.1136 22.646 1.11869 -1.03558 1.93459
3667 1 12.9729 15.9237 -16.5537 0.246452 2.52897 -5.11079
3668 1 -14.3467 -1.26638 19.7102 -1.73312 -3.10711 -3.3483
3669 1 0.868576 20.924 3.21272 -6.34497 1.9319 -1.562
3670 1 12.4605 7.12766 -9.5605 -0.169312 -4.33574 -0.774569
3671 1 -1.06365 11.7002 -14.2064 -2.31064 -0.743032 -3.78817
3672 1 -14.0907 11.8397 12.6532 -0.483793 3.15139 1.50158
3673 1 -4.73646 -23.2885 21.9055 2.57376 -4.16943 -1.679
3674 1 -2.81578 -0.65271 -7.4566 -4.42535 -1.31416 0.870559
3675 1 -14.2473 19.1554 -9.86739 -4.87891 1.63826 -4.94694
3676 1 16.8769 13.4136 -9.50024 -0.838369 -1.33274 2.81328
3677 1 -5.67305 14.0713 14.1384 -1.17325 0.00508172 -0.793378
3678 1 -18.4036 6.99091 15.5414 -0.0336333 -3.61744 -3.7859
3679 1 9.46587 -18.9476 -4.80704 0.315404 2.03705 0.655055
3680 1 10.2158 4.93735 -24.1401 -0.314152 2.07863 -0.828146
3681 1 -7.58703 0.844752 13.6274 2.33921 1.55517 -0.926462
3682 1 23.0099 -21.4212 17.3046 0.925981 1.29357 -5.17131
3683 1 5.63252 9.63216 6.07815 4.17369 -2.39454 7.23794
3684 1 14.9154 16.4678 -22.9038 1.71691 -2.42065 -0.461002
3685 1 5.20021 -2.23573 -0.117765 0.881357 2.99856 3.58359
3686 1 -22.3412 9.79927 0.037249 -2.63263 -3.95066 0.999256
3687 1 7.99945 -13.6721 9.43046 -2.60859 -4.0382 0.466856
3688 1 -10.145 -23.5208 -0.329605 -2.3828 -0.0590135 4.23654
3689 1 22.4416 15.4983 -16.9377 2.9045 -2.78953 5.05192
3690 1 -9.66176 7.53113 -6.48938 2.6949 -3.81346 -1.60303
3691 1 19.3168 46.9785 -7.59915 -1.98981 4.55319 1.13356
3692 1 6.16129 0.968547 -19.363 -2.68896 0.135157 5.51691
3693 1 6.14146 23.0665 -2.49374 -4.02101 1.88088 -3.55876
3694 1 -22.4674 2.70754 -6.19723 -0.137259 -2.83223 -3.91979
3695 1 -7.64814 -7.46946 -0.139716 0.809808 0.531526 0.390487
3696 1 7.52937 1.8513 -16.2671 3.33519 -4.93178 1.14967
3697 1 11.1392 5.78394 5.43252 -4.17547 2.014 -0.814304
3698 1 -23.0749 2.42762 16.6117 -0.176116 -0.823562 -3.1474
3699 1 -10.5859 -3.89697 11.927 0.537391 -1.69477 1.90537
3700 1 -5.50071 -19.1612 -16.7258 5.0677 0.776182 -1.55048
3701 1 12.8554 -3.10783 11.8464 4.27424 -1.46944 2.59975
3702 1 -6.95135 0.339384 -12.8999 0.520183 -0.727943 -0.527823
3703 1 20.5496 13.006 -22.521 0.592379 2.77644 -5.94962
3704 1 17.1357 -2.4705 11.7091 1.61849 0.627983 1.82584
3705 1 4.94148 -0.521454 2.50173 0.889269 -1.17744 2.4042
3706 1 -13.9309 4.9276 -17.1528 5.23484 -3.17565 4.22207
3707 1 18.878 6.47062 -15.0169 -3.99688 4.64309 -1.04059
3708 1 6.70385 3.0143 8.19128 1.66638 -1.37252 -3.39195
3709 1 -20.9652 15.5227 8.55473 1.39839 3.04704 -3.48513
3710 1 -5.42478 -8.78774 17.0571 -0.278402 -1.84876 -4.0504
3711 1 -12.554 11.5487 15.2299 1.15912 4.26487 -1.73895
3712 1 18.0934 22.3791 -5.26823 -2.16153 -2.25412 -0.748964
3713 1 2.39238 20.3102 5.78933 0.148154 1.84055 -2.05851
3714 1 -11.0991 -0.0825022 21.4519 -0.656683 0.635069 5.27531
3715 1 20.1023 20.2913 19.0916 1.00949 0.284909 -0.586961
3716 1 6.18386 3.16561 0.103024 -2.57385 -1.78652 1.82224
3717 1 -3.20184 15.2774 -18.226 -1.26036 -0.16565 -0.823807
3718 1 -20.2636 7.45507 3.16572 3.2677 -5.32726 -0.796975
3719 1 -0.61255 13.6462 -7.56314 4.47945 1.59517 -3.73796
3720 1 17.5135 17.6001 16.9491 -3.12713 -2.26601 -1.55899
3721 1 -1.93795 20.103 -9.25613 -1.39092 0.372827 1.97403
3722 1 20.2242 -7.50688 5.00766 -2.7067 4.23555 3.50831
3723 1 7.21944 4.79567 -15.6245 0.0194267 -1.01153 0.306085
3724 1 -5.69597 0.167029 -3.58649 -3.06841 -6.36371 -2.21797
3725 1 -14.0127 21.2404 -3.28388 0.346466 1.20852 -1.66499
3726 1 -8.59646 -14.4231 -14.1326 -3.96994 7.39528 3.06782
3727 1 6.45575 -13.1319 -21.6352 0.369887 4.10468 2.12635
3728 1 15.4959 -9.74057 -23.1649 3.58671 -2.25974 -0.623387
3729 1 -19.374 -10.8741 -12.5561 0.181509 4.05304 2.55815
3730 1 11.3547 -4.65067 14.0697 2.7486 -0.246602 -1.80964
3731 1 3.36938 -17.8896 -19.5477 1.63458 0.433238 -3.80035
3732 1 18.1977 18.8018 6.74742 -8.39442 3.98235 1.40337
3733 1 4.52135 -14.3582 -0.0732533 -3.67664 -6.30119 -7.91897
3734 1 14.287 13.3166 -8.08016 7.16791 0.977267 -3.40768
3735 1 -8.10431 19.4103 -0.40715 -2.50516 5.05474 -0.0134279
3736 1 -22.8697 13.6064 -9.98779 -0.389535 -0.985138 1.3845
3737 1 -0.212809 5.43676 0.654223 2.32466 1.62747 2.51119
3738 1 -6.44521 -6.67402 15.225 -2.46716 -1.28631 -1.44097
3739 1 0.163045 -5.00606 8.90935 -1.77006 2.39704 2.05911
3740 1 7.12134 -0.146236 -22.1747 3.31151 -2.51545 -0.53122
3741 1 -18.9455 10.6461 -3.89888 2.10432 0.578224 4.38239
3742 1 -1.46192 -18.2489 -14.1079 -1.8849 -2.47763 -3.45207
3743 1 5.70291 -14.4108 15.158 0.399449 -1.89955 2.73035
3744 1 -16.6625 16.9617 3.63195 -1.8126 2.45003 5.74294
3745 1 3.08073 -8.56574 10.8483 -3.11242 3.08283 4.06161
3746 1 7.12047 -18.6182 -6.63757 5.09439 0.214901 -1.89316
3747 1 -16.8062 23.3633 -17.5741 1.11636 -7.46652 1.2589
3748 1 -14.5427 -1.55457 -19.5112 -2.08655 2.74681 4.82639
3749 1 -24.1388 -2.09408 12.9742 2.46099 6.30578 -0.517949
3750 1 12.4898 22.4901 -14.3987 -0.27913 -1.31538 0.647777
3751 1 -5.42589 -3.16973 -0.0514516 4.24507 0.0653745 0.733321
3752 1 -20.6733 13.8976 -14.9667 -1.6573 -1.45567 1.07855
3753 1 7.1892 -3.08454 -21.5618 -0.0755471 3.26851 0.981122
3754 1 -11.3599 5.61326 8.28502 4.11756 1.60652 2.0792
3755 1 17.4109 6.75864 -11.255 -1.33446 2.85867 -0.478137
3756 1 -11.3763 -22.965 -20.1695 2.04459 -3.94303 0.167975
3757 1 0.227867 21.4128 0.551434 4.8233 1.48368 -0.253268
3758 1 -24.0409 -7.89692 -13.4724 -1.66608 0.177691 -0.215044
3759 1 -14.1213 8.12446 -19.612 -1.13893 -5.18563 2.64677
3760 1 16.3465 23.4025 3.91569 6.52148 1.80003 -1.87456
3761 1 18.3209 -11.8543 -16.6397 -1.92136 1.36642 0.514486
3762 1 10.4603 -10.2533 7.36934 -2.23801 2.24385 -6.77571
3763 1 12.8765 9.96609 7.29126 -2.49883 -3.21584 -3.9951
3764 1 14.8271 -9.95641 18.8531 -0.270883 -0.284965 -0.583449
3765 1 -23.7991 -23.6327 -2.01086 -1.91082 -1.25231 0.578391
3766 1 -12.5314 18.9117 14.2703 4.70204 2.84907 -3.98453
3767 1 -11.5047 -22.4763 1.87747 -3.17948 -1.01204 -4.05864
3768 1 -2.26443 6.04366 -15.699 3.78043 0.169882 3.38348
3769 1 -21.4455 -17.3839 9.16363 0.217528 -2.84127 0.88405
3770 1 -7.62781 -5.82482 4.71257 -0.235788 3.39783 1.38114
3771 1 -15.918 18.7401 20.4123 2.07514 1.36977 -2.19882
3772 1 15.7176 -14.3455 -2.5719 7.10483 3.0114 7.59743
3773 1 1.18106 -2.87859 15.2631 4.77443 0.194261 -3.15032
3774 1 -6.38956 12.7747 4.59179 1.16057 2.80238 0.570946
3775 1 4.28518 -2.72688 -10.9363 1.89417 5.2371 -2.69384
3776 1 8.80475 -6.03002 17.6177 3.05025 -0.760668 -2.0579
3777 1 9.97897 -7.49152 -0.969991 -2.459 -1.2025 -1.23692
3778 1 4.93203 15.5926 -10.1979 -0.0426822 1.27111 0.697077
3779 1 -9.05339 -0.166346 6.15216 2.89523 3.13941 2.36283
3780 1 21.9446 18.3589 -15.9059 -8.3047 -0.0867763 0.00769675
3781 1 -6.4338 -4.65553 6.89139 0.357324 0.270683 1.38265
3782 1 -0.517628 -14.5852 -18.3105 -5.0124 3.70566 -1.23997
3783 1 21.2975 18.6067 4.44127 3.29028 -1.39448 -2.83101
3784 1 14.4214 0.202509 2.83996 -0.0505379 -0.27623 -0.396871
3785 1 -2.91722 47.2799 23.3107 1.652 2.85568 3.389
3786 1 19.2435 6.96039 17.8502 -2.88035 -3.51318 1.3189
3787 1 10.8253 22.5935 -17.9699 -3.9407 1.48897 0.76138
3788 1 8.30704 15.2718 7.73373 1.65693 1.04983 2.4684
3789 1 20.412 25.8614 -11.6936 -0.987436 -1.40915 0.953281
3790 1 4.8225 -18.7326 0.184571 -0.0620588 2.2191 -5.64158
3791 1 -9.04477 17.0098 -11.6872 1.87983 2.96071 0.287353
3792 1 -10.4613 -7.96487 9.9681 0.104426 -3.57193 -4.36948
3793 1 -14.9649 21.3389 3.38183 -0.888432 -3.08561 0.459757
3794 1 -1.72448 -21.7843 -9.94325 -2.18216 -0.562436 2.14577
3795 1 14.9398 24.7975 21.5326 -2.08503 -3.09392 3.73726
3796 1 -13.1192 -13.2818 -8.54196 -1.2246 1.6915 2.75792
3797 1 -15.3757 -14.1118 7.48468 -2.42306 -4.0843 -2.25
3798 1 4.19269 2.25352 -1.81214 -2.65942 -0.711316 -2.63052
3799 1 20.5548 21.0248 -8.02516 2.23825 4.74363 -0.884862
3800 1 13.5065 2.19195 -2.75296 -1.96776 -4.2331 -0.199793
3801 1 3.15034 16.6241 -8.17348 -0.354981 2.44037 -2.54401
3802 1 5.6736 0.83852 23.6976 -0.163583 -2.2668 1.29503
3803 1 -17.1584 -4.7699 -23.9827 -0.370796 5.93589 -0.661258
3804 1 14.6274 16.6505 11.6342 0.532554 -1.11074 -0.0630479
3805 1 -5.79628 16.5758 -17.2566 1.41941 0.651508 1.34767
3806 1 -0.131219 0.224208 -3.87842 5.65995 -0.267627 -3.23741
3807 1 -7.39949 20.8955 -18.9967 2.2256 1.08319 0.626988
3808 1 9.51168 -13.6084 -21.7618 0.893426 0.682915 -2.8257
3809 1 3.94531 -22.2699 -19.1318 1.41202 -1.84714 0.744627
3810 1 -18.1044 -3.43137 13.8733 0.657265 1.10612 -2.76646
3811 1 13.7913 -14.4268 -23.9164 -4.27749 0.545423 -5.49024
3812 1 -3.79679 -16.1418 0.0858699 -1.68329 0.579696 2.74256
3813 1 17.37 5.42432 -1.57724 2.81736 3.49352 -2.43523
3814 1 3.13512 7.88232 11.9772 6.25375 -1.1048 4.25796
3815 1 0.236401 17.3972 22.4859 -0.760871 0.317254 0.0878958
3816 1 -12.8416 -8.22614 3.81381 -2.20878 -3.00135 1.55112
3817 1 10.5434 8.81122 -1.09203 1.57654 -2.34764 2.99817
3818 1 12.9704 17.8029 23.8269 -1.81859 -4.15926 -3.16986
3819 1 3.7782 22.8501 14.9864 3.09028 -0.00470919 1.08054
3820 1 22.5119 12.8994 -5.88648 -2.78058 4.86077 2.95262
3821 1 10.4622 -12.2915 13.641 -0.167299 -3.01659 1.11823
3822 1 9.53525 6.52809 8.99516 -2.2577 1.27448 1.51753
3823 1 -5.03767 -19.0959 -11.6572 0.193521 0.130292 -1.26144
3824 1 -8.25643 -23.4798 -6.65888 -3.14454 -0.961812 -0.734881
3825 1 21.6967 -12.1451 11.4437 -3.84824 1.13579 -0.523286
3826 1 0.0423138 17.9837 -15.1634 3.84928 -2.49217 2.19155
3827 1 -1.38435 7.28832 18.9065 0.118732 1.48579 -1.44044
3828 1 -19.0459 17.6859 -20.0523 -5.03929 -0.543423 -3.37178
3829 1 -12.1813 -18.4541 -5.52659 4.03092 2.10955 0.951616
3830 1 17.5893 -13.0331 -12.7891 -0.857367 1.24948 1.81741
3831 1 -2.66788 21.4395 0.0879039 0.808604 -3.39783 0.976918
3832 1 22.3913 -1.63038 4.07515 1.84462 -1.88764 2.94208
3833 1 19.3329 -0.637653 -10.7954 -0.395469 3.20347 0.66217
3834 1 6.98185 5.4628 3.79247 1.53194 5.56599 4.88456
3835 1 21.6765 -23.8378 -2.52358 -3.33226 -0.32804 2.37655
3836 1 22.2201 14.0128 0.275079 4.09026 -1.06025 -0.304197
3837 1 12.5853 13.9041 5.56825 3.06284 -2.8152 -0.245997
3838 1 -6.75574 4.27094 -3.97602 -0.847356 -6.38917 2.48058
3839 1 18.1129 5.03561 1.07576 -0.539254 -4.40631 -1.48496
3840 1 -10.2086 -21.7345 12.7859 4.43332 0.959635 4.30694
3841 1 22.3562 4.20607 11.2033 5.66113 5.43597 1.11849
3842 1 23.0467 0.704755 20.9566 1.41312 5.84983 4.34618
3843 1 -0.683145 -15.7437 13.3096 -1.45005 -2.15288 4.41116
3844 1 -21.4546 -14.2213 7.50341 0.652026 -2.29896 2.01565
3845 1 -5.40849 3.7679 -22.5122 5.88599 -4.19306 -1.86179
3846 1 -21.6852 24.5789 19.8688 2.4382 -2.59464 0.779679
3847 1 -17.0938 -18.8703 -13.0202 -0.689604 0.301041 -0.669919
3848 1 5.99466 -13.4421 5.92731 -1.62015 -1.27686 1.2414
3849 1 17.7042 13.1432 -21.3156 1.17912 2.53778 -0.753928
3850 1 19.6029 -20.7655 21.9314 -4.18921 -1.7591 2.98364
3851 1 -3.02566 5.60466 -3.35413 -3.57961 -1.80509 -1.61817
3852 1 -5.39363 18.4992 15.5382 -1.23662 3.81853 0.760134
3853 1 21.1268 -12.1637 3.45172 -4.55002 4.60662 1.35992
3854 1 16.9299 13.1145 -2.35901 1.94975 0.593374 0.341259
3855 1 -2.26076 -5.20183 23.1294 1.89966 -2.24648 -2.58155
3856 1 13.195 -18.9435 -3.26033 0.0887115 0.752243 -4.73671
3857 1 -12.0145 45.7108 -11.87 2.43942 -0.339307 2.94687
3858 1 16.8434 7.14615 6.99964 5.4467 4.83344 1.66877
3859 1 21.8881 18.6004 10.8652 -3.03459 4.91266 -2.99661
3860 1 13.8469 -15.8761 -14.8769 0.286868 -0.0277518 -0.810213
3861 1 -18.3227 -12.5674 20.1878 -1.49157 -0.625702 4.28813
3862 1 -2.99973 0.340832 -17.909 -1.00619 -0.818283 -7.67606
3863 1 -14.1432 -3.36417 13.6552 -0.528251 1.49262 3.32437
3864 1 -3.19798 -3.68688 -15.8326 -1.62122 -3.63917 -1.22948
3865 1 1.96047 -23.2526 14.4746 -1.62959 4.72902 2.10952
3866 1 11.0199 -14.2669 6.74751 -0.918981 -1.12536 2.56826
3867 1 -24.1358 0.47132 1.8586 5.69264 -2.33439 0.0118837
3868 1 6.66558 5.41423 -1.91055 -0.346159 0.821303 5.13002
3869 1 -8.67223 5.32995 6.96836 -3.22458 2.31674 -3.39256
3870 1 16.5934 -21.8987 -8.50963 -2.53983 1.02813 -2.12631
3871 1 17.5716 1.42607 19.0242 4.46966 0.100794 -3.25385
3872 1 22.0421 -24.1755 -8.69527 -0.799974 -0.746687 2.29498
3873 1 -4.57101 6.08327 13.5682 0.0852634 3.27383 2.12823
3874 1 -17.5334 -23.8051 -14.0972 0.103976 1.09092 0.487402
3875 1 21.8305 2.36441 6.43964 -1.06034 0.403237 5.91276
3876 1 -22.471 -11.8092 20.2947 0.86415 -0.503341 -1.30084
3877 1 -23.1552 3.15656 -3.36505 -2.12891 -3.45673 1.00744
3878 1 8.39519 -16.3869 7.99571 0.477594 1.73937 -2.54337
3879 1 17.1432 -17.5515 21.6955 -0.0594331 -4.15389 -4.21707
3880 1 -7.84222 18.9739 -23.4155 -1.31846 3.46359 0.640922
3881 1 -15.0111 -0.0546796 -12.7194 -1.34921 -1.06859 -3.03693
3882 1 -24.5443 19.6644 -2.82128 -1.45856 -2.54686 0.765851
3883 1 20.3302 13.8447 -11.0615 0.799194 -1.75371 -0.0776774
3884 1 12.8746 -19.4019 -6.05831 5.33438 4.9558 -0.696745
3885 1 12.2438 24.9286 14.4797 -1.6218 -4.79553 6.74382
3886 1 -12.3529 -15.6307 -6.34144 2.14294 -0.159278 -0.0713287
3887 1 0.248992 -12.2958 -19.72 -0.965202 2.95518 -0.11952
3888 1 -7.69301 6.80481 -18.3246 1.00906 1.30175 1.90265
3889 1 -16.0961 16.6976 18.5214 0.364702 -2.38309 -3.03704
3890 1 0.960052 18.8608 14.4944 0.326562 4.5905 -0.603609
3891 1 5.44263 -16.1312 17.5064 -1.60201 1.21082 -0.696554
3892 1 -11.7712 21.4524 6.67886 4.14835 0.840187 -0.226705
3893 1 -6.56207 11.0174 10.9962 -2.96087 1.02098 0.666527
3894 1 10.5696 12.7185 -11.9496 2.77328 6.82275 3.72287
3895 1 12.4073 -6.08848 -0.231828 3.44534 4.80062 -3.94212
3896 1 -8.84006 -9.38669 -2.46068 -0.0685141 -0.653112 -0.0116661
3897 1 6.19206 15.4879 23.1241 0.732936 -0.592421 -6.03781
3898 1 16.9459 -1.67954 15.7256 0.857868 -3.79996 4.72324
3899 1 5.89495 10.6288 15.9106 -2.44217 4.44786 -3.16508
3900 1 13.036 -18.8587 -12.5188 2.66134 4.07025 -0.399492
3901 1 -15.2422 13.9473 -12.2128 -2.7173 3.24841 -2.83739
3902 1 12.4037 12.1937 -6.05 2.82594 1.77108 5.33982
3903 1 -18.6891 -14.8477 4.40806 1.16526 2.16052 0.639167
3904 1 11.1748 -7.49124 -8.99982 -3.3477 -1.24039 1.24321
3905 1 1.25043 -9.91703 3.92809 1.50931 -2.89642 -5.21135
3906 1 -16.6712 7.06853 -7.83746 -1.52036 -1.00703 -1.20225
3907 1 -21.6189 -0.0118832 10.2959 -3.07688 -3.76052 -0.694864
3908 1 22.5821 -13.4849 16.0249 2.49962 2.55199 1.47127
3909 1 1.92025 -10.4732 19.002 -6.32722 0.714582 5.09949
3910 1 -8.53707 17.1107 -6.90264 -0.931146 6.66688 2.81585
3911 1 22.2924 19.0615 0.377733 2.01033 -3.25183 -2.94121
3912 1 -10.8518 -9.29527 -0.182335 4.45695 -0.866337 -3.70437
3913 1 -9.13212 5.38175 -0.261348 0.740182 -2.75856 0.190612
3914 1 11.7323 -10.7013 -5.76804 3.62671 1.40061 0.618484
3915 1 6.95012 -1.36721 7.66041 0.482125 6.10853 0.5562
3916 1 22.0564 -11.115 22.5876 -0.936575 -1.50593 2.94572
3917 1 2.07389 -6.19941 -9.08336 1.26089 1.53684 -4.34383
3918 1 11.6515 10.8984 -18.1448 -0.632663 3.93218 -0.587116
3919 1 7.20747 -13.9753 18.7274 1.39119 -0.984825 3.57359
3920 1 -9.82813 11.7526 18.6951 0.853434 -0.408461 0.231832
3921 1 17.6982 7.09265 -17.4615 2.15335 3.37526 -2.43023
3922 1 -17.4493 -15.374 -19.7578 -3.23113 2.15997 -0.56466
3923 1 -21.9876 5.48463 -12.9433 0.664381 -7.05769 1.79868
3924 1 -11.6216 -5.0219 8.65999 -1.2711 1.78261 0.0534921
3925 1 -21.8152 4.23219 1.92511 4.19609 -1.77256 1.79762
3926 1 8.63358 -3.54256 22.833 2.40902 3.5711 0.105902
3927 1 13.2045 14.9669 -1.30796 -2.40119 3.62551 -2.10906
3928 1 -18.108 15.8596 23.3129 -6.70357 5.00358 -1.14901
3929 1 -1.36746 11.7131 -9.99042 2.54857 -5.68439 -0.708435
3930 1 15.1831 19.6278 0.617662 1.69291 2.80948 1.23976
3931 1 -1.42127 11.1256 1.40367 -2.33957 0.933423 -1.61422
3932 1 22.1822 6.56763 12.6385 0.562373 -1.0961 1.29769
3933 1 -3.46694 -9.59564 20.8918 7.81609 -1.93912 1.41648
3934 1 21.6829 3.46004 -13.2686 1.09396 1.10524 -4.17176
3935 1 12.0102 -14.5666 -20.4871 -5.47798 -1.64334 -1.71357
3936 1 -0.454155 -24.1719 21.9782 1.23934 -5.92833 0.98845
3937 1 14.6889 -15.4474 -19.8759 2.42671 1.11798 2.08546
3938 1 18.791 12.2407 18.2134 -1.75286 0.516285 1.29841
3939 1 21.9102 -0.967207 14.7729 -7.23198 -5.52014 2.27723
3940 1 -2.83619 23.0927 -5.81237 -1.36351 0.911021 -3.32208
3941 1 -19.2362 3.44109 -22.2941 -1.93402 1.48407 1.80319
3942 1 10.2798 -21.7947 16.5511 -1.14816 -4.27663 -1.87739
3943 1 -19.0084 -22.1191 1.26736 2.18662 1.56607 0.840484
3944 1 -13.8064 -8.94105 -14.2412 -1.60111 -0.474293 0.621177
3945 1 -19.8145 -13.5026 -16.9058 5.96359 3.008 0.329332
3946 1 -6.42365 14.5955 10.1601 -5.17535 2.33334 1.63735
3947 1 -23.2035 8.27945 -21.8941 -0.848493 -0.312143 3.54642
3948 1 10.3143 16.0927 -17.2104 3.39092 -2.55302 -0.307457
3949 1 4.08341 -12.9534 -12.8504 -4.02027 -1.73866 -4.4849
3950 1 -4.93291 0.536878 -20.3084 -7.89815 3.96794 -1.45544
3951 1 5.23992 2.01505 -12.9982 1.95129 -3.31826 0.591631
3952 1 -5.44658 -4.35739 -17.5826 -0.895412 2.36998 -1.02879
3953 1 21.7408 -17.4089 12.6012 -0.293642 1.4757 2.25401
3954 1 3.05376 3.90262 -18.2696 1.6146 0.503933 -3.95659
3955 1 -7.18755 19.2521 11.5597 -2.78746 5.2306 -2.407
3956 1 -13.3595 12.5975 -5.0808 -5.16108 -0.492561 -0.79153
3957 1 17.0146 -23.0992 -17.9621 0.419332 1.54764 2.09723
3958 1 -2.27055 6.01329 -7.2506 -2.36743 -3.28186 -1.52707
3959 1 -19.8201 -5.52458 -20.7754 1.26465 -2.56809 -0.342408
3960 1 20.5316 -15.8794 -11.4924 2.40934 2.04299 -2.20887
3961 1 -0.77328 -19.9384 -4.04113 -4.33976 2.06527 -2.33135
3962 1 -0.0469061 -13.6801 4.36437 0.161869 -0.167003 -3.31537
3963 1 -15.4849 -18.0506 -2.68788 -5.1558 -1.45843 4.77634
3964 1 8.25552 12.4316 17.2931 -2.20607 2.46455 1.4066
3965 1 -5.65229 1.9171 0.876054 -0.613 0.518105 2.77478
3966 1 -19.826 20.1016 8.99627 -4.54687 0.564353 2.32171
3967 1 1.70413 -7.5241 -5.1763 -3.73167 0.527828 0.486498
3968 1 -2.40818 1.32569 -5.43843 -2.5198 -0.548459 4.27171
3969 1 16.6225 -22.2694 19.4043 -0.0414448 2.66157 0.583743
3970 1 -4.93208 20.6911 21.4966 -9.43216 3.55029 -2.1192
3971 1 -3.60938 -2.5568 21.2946 -3.74468 0.466894 -0.293081
3972 1 -5.48798 -9.6404 -11.535 3.35619 -2.6875 0.168759
3973 1 -11.08 -21.1181 -6.66084 -3.54495 1.03887 1.62805
3974 1 6.35251 23.1552 14.2777 0.0743527 0.353789 -1.43337
3975 1 5.42224 -1.11722 -17.7681 -1.84113 -1.46088 0.209055
3976 1 -3.28862 14.4437 2.58819 -2.61923 -2.19737 -2.5654
3977 1 -9.21323 -18.0036 -19.8428 -5.93365 8.20947 1.80301
3978 1 -1.71505 20.0565 -12.3868 -0.179421 2.12587 -2.9351
3979 1 -10.0205 -23.7123 3.94986 -1.16812 -0.670242 -0.2131
3980 1 -22.2889 -19.0648 -13.1984 0.483281 1.201 -1.51988
3981 1 11.9794 -8.64279 4.03807 -3.18943 -0.545968 -3.6972
3982 1 6.69002 -3.90928 -3.50822 -6.12787 -0.912702 9.46354
3983 1 -22.6387 9.37981 10.2992 -6.42747 -5.8167 0.959572
3984 1 -5.8541 14.355 -19.0719 5.64014 -2.38834 2.19671
3985 1 -12.1604 18.9161 7.59051 -1.68031 0.863087 -1.56864
3986 1 16.8757 20.6725 -14.8738 -1.72288 -2.3631 0.124578
3987 1 13.4332 16.3459 18.7709 1.5354 -3.7056 0.741894
3988 1 -24.2314 19.8882 20.0606 -1.66377 -1.72603 0.0405706
3989 1 -15.2858 -11.3873 -13.9865 4.14753 3.94598 -3.00087
3990 1 7.63718 4.85443 -22.4452 0.590778 3.07315 -7.34117
3991 1 -18.058 8.83111 -23.7235 -2.02178 -0.238211 -1.28591
3992 1 22.1016 9.00442 -4.11787 -2.37355 3.16217 1.29977
3993 1 -6.70048 -12.2532 -6.46215 -0.933893 3.34557 0.277761
3994 1 -15.608 -22.1832 -20.4831 -1.71845 -1.48487 -0.984456
3995 1 5.06031 -23.2493 2.35754 4.98949 -0.440613 -2.49313
3996 1 4.02075 -13.0815 3.76712 1.35944 0.677648 -1.26223
3997 1 18.2398 -23.8152 -10.784 -1.65424 -3.23567 -3.84475
3998 1 -11.3503 -2.56588 0.174178 -2.20942 -0.257607 -0.72438
3999 1 -7.73485 16.5481 12.0028 -0.422903 1.47541 3.35812
4000 1 -18.2565 10.3927 22.2509 -1.76464 -2.3551 -1.0942
4001 1 -10.916 25.3111 -4.30572 -1.27656 2.04641 -0.484786
4002 1 -9.36214 27.7345 -5.21659 -1.28435 4.15047 0.300603
4003 1 -6.8265 27.7873 -4.6204 -1.83878 3.33899 -2.47719
4004 1 -6.20591 25.2533 -6.01482 -2.63267 4.46396 1.03144
4005 1 -10.7265 25.5327 -9.09985 3.69889 1.67005 -3.90052
4006 1 -9.7813 27.8425 -7.95752 0.0809744 0.838435 0.131391
4007 1 -7.36344 27.6672 -9.12896 5.04962 -1.49569 1.44927
4008 1 -6.32403 25.2133 -8.90765 -2.14485 -2.92707 -0.489008
4009 1 -10.0467 24.9309 3.7017 2.7707 -1.63493 2.75204
4010 1 -9.21286 27.0793 2.18316 -6.75405 1.26761 1.28298
4011 1 -6.64666 27.5994 2.99055 -0.912997 -4.22055 -4.80549
4012 1 -5.028 25.5436 2.36812 -0.818492 2.60131 0.53701
4013 1 -10.4097 25.175 -1.54724 2.82338 -1.27974 -1.68774
4014 1 -9.33446 27.3106 -0.534568 2.17422 -0.776665 -2.08202
4015 1 -6.69713 27.9218 -1.74705 -0.231246 -0.252422 2.4937
4016 1 -5.12036 25.896 -0.442431 -0.383 4.65676 2.03094
4017 1 -9.45659 24.4814 10.9686 0.117407 2.49865 1.98255
4018 1 -8.46266 26.7053 9.87737 2.87955 -3.30758 0.831614
4019 1 -5.65606 27.0517 9.92934 -0.650684 0.40355 -0.578672
4020 1 -3.83254 25.0574 9.16226 2.8099 1.85261 -4.94939
4021 1 -9.79788 24.5612 6.5349 0.771665 -0.08187 -1.28042
4022 1 -8.65545 26.8768 7.05558 -0.643755 -0.597009 1.08876
4023 1 -6.22674 27.3055 6.0396 -3.86471 -2.72567 -6.41248
4024 1 -4.48736 25.0666 6.47843 -3.76046 2.14325 7.0052
4025 1 -10.2945 30.0125 -4.03378 0.110272 -2.59008 -2.56645
4026 1 -9.35402 32.3254 -5.21413 -0.0852467 2.31259 -3.96991
4027 1 -6.60862 32.3228 -4.3027 -1.64482 0.577152 1.57969
4028 1 -5.45716 30.0427 -5.47184 1.8259 2.56781 -1.83967
4029 1 -11.2642 30.0729 -8.89625 1.24114 -0.562288 -1.43829
4030 1 -10.245 32.4031 -7.91426 2.7053 3.8454 2.76933
4031 1 -7.55529 32.461 -8.64478 4.83366 -2.64132 -1.8863
4032 1 -5.81513 29.8473 -8.20547 -3.71665 -1.21453 3.66398
4033 1 -9.97663 29.3115 3.68781 0.125725 0.310498 -0.179133
4034 1 -8.83484 31.7562 2.69573 4.50455 4.00538 2.51233
4035 1 -6.12418 32.0666 3.36275 0.857175 -1.53437 -2.20893
4036 1 -5.08902 29.8176 2.08094 -5.28136 0.0554417 -2.32698
4037 1 -10.4169 29.911 -1.04106 -4.13996 -0.0921462 -6.53503
4038 1 -8.96782 32.0675 -0.0540828 -6.08504 -3.12772 0.116147
4039 1 -6.53153 32.2223 -1.51971 -4.41725 3.14388 -0.660474
4040 1 -5.29215 30.0944 -0.69701 0.136515 -0.350247 1.96284
4041 1 -9.45352 29.067 10.9457 -1.63938 -1.96 -0.285703
4042 1 -8.09586 31.3478 10.4489 5.04777 -4.72971 5.45377
4043 1 -5.39628 31.6931 11.0572 0.39579 2.08501 1.43792
4044 1 -4.45573 29.5194 9.55933 0.0267948 -4.07976 1.77199
4045 1 -9.41888 29.3438 6.3304 -4.11699 -1.11138 0.480155
4046 1 -8.39279 31.5547 7.60115 -0.365146 -1.73973 -0.173155
4047 1 -6.12151 32.0885 6.12555 0.0913232 -2.22219 -0.796767
4048 1 -4.64589 29.3759 6.59765 -3.5285 -3.31731 1.78172
4049 1 -10.1109 34.558 -3.78333 5.09265 -4.61409 3.54513
4050 1 -9.36147 37.0395 -4.86244 -0.186815 -0.351745 1.96193
4051 1 -6.76419 36.8831 -3.84852 -2.48117 2.46463 -4.52625
4052 1 -5.62091 34.7753 -5.39904 2.52443 -0.874118 -0.851973
4053 1 -11.3546 34.9428 -8.47013 1.71002 2.84049 1.46482
4054 1 -10.0358 37.1751 -7.53819 4.43233 -2.54414 3.26734
4055 1 -7.51556 36.942 -8.76641 1.23714 6.88654 -2.5165
4056 1 -5.9633 34.7662 -8.10297 -1.58223 4.79003 6.37783
4057 1 -9.99841 33.9683 3.72788 -3.1655 -2.76805 -8.24819
4058 1 -9.03488 36.4822 2.94268 -0.821209 -2.07462 -3.80075
4059 1 -6.36471 36.7202 3.24218 5.48696 3.68278 -3.77411
4060 1 -5.24215 34.4207 2.09931 2.32834 -1.26273 1.11897
4061 1 -10.4385 34.048 -1.02625 0.00148827 0.369738 2.2209
4062 1 -9.18724 36.405 0.219798 1.35953 -0.675734 0.383637
4063 1 -6.85584 36.7238 -1.03826 2.41003 1.78294 1.60752
4064 1 -5.1532 34.5542 -0.754206 -1.62388 -8.56765 -5.15882
4065 1 -9.20951 33.9187 11.2048 0.484978 0.545136 -3.2544
4066 1 -8.34582 36.4292 10.0455 -1.58869 -2.72973 2.14835
4067 1 -5.68312 36.1126 10.4086 3.83611 -0.340155 0.889653
4068 1 -4.4329 33.8513 9.65261 1.37293 2.85478 4.46712
4069 1 -9.41598 33.8544 6.45153 4.61045 3.6033 -2.54445
4070 1 -8.3356 36.2569 7.30969 -1.88372 4.77565 -3.24271
4071 1 -5.90664 36.5316 6.13962 -4.48144 0.973236 4.20397
4072 1 -4.66974 34.0918 6.98544 1.48449 -3.35458 -2.12645
4073 1 -10.5837 38.9878 -3.24589 -2.48836 2.92937 -0.714577
4074 1 -9.86187 41.2585 -4.53403 -3.95472 0.638773 -0.0972382
4075 1 -6.91453 41.3887 -3.82621 -1.04266 -0.323758 -0.342621
4076 1 -5.90788 39.1628 -4.96306 2.12284 0.843076 5.13946
4077 1 -11.3937 39.3812 -8.14835 1.18329 1.9518 -4.9252
4078 1 -9.67669 41.4994 -7.38363 0.357574 2.73016 -1.69125
4079 1 -7.09148 41.4384 -8.57509 3.01653 4.52731 2.17848
4080 1 -5.88068 39.1745 -7.77699 -2.22425 3.55264 -0.423102
4081 1 -9.89673 38.9801 4.29292 0.929869 5.2693 -0.154907
4082 1 -8.7379 41.237 3.04305 2.4018 -1.15681 1.96827
4083 1 -6.07436 41.1857 3.44699 -2.68728 4.01397 -0.0358698
4084 1 -5.05593 38.9947 2.10942 -1.71352 2.82156 0.0283686
4085 1 -10.3499 38.8799 -0.483077 4.85794 -2.68528 0.11883
4086 1 -9.02057 41.3238 0.216656 4.37594 0.436162 -2.4768
4087 1 -6.55373 41.4773 -1.18791 2.77566 1.93851 0.509138
4088 1 -5.476 38.9818 -0.580124 -3.78166 -1.39802 -1.23833
4089 1 -9.61214 38.8379 9.73379 -0.0720163 -1.78777 -2.41016
4090 1 -8.05573 41.1176 10.0113 0.521242 -2.20737 0.759156
4091 1 -5.49093 40.2856 10.8987 2.81232 -0.0407454 3.91855
4092 1 -3.92077 38.1732 9.86277 -3.63304 2.77625 -2.57679
4093 1 -9.87001 38.7293 7.04231 1.86381 -1.43309 0.739467
4094 1 -8.50826 41.1622 7.27573 -1.7109 -1.91656 -2.43156
4095 1 -5.97194 41.1657 6.19312 3.48058 -3.17332 2.43157
4096 1 -4.58351 38.7676 7.04375 0.472852 -0.761631 -0.951243
4097 1 -10.9152 43.4176 -3.17531 0.0519217 -1.73253 -1.61282
4098 1 -9.99331 45.3902 -4.82759 2.25979 -0.322708 -4.99609
4099 1 -7.43826 45.5271 -3.88501 8.16555 4.14758 -4.47864
4100 1 -5.77054 43.5607 -5.06473 -0.549625 -4.22192 -1.55175
4101 1 -10.2062 44.4063 -7.5078 -5.75434 0.879075 -3.6686
4102 1 -8.12091 45.9745 -8.07082 -3.93015 -0.281048 2.83265
4103 1 -8.08631 -24.6127 -10.2876 2.42086 -4.35494 -1.60918
4104 1 -5.9639 44.1224 -7.85865 4.14596 -0.503602 10.1214
4105 1 -9.52428 43.6379 3.91191 -1.04609 1.33887 -0.614507
4106 1 -8.63455 46.1297 2.88562 -3.9811 -2.52683 -0.192422
4107 1 -6.21967 45.7249 4.15727 0.328083 2.52505 3.39995
4108 1 -5.31742 43.7323 2.42143 4.31599 2.45024 3.16247
4109 1 -10.2121 43.7723 -0.581604 -4.32543 1.57142 2.40117
4110 1 -9.06591 46.1276 0.121588 3.97457 -4.41291 0.37148
4111 1 -6.9454 45.7746 -1.38064 5.07734 5.08301 -0.463453
4112 1 -5.31296 43.7438 -0.362035 2.81582 -1.83153 2.19567
4113 1 -8.10354 43.7782 10.7516 0.920265 -0.247268 4.76809
4114 1 -5.51604 44.5299 11.3061 -1.38168 -2.41547 -3.35335
4115 1 -4.73427 46.935 10.4911 1.32306 -0.699794 0.440807
4116 1 -4.14551 42.5316 10.0345 0.647592 -2.81111 5.79535
4117 1 -9.55501 43.4874 6.65678 -0.585337 0.353354 2.04806
4118 1 -8.63717 45.2257 8.54502 -1.19384 3.4143 1.20083
4119 1 -6.24758 45.9096 7.01335 -3.44674 -0.424307 2.58952
4120 1 -4.68867 43.4937 7.39959 -0.736976 -4.10913 -2.48158
4121 1 -3.73287 25.7814 -4.86416 -0.173077 0.962437 -0.793852
4122 1 -1.67188 27.7336 -5.74447 -0.616339 1.39093 0.438957
4123 1 1.15798 27.4919 -5.35915 1.18207 -0.173054 -2.31569
4124 1 1.82641 25.1243 -6.40406 0.910861 3.59425 -3.53999
4125 1 -3.49106 25.474 -9.12538 -1.0304 0.562964 -1.78129
4126 1 -2.06342 27.7106 -8.63975 -3.61726 0.769365 1.86077
4127 1 0.643105 27.8286 -9.43163 -4.0168 -0.79848 5.96928
4128 1 1.99861 25.4693 -9.11805 4.10098 -1.04436 -5.49294
4129 1 -2.15118 25.3118 2.80367 -2.40433 -1.21088 2.91796
4130 1 -0.939269 27.6985 1.71784 -3.05777 -3.73479 -4.13884
4131 1 1.84337 27.7526 2.40732 -2.16534 0.431155 2.26757
4132 1 2.14965 25.4353 1.03836 5.54061 -0.722075 1.38261
4133 1 -2.91672 25.7354 -2.0519 -2.17972 -2.86024 2.49747
4134 1 -1.36423 27.9047 -1.24277 2.10424 2.7446 6.05871
4135 1 1.16881 27.4235 -2.47469 -0.615309 -1.6764 0.0503429
4136 1 2.82501 25.1858 -1.6418 0.516772 2.33454 -5.26648
4137 1 -1.08604 24.5639 8.36524 -2.99303 -0.369151 0.399642
4138 1 -0.411904 27.1902 8.70937 -1.57784 -2.6126 -0.312956
4139 1 2.26724 27.6384 9.14832 -0.442141 2.5511 -6.11008
4140 1 2.8867 24.8017 8.97057 0.357616 2.95953 -3.53687
4141 1 -1.66451 24.9575 5.53736 1.58615 -1.03176 -0.486251
4142 1 -0.574042 27.5925 5.8816 -1.05405 -1.91369 2.9043
4143 1 2.03453 27.529 5.06451 0.987611 0.695007 0.231021
4144 1 3.17904 25.2514 6.23227 3.01461 -3.61504 -2.80375
4145 1 -2.76844 30.0458 -4.84983 -0.35908 0.394933 -1.88917
4146 1 -1.71536 32.3148 -5.82611 -1.11451 -4.46845 2.81929
4147 1 1.17065 32.0983 -5.37719 -0.66962 3.08667 1.07178
4148 1 2.71102 29.7283 -6.08282 -1.10346 -2.3102 -2.52308
4149 1 -3.4446 29.962 -9.26322 5.16587 -2.06139 -0.591329
4150 1 -1.97737 32.3482 -8.4854 -2.33077 3.3124 4.39183
4151 1 0.702103 32.1262 -9.33998 -1.8164 -3.04997 0.369845
4152 1 2.36579 30.0193 -8.94788 -0.471059 1.47063 -5.30325
4153 1 -2.55568 29.7651 2.98322 2.22163 -3.75714 -0.451002
4154 1 -1.21589 32.0301 1.63562 1.47673 1.88021 -1.67842
4155 1 1.48369 32.0821 2.27105 -3.49776 1.09316 -3.6431
4156 1 3.04884 29.9749 1.22418 -0.124252 0.265283 0.668827
4157 1 -2.69869 30.1036 -2.1097 -1.35778 -0.766383 -2.15259
4158 1 -1.14024 32.2253 -1.2042 -3.65727 -3.66302 0.739951
4159 1 1.33826 32.0545 -2.51095 3.25288 -1.96399 -0.831454
4160 1 2.62306 29.7431 -1.56272 -0.675711 6.25648 -1.63007
4161 1 -1.67102 29.328 9.86557 3.40893 5.15126 0.326831
4162 1 -0.412687 31.8699 9.1521 0.997669 -5.6226 -0.442506
4163 1 2.51288 32.0871 9.70041 -0.215777 1.30327 -2.76291
4164 1 3.42287 29.9301 8.42227 3.41524 1.53623 0.227103
4165 1 -2.13131 29.8478 5.83993 0.0330707 2.02932 0.966965
4166 1 -0.571875 32.2038 6.2924 1.14439 -1.86531 0.633214
4167 1 1.84998 32.1306 4.96554 1.46345 -0.341624 -3.14181
4168 1 3.4011 30.0307 5.73144 1.02392 2.67008 -4.78487
4169 1 -2.83727 34.5716 -4.81587 2.19379 0.682376 -2.97088
4170 1 -1.72996 37.0353 -5.33186 -1.38777 3.13863 -4.81538
4171 1 1.02417 37.0254 -4.80336 1.79731 0.22063 -0.87474
4172 1 2.49125 34.7315 -6.2247 0.120374 1.02239 -0.819325
4173 1 -3.2997 34.6711 -8.55054 1.87148 0.115631 0.594587
4174 1 -1.93742 36.9283 -8.10253 3.83953 -1.95417 -1.28937
4175 1 0.453991 36.8285 -9.37354 2.86675 -1.51482 2.45823
4176 1 2.0853 34.5852 -9.00587 -1.81402 2.87662 -3.95315
4177 1 -2.471 34.3021 2.71866 -2.84786 -6.98717 2.39156
4178 1 -1.23121 36.6172 1.69821 -1.32014 1.69548 6.68413
4179 1 1.71963 36.7938 2.4134 -4.66996 0.498272 -1.18851
4180 1 2.7356 34.4459 1.4692 2.59433 -3.99381 -5.86159
4181 1 -2.66081 34.4965 -2.15051 -0.134576 7.00861 0.436608
4182 1 -1.49006 36.8235 -1.1524 -0.715856 2.52546 1.23829
4183 1 1.12464 36.7262 -2.0313 0.0841086 -2.65151 -2.16535
4184 1 2.44468 34.3869 -1.23745 -2.65578 -2.15365 0.237448
4185 1 -1.65184 34.2455 10.0711 -1.80272 -6.15997 -0.503279
4186 1 0.00133757 36.1809 9.05855 0.0723451 0.929038 -1.88422
4187 1 2.86755 36.6171 9.62729 -0.205994 2.03898 -3.2894
4188 1 4.00219 34.3923 8.45055 1.87245 -3.19695 -0.354609
4189 1 -2.1793 34.4967 5.58489 -6.03699 -2.03462 0.267835
4190 1 -0.507407 36.6166 6.32794 -0.905037 -1.13488 -2.22362
4191 1 1.96139 36.7086 5.2975 -0.820317 3.46124 0.379521
4192 1 3.4391 34.4497 5.65105 -1.58247 -3.2689 0.295259
4193 1 -3.0282 39.3417 -4.55913 -7.78806 0.583995 -0.648241
4194 1 -1.79108 41.5437 -5.57196 2.46427 0.418961 -3.46357
4195 1 0.806683 41.4891 -5.01422 -2.45892 -2.34606 2.37901
4196 1 2.08086 39.2375 -6.01885 0.502068 4.66654 5.27225
4197 1 -3.29996 39.2871 -8.53221 0.260655 -1.53577 -2.56277
4198 1 -2.17442 41.8542 -8.28989 -1.79727 -2.23878 -2.7555
4199 1 0.504369 41.8853 -9.36323 -4.69465 -5.14308 -1.19849
4200 1 1.42707 39.3576 -8.94901 0.994479 -5.99427 1.99143
4201 1 -2.37873 38.7936 3.09266 1.229 5.02808 -0.284992
4202 1 -1.35191 41.2337 2.12607 -3.01267 5.48154 -0.577164
4203 1 1.46494 41.2749 2.79682 3.83507 0.0266596 1.53067
4204 1 2.88874 39.1868 1.85888 2.50863 2.12171 -5.63321
4205 1 -3.00828 39.0068 -1.71341 0.490823 -2.6733 -1.17927
4206 1 -1.33275 41.2234 -0.763691 1.67561 -2.82554 -1.46919
4207 1 1.06959 41.3071 -2.32108 -0.24472 0.25182 -3.03585
4208 1 2.51829 39.0455 -1.00546 0.402482 0.122093 -6.87129
4209 1 -1.20186 38.4811 10.1284 1.37135 -8.84649 1.84359
4210 1 -0.153722 40.7759 9.32245 -1.71801 -4.63329 -2.28786
4211 1 2.76009 41.0692 9.40197 0.719819 6.30412 1.82243
4212 1 3.73461 38.8185 8.43388 -0.0110106 -0.0393753 -1.10192
4213 1 -1.81963 38.9784 5.85656 0.113805 -2.22081 0.242125
4214 1 -0.725883 41.3683 6.78159 7.59656 -0.857453 4.44356
4215 1 1.709 41.5395 5.55925 4.39231 -0.296973 -2.13749
4216 1 3.21766 39.102 5.81275 1.33752 1.06228 -3.20111
4217 1 -3.06054 43.5164 -4.38117 -1.17864 1.81895 0.26292
4218 1 -1.98139 45.9657 -5.67431 2.04254 0.0413887 -0.409555
4219 1 0.690436 45.5571 -5.0707 5.72437 2.164 1.76892
4220 1 2.3305 43.6842 -6.26851 -1.20762 1.36267 0.394755
4221 1 -3.1064 44.4208 -7.84948 -0.603608 -5.49174 -2.6314
4222 1 -1.58444 47.0509 -8.41234 1.76024 -0.430049 2.17812
4223 1 0.92282 46.5424 -9.43324 -2.6286 -0.737674 -1.04949
4224 1 2.06165 44.0415 -9.22137 0.0455476 -3.61809 -2.6557
4225 1 -2.57633 43.4985 3.18399 -1.75205 4.18565 2.45352
4226 1 -1.43801 45.5439 1.68485 0.00579186 2.89027 -0.402076
4227 1 1.22955 45.7151 2.3708 -0.853027 -1.78872 -3.21089
4228 1 2.52322 43.5451 1.52312 -2.01123 2.04524 1.71667
4229 1 -2.81007 43.5925 -1.63285 -0.650525 1.50293 0.272658
4230 1 -1.14492 45.8046 -1.0567 -0.450088 1.42989 1.51662
4231 1 1.26896 46.1221 -2.44573 0.379096 2.6726 5.10359
4232 1 2.45685 43.6016 -1.35068 -1.03786 -2.3825 0.285272
4233 1 -1.45153 42.587 10.8954 2.90721 -1.81631 0.319919
4234 1 -0.336586 45.1576 10.0745 -0.0702338 2.50659 2.42179
4235 1 2.67855 44.8531 10.3735 -0.230376 2.97641 0.439411
4236 1 3.96419 43.5114 8.535 -3.93652 0.0556696 -2.30594
4237 1 -2.07552 43.5827 6.12709 -0.748071 4.11915 4.73255
4238 1 -0.700123 45.6217 7.33985 -1.53823 4.33866 4.31114
4239 1 1.37829 45.9098 5.06938 -2.36727 3.78509 2.04014
4240 1 3.0464 43.9898 5.9402 -0.530705 1.80847 4.82508
4241 1 4.54131 25.9255 -5.36951 -5.71656 -2.56862 2.42501
4242 1 6.66744 27.5865 -6.42928 3.07677 -4.58935 2.6763
4243 1 9.39851 27.6926 -5.74371 1.39719 0.565396 2.33324
4244 1 10.1736 25.2283 -7.05087 -2.03751 -1.1577 2.43804
4245 1 4.67752 25.2936 -9.71181 -4.08621 3.96449 -0.169329
4246 1 6.68268 27.5002 -9.17033 5.50963 -0.789238 -1.15297
4247 1 9.04053 27.2925 -10.7569 -2.67188 -3.96402 -0.184034
4248 1 10.3612 24.5434 -9.90332 2.62821 3.51249 1.52746
4249 1 5.12836 25.1817 1.65487 2.49172 -0.453574 -1.94923
4250 1 6.58637 27.3925 0.80785 -0.0498834 -4.20742 -5.476
4251 1 9.20297 27.8473 1.78482 -2.54625 -2.02538 -0.713728
4252 1 11.2094 26.1651 0.676076 -6.44053 0.869108 -0.89028
4253 1 5.39923 25.7158 -2.66951 -0.450212 3.8596 -6.80665
4254 1 6.93578 28.0634 -1.99952 -1.92363 -1.60196 -6.36743
4255 1 9.57792 27.7873 -3.09145 -3.93346 1.70714 1.73112
4256 1 11.0657 25.4381 -2.35655 0.123044 -0.167524 -3.13133
4257 1 5.65962 24.9715 9.66924 0.891533 5.89057 -2.60379
4258 1 6.77872 27.384 8.51684 -2.14391 -4.10193 -2.05932
4259 1 9.44986 27.6208 9.44678 1.72851 -2.20298 1.33591
4260 1 11.6973 26.2455 8.35055 1.52519 -6.31455 -1.95058
4261 1 5.38453 25.0805 4.53225 -2.30588 -0.732849 -6.87836
4262 1 6.92514 27.605 5.541 1.5241 0.110683 -3.02021
4263 1 9.66576 27.4023 4.51478 2.08923 -3.94583 4.92276
4264 1 11.3605 25.2937 5.76953 5.43863 0.758503 -0.952308
4265 1 5.47581 29.9521 -5.32271 3.9873 9.18072 -1.33135
4266 1 6.58836 32.2153 -6.06761 2.10539 -1.79786 -1.69084
4267 1 9.30347 32.3078 -5.7694 3.72609 3.09077 -4.3726
4268 1 10.3287 29.9338 -7.2589 -1.94439 -1.35224 4.32684
4269 1 5.12176 30.0455 -9.61795 -0.866832 -1.03527 4.38458
4270 1 6.45954 32.3697 -8.87575 -2.27226 3.25284 -2.12971
4271 1 8.88181 32.0112 -10.4015 -0.213378 3.73931 -0.148266
4272 1 10.0898 29.7529 -9.98365 -0.151533 -2.71069 -0.924966
4273 1 5.72976 29.6083 2.10473 3.52674 -1.07209 -1.10669
4274 1 6.76872 31.8935 0.949775 0.81382 2.08799 -0.0935364
4275 1 9.38879 32.362 1.90938 0.175557 -1.14653 -2.28054
4276 1 10.6116 30.1947 0.692534 -4.40556 1.49243 -1.99876
4277 1 5.16601 30.0872 -2.67636 1.8347 5.4713 -1.82694
4278 1 6.48522 32.4723 -1.87728 0.377878 0.388026 -1.55855
4279 1 9.047 32.4505 -3.07221 -1.91394 -2.02646 5.15974
4280 1 10.6257 30.1727 -2.27648 0.902814 0.18079 2.10752
4281 1 6.07645 29.9199 9.29029 -0.25636 6.61216 -1.36482
4282 1 7.73198 32.0011 8.4574 -3.15389 0.449562 -5.35362
4283 1 10.356 32.0817 8.55913 -2.76163 1.59422 -2.59251
4284 1 11.5472 29.3313 8.14867 -2.32965 0.261611 0.955832
4285 1 5.90345 29.9324 4.83636 -1.14284 1.51743 1.25796
4286 1 7.14808 32.2813 5.79451 -6.1032 0.575631 -0.889244
4287 1 9.60585 32.2422 4.5348 0.250543 4.29247 -1.46929
4288 1 10.8832 29.7972 5.34515 -1.79602 0.419648 1.21034
4289 1 5.17461 34.5858 -5.34842 3.97786 2.07642 1.71084
4290 1 6.22213 36.9457 -6.66998 3.41577 -2.99725 -0.758576
4291 1 9.09816 37.1387 -6.07578 -1.12906 5.87458 0.969234
4292 1 9.95892 34.7519 -7.11772 -6.17697 -3.64338 0.209235
4293 1 4.76232 34.2927 -9.95286 -6.06352 1.07882 4.24935
4294 1 5.88951 36.9488 -9.37091 -1.82062 -5.03897 0.0796648
4295 1 8.5647 36.8549 -10.4044 -1.67932 -2.76548 0.362617
4296 1 9.80953 34.5305 -9.84324 -3.05171 -4.27075 -2.87095
4297 1 5.58742 34.3605 1.92905 1.46921 1.64698 3.79433
4298 1 6.87964 36.8397 0.908962 -0.474803 3.43317 2.49485
4299 1 9.68368 37.0075 1.56044 2.60265 -0.655187 -2.65849
4300 1 10.6098 34.8164 0.26239 -0.51174 3.87713 1.04403
4301 1 4.81922 34.6522 -2.6545 4.71632 1.71428 2.20071
4302 1 6.51596 36.7926 -1.81785 1.60233 1.11367 -1.33399
4303 1 8.71956 37.0411 -3.35399 2.09511 -3.67562 2.59494
4304 1 10.2318 34.6935 -2.43216 1.0207 -2.79011 -2.38283
4305 1 6.68385 34.4527 9.45514 1.51197 -1.7773 4.62756
4306 1 7.58347 36.7388 8.38794 -1.39725 -5.55769 -2.11979
4307 1 10.4297 36.5529 9.01622 3.30486 -2.99837 -0.255515
4308 1 11.6291 34.3538 7.88235 -2.21563 2.06414 -0.0339623
4309 1 6.05073 34.6127 4.64635 -0.684946 0.830902 3.20832
4310 1 7.39383 36.7795 5.58849 -0.349379 0.824742 1.56855
4311 1 9.89656 36.7499 4.39 -2.91945 -2.45265 1.32501
4312 1 11.2202 34.5176 5.12276 -1.05659 2.54401 4.00858
4313 1 4.8437 39.0621 -5.4217 -0.508242 -4.77492 4.56175
4314 1 6.30664 41.3607 -6.40393 -3.76702 3.05628 0.997489
4315 1 9.07695 41.5087 -6.00695 -1.10449 -3.12237 -5.45482
4316 1 10.0755 39.4399 -7.3166 -0.00541642 1.11584 0.548096
4317 1 4.22039 39.1483 -9.61868 3.73526 0.783313 3.55756
4318 1 5.6878 41.4686 -9.10874 -1.14491 3.81923 -2.99939
4319 1 7.99258 41.3509 -10.3629 7.28025 8.27561 5.27471
4320 1 9.76934 39.3706 -10.1272 1.05149 -0.509296 0.837244
4321 1 5.62063 39.0064 2.10625 0.395278 1.38637 2.22787
4322 1 6.76796 41.6116 0.768245 6.35293 0.991773 -0.590054
4323 1 9.36917 41.6417 1.6772 -2.40862 1.06586 -5.53785
4324 1 10.4674 39.319 0.41464 1.77755 1.06709 0.678906
4325 1 5.18255 39.1797 -2.50282 -0.798537 -1.01417 2.98543
4326 1 6.77812 41.4634 -1.98172 -3.25279 3.33336 0.62435
4327 1 9.28018 41.7546 -3.27016 -0.25221 2.25116 -1.83983
4328 1 9.92973 39.212 -2.34757 -2.92123 -2.94988 -1.02276
4329 1 6.59157 39.3234 9.00368 4.96072 -1.44954 0.876235
4330 1 7.90072 41.5987 8.4222 -0.29807 -1.41048 -5.70298
4331 1 10.6157 41.3157 8.99963 -1.84699 -0.0113783 -2.05187
4332 1 11.4737 38.9556 8.08497 4.85799 -0.590995 -4.73913
4333 1 5.87028 39.0749 4.96759 -1.40321 2.10094 -5.56135
4334 1 7.28653 41.3545 5.7104 0.00391287 3.90307 -3.38092
4335 1 9.81396 41.557 4.24345 -3.24985 -5.59252 0.867805
4336 1 10.9034 39.2169 5.32247 -2.48576 -2.56882 -0.568979
4337 1 5.04816 43.7362 -5.47056 4.87461 4.19767 1.65099
4338 1 6.86958 46.0347 -5.73351 -0.879277 -1.48426 3.37896
4339 1 9.62912 45.9597 -5.89786 4.73318 -8.15407 -5.43835
4340 1 10.4301 43.6603 -7.38039 2.22565 3.67569 5.75475
4341 1 4.53292 43.5203 -10.3287 0.946582 0.252422 -1.71514
4342 1 5.84466 45.2976 -11.8171 0.629367 0.0787717 0.878906
4343 1 8.37349 45.6807 -11.3867 -3.39896 -3.69073 -7.17721
4344 1 9.64536 43.5925 -10.0367 -1.79745 -3.23666 0.718377
4345 1 5.40252 43.9218 1.93135 2.78213 1.95635 0.00430867
4346 1 6.28472 46.5152 1.29541 -4.26218 -6.16093 -3.36214
4347 1 8.96561 46.3958 1.38804 -1.12192 5.09244 3.06331
4348 1 10.2794 43.9501 0.752808 5.65389 0.283544 -1.31178
4349 1 5.19934 43.5671 -2.66522 2.3506 -1.1252 -2.01697
4350 1 6.86484 45.5983 -2.81941 -3.95295 1.9412 -2.9389
4351 1 9.71033 46.3243 -3.14281 0.5909 -4.54628 -2.49577
4352 1 10.6725 43.7822 -1.91254 2.7407 -1.08578 3.13274
4353 1 6.80426 44.1439 9.01067 -1.28542 3.29147 -2.4359
4354 1 7.59908 46.7281 7.87397 -2.50019 -2.33109 -4.7976
4355 1 9.92868 46.1001 9.54425 -3.35612 -2.42077 0.537308
4356 1 10.744 43.8422 8.0559 -2.9392 -3.05842 2.32478
4357 1 5.75485 43.5868 4.67416 -0.374869 0.403341 0.295431
4358 1 7.00069 46.0483 5.1282 -1.59587 -1.94951 -2.70682
4359 1 9.5337 46.1207 4.28766 4.45836 2.17552 3.45573
4360 1 11.053 43.9417 5.15747 -1.47615 0.00533037 3.15732
