ITEM: TIMESTEP
8800
ITEM: NUMBER OF ATOMS
4360
ITEM: BOX BOUNDS pp pp pp
-2.4280147384680824e+01 2.3470983284742303e+01
-2.4311501843292064e+01 4.6827937443292058e+01
-2.3879665203188218e+01 2.3871463603249595e+01
ITEM: ATOMS id type x y z vx vy vz
1 1 22.3239 -21.4956 11.9029 -2.96676 1.17668 1.44098
2 1 -7.35927 16.1367 2.50967 -1.72997 -5.75891 -1.74392
3 1 2.96897 -4.74741 -23.4284 -1.67993 0.047581 -2.23888
4 1 4.86153 -1.54682 -6.93317 -3.07669 4.12777 2.27757
5 1 -17.6091 -22.5512 21.0902 0.37988 5.51121 -4.82915
6 1 1.01561 18.1061 19.9294 0.569526 2.76836 -0.950575
7 1 7.5375 21.7714 6.17214 2.15127 2.76764 -0.929801
8 1 -23.1259 -11.9476 -15.0992 -2.44919 1.71125 -0.44
9 1 -9.72763 6.60452 4.44786 3.84227 3.84575 0.272108
10 1 -1.88599 -8.86692 15.5045 -1.28366 2.55674 -5.33429
11 1 11.2209 -9.94681 18.45 -1.97267 -1.79729 -2.47133
12 1 21.3105 -7.67292 -23.0905 3.002 1.689 -2.02754
13 1 -21.4031 -13.059 12.6229 -4.80812 -2.02537 1.90122
14 1 6.67603 1.93625 -9.75342 1.68577 -2.27459 3.23356
15 1 -5.82888 0.889178 -12.1888 -1.37195 -0.695452 3.77912
16 1 -18.1253 1.84688 4.49679 -1.48561 3.97778 3.98814
17 1 17.8637 -5.17002 16.9486 0.445214 1.45334 4.54853
18 1 21.3914 24.7115 3.08528 -2.55201 -6.6526 2.65757
19 1 -13.9178 25.1054 18.6883 -1.65788 1.61075 -0.84125
20 1 20.1255 3.65461 20.0766 4.20617 1.63966 0.849725
21 1 -19.9492 2.70688 9.72006 -3.37203 -1.86227 2.9962
22 1 -14.7464 -1.22012 -14.337 4.63059 3.03227 0.976315
23 1 -8.40689 45.8619 20.4887 -4.95915 -0.413152 2.26909
24 1 9.97629 18.8603 -4.96239 -2.49175 4.42982 -3.15218
25 1 6.25967 26.2726 16.648 4.02612 -0.425989 -2.89377
26 1 2.32068 17.7144 9.65614 3.01949 -2.67104 1.90504
27 1 -16.4059 11.4393 -2.68267 0.779595 -3.24718 4.62598
28 1 -19.7813 10.4362 2.61329 -3.05273 -0.946121 -0.411937
29 1 -10.5501 -10.3123 -9.20938 1.99992 -0.973096 1.15979
30 1 22.0111 -3.08238 -22.6662 1.62952 -0.160584 2.47339
31 1 0.962482 -15.626 23.6626 5.29582 2.99206 0.638417
32 1 -8.12054 15.246 -17.0861 -0.852281 -0.96602 -0.23125
33 1 2.77486 0.322412 -13.2647 2.72118 0.39347 -4.83304
34 1 -18.5286 -24.1316 14.6724 -4.22768 5.72351 0.393596
35 1 18.3275 5.01435 11.8124 -0.660527 0.863689 2.68201
36 1 -13.754 18.276 -13.998 3.32962 0.0652351 1.47993
37 1 -10.7867 -6.59985 -1.40467 0.620235 -5.30616 -2.49555
38 1 18.3402 9.80488 8.69801 0.958125 3.50032 -0.582392
39 1 -3.38413 8.29838 -21.2215 -1.48798 0.0771235 -1.61351
40 1 -3.14266 4.08846 -15.6701 1.49052 -0.615208 -2.60635
41 1 4.29112 -4.84541 -10.0483 2.85757 -2.09908 1.23779
42 1 -18.486 -14.9441 1.13795 -3.02965 -2.62142 -3.17051
43 1 -13.5048 -5.18911 4.73715 1.04473 -4.95301 -2.96219
44 1 -2.45887 -17.9488 -10.2139 3.47753 5.55056 0.602028
45 1 -11.5811 17.339 -5.09776 -0.0372545 2.14168 7.27964
46 1 -20.7299 -20.7502 18.5006 -4.73869 -0.762254 1.20455
47 1 -7.5567 7.48602 19.9553 -2.19476 -1.21902 -1.61546
48 1 8.29911 2.59742 -7.345 -1.9839 2.36549 -1.69852
49 1 22.1599 11.6536 6.57534 -1.25086 0.455278 -8.47367
50 1 16.506 -21.7164 11.5585 -0.563349 6.48722 1.05653
51 1 -10.664 -0.281863 22.9745 -0.960738 -2.91542 1.28332
52 1 17.4819 2.56433 -15.1589 4.17264 2.45672 5.29271
53 1 -4.4868 21.9664 8.34468 0.684554 0.737114 2.74022
54 1 -19.7431 -9.55301 -10.3257 5.50721 -0.535099 1.09162
55 1 -5.09216 -4.96725 -16.0329 -0.882303 -0.29188 -0.186241
56 1 -14.0519 6.04399 2.54981 1.9381 0.892061 -2.53844
57 1 -15.5763 -10.2321 -2.36137 3.12915 2.90007 -2.16259
58 1 5.72826 -20.3686 -4.0422 -1.05332 2.34657 -2.02951
59 1 -22.999 13.6625 18.2537 1.65121 0.789377 0.227627
60 1 2.11334 14.5425 -20.0355 1.8099 -0.139169 -3.28285
61 1 -15.8427 1.19717 1.42371 -2.82847 0.456587 3.02344
62 1 -4.04547 -10.0762 17.0425 -1.59442 -1.54524 2.79125
63 1 1.46211 11.2805 -16.8725 -0.228686 -5.12 -0.0706567
64 1 -11.9759 1.41285 1.68755 -3.41565 -2.53077 -3.00892
65 1 18.5855 -0.734126 8.57954 4.90927 0.296143 2.72635
66 1 -9.13679 -16.8084 -11.9133 0.196713 3.04263 3.53496
67 1 -14.9918 23.0601 -10.8218 3.06808 -3.84403 2.58117
68 1 -2.8025 14.7933 -20.0514 0.562821 1.63412 -0.566324
69 1 -5.44534 14.0217 8.63804 3.22874 0.849964 -0.73015
70 1 -17.7966 17.1117 -15.2033 3.90239 -3.97104 -0.0714462
71 1 -10.0969 5.66299 -0.124739 1.29593 -1.32897 4.31545
72 1 22.7589 15.7784 18.1959 3.18583 -1.87363 3.29154
73 1 -11.6223 -17.8859 13.508 -1.83464 6.66231 1.57397
74 1 -0.895474 10.9074 -15.2012 -0.0192594 0.206075 -3.39507
75 1 -19.3587 1.47079 -10.8704 0.311481 -4.79836 2.40779
76 1 22.5617 -7.38071 1.76515 2.59901 3.40155 0.894784
77 1 14.2556 -22.5718 -2.21974 3.23867 -2.58499 -0.272852
78 1 -16.7551 13.4407 -8.5686 2.21843 -0.00337884 -2.53145
79 1 21.8246 -1.61078 -15.5708 3.12609 5.11486 4.33657
80 1 -14.6443 17.1867 -10.125 -3.22148 -7.40149 -0.150179
81 1 1.34174 -15.1357 -16.6737 2.55714 0.782852 -0.340341
82 1 4.62418 -22.8354 5.19122 -0.132954 2.47294 1.48734
83 1 -20.401 14.4062 0.202629 3.39926 -1.51863 1.39412
84 1 18.7595 22.3168 20.8715 3.66951 -4.43584 -1.33729
85 1 6.29262 12.2283 -5.14483 -1.39275 -2.751 -0.995124
86 1 12.979 8.43797 13.3647 2.28628 -0.0700227 -3.88786
87 1 -4.17737 19.0304 -4.60736 -5.53127 0.851526 1.74381
88 1 -11.211 23.306 -17.2054 5.88975 -2.94685 -0.960835
89 1 -10.3259 -4.14003 -23.5237 1.67157 -4.21699 -2.77944
90 1 8.01116 -5.07611 6.96708 4.77478 -4.87715 -1.09297
91 1 16.6037 20.9264 -19.3435 -4.62279 -4.23578 3.07465
92 1 18.1657 45.1249 -0.214671 3.57193 -5.16346 -1.08481
93 1 -17.917 -23.8209 17.4503 1.27916 0.520567 -0.410395
94 1 23.1324 2.82398 -11.066 2.40152 -0.439951 -1.23069
95 1 -1.67751 -3.22241 -11.8822 1.76495 -1.67752 -1.80316
96 1 -21.3482 -17.3908 20.8316 0.449317 -6.27605 -5.74948
97 1 -7.43643 -17.1912 22.0073 0.494916 -3.51119 1.22621
98 1 -1.12159 17.2226 10.1611 1.90754 4.44479 -1.02684
99 1 17.1617 -23.0682 -5.34517 -2.91263 0.93911 0.114296
100 1 23.0659 -17.0147 -23.4674 0.301693 -2.94927 -0.124183
101 1 2.81586 -23.764 -14.3159 -2.66921 -2.53969 6.7159
102 1 3.12078 3.73937 6.28392 -3.55712 -2.38312 -5.87586
103 1 18.0247 23.3077 17.9927 -0.0613833 -0.63324 9.20956
104 1 -16.0469 45.7811 -10.0463 -2.34451 -0.767057 2.15515
105 1 5.45495 17.9454 -19.605 1.82653 -3.26996 5.88869
106 1 13.2965 3.85264 7.46087 0.184161 -2.05372 -2.40052
107 1 21.1229 -4.38379 11.6335 0.873299 2.725 1.35285
108 1 -12.4826 3.57777 -23.0726 1.32792 0.565689 -1.52548
109 1 -14.2479 15.4727 -13.1678 1.91948 0.114348 1.32574
110 1 11.3767 -10.9508 -7.94458 1.47389 -2.30983 0.62318
111 1 19.6118 -4.39363 -12.9423 2.80895 -1.1071 0.859469
112 1 -19.1099 2.418 -21.6844 1.25693 -0.608012 -0.621578
113 1 -5.37832 -4.7941 19.4465 -2.35658 2.1494 -2.68606
114 1 23.2028 -19.8277 17.7224 -0.481401 -2.0814 -2.84262
115 1 8.07054 9.90449 4.99964 2.05352 0.523167 4.52241
116 1 3.23539 -14.5143 -18.6978 6.15818 -1.46223 -1.6336
117 1 18.8891 16.082 -17.2546 1.23032 -0.553977 0.964862
118 1 7.58112 -18.3749 -8.61954 3.68953 -0.928397 0.914538
119 1 14.2618 9.62299 -8.51462 1.37642 2.23431 1.35158
120 1 1.57387 -5.81409 16.7459 -3.53521 -2.61251 1.28236
121 1 -6.33446 -20.0697 21.8854 -1.3938 -6.46109 1.15298
122 1 -10.803 6.5643 22.7337 2.31404 1.93077 5.98487
123 1 9.85519 16.9632 4.58223 3.94639 -0.00269646 -0.567038
124 1 22.8049 -22.4275 -16.0973 -2.66016 -1.31228 2.26681
125 1 13.253 10.3857 0.410991 1.30724 2.2245 -2.21504
126 1 -10.3955 2.64334 -7.33022 -5.80182 1.28651 2.6037
127 1 11.0088 -1.93697 14.5323 -1.66994 1.27058 -1.9498
128 1 -22.5999 -1.50222 -9.74384 -2.3248 1.03672 -3.39323
129 1 14.1979 -10.3527 6.05835 -2.13782 -1.53628 4.96495
130 1 -12.4057 16.0407 -19.104 0.0980381 5.56936 -0.641686
131 1 4.67488 -8.49726 -21.0168 -5.46221 -3.61225 1.28103
132 1 -8.6617 -2.41113 -19.9366 4.57796 -3.33804 -4.86505
133 1 -13.1472 1.37837 16.1619 -3.3522 -2.67482 1.4202
134 1 18.8451 -9.60404 20.8232 -0.0454584 1.66303 -3.32461
135 1 -16.3842 -6.03848 -17.046 3.87792 3.31098 1.90102
136 1 -1.86278 5.49922 -4.64319 0.0440706 0.010754 -0.995735
137 1 -12.3967 2.72097 -12.8245 -4.4856 -4.4462 1.21433
138 1 10.4657 19.6265 8.36782 -0.300397 1.7473 1.541
139 1 -18.6397 -21.9438 -14.8226 -2.93021 0.0842888 4.70164
140 1 4.51746 -7.48286 18.9485 -5.48142 -1.19552 3.60489
141 1 12.495 -18.2963 2.54744 2.40059 -1.07501 -2.38453
142 1 12.5805 3.47166 23.5059 -1.68939 -3.08822 4.3162
143 1 -6.79333 -2.68175 -4.92296 3.10026 -3.64808 -1.20002
144 1 -22.6429 -9.41207 -16.0289 -4.82696 -2.45773 -3.51074
145 1 16.2376 6.34341 18.1675 -2.47669 -0.198679 0.257156
146 1 -11.2475 -8.87258 14.3078 -2.48028 -0.0551616 0.670723
147 1 12.0966 22.5076 4.71751 -4.90473 2.1334 4.07065
148 1 -18.0335 15.1568 11.6761 1.1334 -0.869287 4.79716
149 1 -17.0172 45.3495 -20.9614 0.998173 3.47883 0.203568
150 1 19.0413 8.86665 19.9942 4.71846 -0.439509 -3.1452
151 1 20.1112 2.38923 22.6754 -1.62917 -10.246 -6.20648
152 1 -7.87838 0.284943 19.8681 3.47329 -1.05932 5.84641
153 1 8.90812 -14.6838 -4.48133 1.0919 2.83564 -1.42207
154 1 -7.77483 22.4457 -8.85369 -1.34871 -2.32833 -0.785614
155 1 -23.4963 -22.5889 -20.5436 -2.83391 0.702721 5.7481
156 1 16.5361 10.3328 16.9987 -3.4251 3.5955 0.3019
157 1 13.9631 -13.2806 -15.9302 -1.76167 1.20514 2.50531
158 1 9.12771 6.70667 4.03242 -3.08445 -0.721243 0.113348
159 1 -22.0819 -10.2232 12.8238 -3.56725 2.60199 3.16328
160 1 -6.49352 -15.5311 -4.09614 0.52674 1.51183 5.28073
161 1 19.0026 4.41165 -16.839 -2.6352 -2.46219 -0.795109
162 1 -17.1059 -8.64864 20.2297 -1.63401 -3.46076 -1.7801
163 1 1.32424 2.09184 19.9153 1.59395 -1.48398 -1.04554
164 1 16.5331 7.70353 12.5428 1.71127 0.343605 1.45445
165 1 -18.6265 13.1788 17.0968 0.544812 4.06934 3.28391
166 1 8.73041 21.5993 -22.3124 3.61533 2.51424 0.675587
167 1 -12.3033 -0.0442086 -3.03067 3.89042 -0.0428137 -5.62313
168 1 19.7611 25.6109 -2.97938 3.38295 -1.76745 3.3702
169 1 5.70982 23.4131 -12.5253 -2.97908 1.97831 -3.11631
170 1 -4.69538 -19.5658 -14.0201 0.700384 -4.88204 -2.20541
171 1 -13.9357 3.95599 14.9879 4.40657 -1.72133 9.22381
172 1 -18.0619 21.7344 -18.8083 -5.54024 -0.661133 -0.558919
173 1 -21.8342 0.788189 22.1005 -0.443849 4.80961 -6.65827
174 1 -19.2549 6.87066 -22.3695 -1.06362 0.00950185 4.34779
175 1 11.0191 16.7372 7.29767 -0.174038 -1.70176 -5.14298
176 1 -5.20105 22.9262 -2.80466 -0.701389 3.8031 2.05339
177 1 -3.98541 -22.2804 10.4615 -1.91301 1.7189 -0.61776
178 1 -17.0579 11.2465 6.5768 -5.87467 -4.45216 2.56857
179 1 -4.71279 -6.41381 -10.2589 -3.73625 1.19336 0.943607
180 1 22.4757 20.3062 10.9042 -3.66543 3.38626 2.38924
181 1 -4.68917 -6.26856 -18.9459 -0.680611 -3.58085 -5.20064
182 1 -22.2692 -0.990167 16.5041 0.520708 2.27012 0.406503
183 1 21.3741 13.8194 -3.8227 -3.1731 2.89866 3.66968
184 1 6.34841 -23.4939 -23.3701 -3.51418 1.9843 2.98429
185 1 21.7789 24.4138 15.8334 -0.487517 -4.34099 -1.16726
186 1 14.6641 23.1549 -9.77409 -1.6167 0.788825 3.41163
187 1 -11.8129 11.1075 -7.53819 7.74022 1.60762 3.47837
188 1 7.20775 -21.7855 -7.1764 -0.0298194 1.77993 1.44766
189 1 -2.97858 -3.6353 3.17834 -2.88117 -0.732757 -3.79575
190 1 -15.4322 11.4967 -13.6763 -1.05418 -0.359243 -3.68113
191 1 5.3873 -3.66941 -22.0703 -4.09651 -2.15628 -0.711097
192 1 8.5555 5.08625 -3.16757 0.276033 4.52671 2.12521
193 1 11.191 -1.77501 2.90237 6.60087 0.820047 2.23926
194 1 1.01831 26.3877 -20.2721 2.42329 -1.66937 0.353111
195 1 5.02824 -0.229422 -9.53699 -1.33962 -4.65911 1.77584
196 1 -18.858 24.4495 7.36167 0.635022 0.724084 -0.0705031
197 1 -23.7389 -3.57251 22.7519 -0.906027 -0.241929 -2.65204
198 1 -8.30467 -22.5779 -18.6064 -1.72979 -2.24124 -5.52356
199 1 -24.0084 -3.96589 -15.7053 3.19976 2.1772 -0.0635987
200 1 16.0421 6.74961 -16.9192 0.56812 -1.77567 0.926447
201 1 7.37735 2.5314 23.4069 -0.8317 -4.31749 -1.67833
202 1 10.8238 14.7462 10.0408 -3.67503 -0.793541 0.64809
203 1 -23.8993 20.0942 8.04275 2.39691 3.11749 4.04335
204 1 -7.11975 -14.6073 -8.92508 6.62221 -0.908811 -0.694139
205 1 18.3767 -6.35988 9.66017 3.39298 2.04749 2.35773
206 1 -3.91599 -12.5658 -14.5655 -2.75726 4.72577 -4.6046
207 1 -5.99032 10.0049 23.6534 -3.00373 -3.24318 -1.55639
208 1 2.81586 -8.40599 15.8789 -5.50565 3.06892 -4.81079
209 1 -5.33044 17.5271 -16.9352 2.1586 3.69341 0.519646
210 1 -18.4077 13.0695 -1.55226 -5.72196 1.45666 1.89075
211 1 15.7984 2.59671 6.66502 -4.22787 0.337312 5.84348
212 1 -16.4751 24.5454 -4.24819 1.54101 1.01157 1.00475
213 1 -22.6362 -21.9025 -2.02855 0.31694 2.28757 4.27173
214 1 17.4025 -4.45496 -21.9554 -2.99714 0.371068 1.46396
215 1 7.09293 23.4692 16.7362 -0.237147 1.40504 -0.0583945
216 1 -16.2594 46.3529 9.58942 0.694522 0.369748 2.91186
217 1 2.61037 21.4707 5.88617 1.2141 -2.19847 -5.8612
218 1 14.1616 2.98157 -3.30084 3.86655 0.0516211 -2.48101
219 1 -5.81864 24.132 22.8539 1.11895 2.53547 0.774834
220 1 2.6225 22.1073 15.1404 5.93478 3.30533 -0.473178
221 1 -17.6068 1.83088 -1.97218 3.49809 0.953604 -0.276306
222 1 -10.2069 -5.98412 1.43608 3.6423 0.314771 -2.87596
223 1 -23.4727 -5.30824 0.887153 0.752266 -4.08628 -0.0648186
224 1 -14.4171 -3.84954 -22.2928 3.0803 -0.437015 2.67842
225 1 1.5714 -13.199 -6.23093 2.07143 3.60282 0.53017
226 1 -23.9717 19.0277 -12.7235 3.32907 0.251293 1.43353
227 1 15.5189 16.6791 3.31241 2.26745 -2.48625 -3.0614
228 1 -11.1174 19.5854 1.68964 -1.72509 2.5017 4.49532
229 1 11.2281 9.22956 -10.9704 -0.746906 1.70447 -2.63789
230 1 -9.35505 14.9093 19.6781 2.55064 -3.99295 -0.145934
231 1 -23.2039 -4.61454 -21.5889 1.91862 2.74804 0.621805
232 1 -2.62011 -14.4815 11.3185 4.88365 -0.0913418 0.0793052
233 1 -10.0005 16.8785 11.9439 -0.555725 -6.14016 3.46474
234 1 -6.63668 18.3956 9.21015 4.39323 0.0940852 -4.16028
235 1 22.8213 -2.94099 -10.2412 3.81488 1.11661 0.329738
236 1 16.3896 -7.39311 11.6048 -0.629735 -0.738137 -2.65853
237 1 -18.3254 20.2577 0.425344 0.759853 2.29648 -7.50665
238 1 17.4871 -2.24086 -23.8239 1.60632 -3.31192 1.19626
239 1 -20.5074 19.171 16.4938 -3.0594 -2.6862 -1.19757
240 1 11.7973 0.35245 16.3511 -0.636066 -0.372494 -3.11997
241 1 23.3544 -12.6237 9.67545 0.773968 0.178343 3.52572
242 1 -8.4864 -3.81205 -13.8469 -3.16955 -0.110991 -2.81193
243 1 -6.68284 -7.6238 11.1209 0.723277 -5.1289 -1.57456
244 1 -20.4651 13.834 23.7847 0.721622 3.43862 1.37136
245 1 -12.5387 25.7868 -12.5497 0.547023 1.31229 -1.48443
246 1 11.3139 4.47552 20.8925 2.88182 -2.33137 -3.98548
247 1 -24.1294 -7.00749 14.1037 -3.06674 3.37702 -1.56603
248 1 -17.4987 10.1753 -11.7796 -0.00386892 -0.491713 4.32664
249 1 -0.71102 -18.9563 10.4324 1.9486 7.38369 -2.89793
250 1 -0.0976368 -2.00675 6.90944 0.577315 -4.05576 -1.43563
251 1 -22.0077 -2.00675 -20.9685 2.06722 -1.6682 -0.712197
252 1 17.4298 17.1513 -11.3489 -3.83235 5.58157 -2.19837
253 1 0.773932 -3.00766 -22.9775 3.03617 1.14407 1.79004
254 1 6.66378 -10.6093 -9.3849 4.32406 3.20533 4.33361
255 1 -23.5184 -22.457 9.74093 -3.46725 -1.3251 -2.53967
256 1 -11.7082 -5.89026 -11.6012 -2.33526 3.07622 -1.86763
257 1 -2.01724 3.62027 -18.4949 -0.0259705 -2.23885 -3.59098
258 1 -7.06806 0.233295 -5.39408 -5.80515 -0.879941 -2.96096
259 1 15.2797 -19.1894 -22.4378 -0.958032 5.79884 4.84869
260 1 11.5945 4.88822 -7.9792 -1.52968 -3.64417 3.19569
261 1 -1.78129 -23.7216 11.8095 -0.0420917 4.85949 1.45915
262 1 17.103 22.108 10.5602 -1.55942 3.2067 -5.13679
263 1 -20.3886 8.81593 -11.1958 2.28922 -2.17911 2.0691
264 1 16.8356 0.894137 13.8467 -3.29105 4.39467 -3.8481
265 1 15.6807 -18.9442 -9.09594 -1.10888 -3.7492 1.10381
266 1 22.0472 6.16177 -16.3569 1.57262 -1.12862 -4.23815
267 1 -10.6893 19.5049 -11.1201 1.52552 -1.74502 3.2065
268 1 -20.8474 22.8131 -10.695 2.89887 1.82023 2.47703
269 1 -19.4975 -8.5305 -13.1255 -1.17758 3.88273 0.273005
270 1 -22.2291 -17.9273 14.3299 -2.76546 3.20088 -0.785393
271 1 2.65505 23.3606 -12.2898 5.58977 -0.888429 -4.59971
272 1 12.8939 -18.2562 10.7191 -5.37063 -0.55913 -0.729618
273 1 -18.462 -8.63886 13.9613 -4.5083 -0.209914 3.52112
274 1 10.4641 -14.9505 10.0115 0.896616 4.41913 3.65247
275 1 12.763 25.4181 -22.2381 3.24744 2.83102 5.51969
276 1 22.0105 7.25468 -5.88567 2.27918 0.928155 1.02643
277 1 10.8465 -14.1566 -17.8908 0.527109 0.479546 -2.23734
278 1 19.6656 10.4093 17.6073 4.04802 8.36022 2.61776
279 1 -22.9775 -1.66112 1.86258 1.62009 0.690909 -0.989605
280 1 -1.42077 -22.1197 -14.8018 -0.343491 -2.77632 -5.44548
281 1 13.3493 24.0971 11.1709 0.266651 -1.2029 -3.78975
282 1 11.0987 12.2736 11.4896 2.75439 -2.68251 4.68106
283 1 -3.47446 46.4217 -23.2349 1.35409 0.685198 -2.98867
284 1 3.10615 13.4637 1.2826 -0.440588 0.555233 2.01182
285 1 -13.4469 20.2987 13.4099 -0.484045 1.44427 1.44152
286 1 -5.46804 16.8609 0.672795 4.80656 -1.45899 3.54012
287 1 2.17211 -8.22873 -7.5741 -0.78791 -0.980073 -1.90654
288 1 15.8616 24.8128 5.34393 2.60495 -1.3566 -5.14825
289 1 -8.97972 -21.587 11.2373 -3.20948 1.68909 0.080211
290 1 -8.59104 -10.1409 -16.4227 -2.92587 -3.42023 -3.5317
291 1 -14.4355 -16.9715 12.7794 1.53687 0.907913 0.606013
292 1 14.2548 7.91964 0.596677 -0.00560611 -2.72006 -0.34505
293 1 13.2404 2.16553 10.8638 -6.29811 0.345155 0.638007
294 1 -7.15298 1.5513 0.854345 -0.689095 0.822156 1.7076
295 1 0.758579 9.48101 9.89191 1.78929 -1.73632 -1.62676
296 1 1.32799 13.6734 -2.45795 -0.525792 -2.55069 3.44801
297 1 14.9602 -4.081 -4.7285 2.4951 1.21289 5.57115
298 1 18.0737 -18.4094 -22.566 -1.77315 0.960492 2.59936
299 1 5.89136 46.1928 -16.3652 -1.22323 3.45552 -0.682816
300 1 20.2915 -4.53928 20.847 -1.66994 -3.65379 0.0597292
301 1 -6.5611 23.392 -19.2093 -2.9209 -1.65582 0.295184
302 1 -1.34476 11.1923 -1.76382 0.297592 -3.88818 6.52147
303 1 -18.731 -17.2143 -9.62956 6.47663 2.09267 5.30533
304 1 -20.057 -16.3709 12.6352 -4.29051 2.08972 -2.64123
305 1 4.0626 -17.2432 19.5163 0.262403 -0.0375064 0.379764
306 1 13.6826 20.8279 -11.0404 -1.74836 -1.7836 -4.84615
307 1 12.5437 13.2406 -22.8463 -0.26774 2.32284 -1.04962
308 1 -15.5098 -19.7953 2.30689 -4.82193 1.4413 -0.831307
309 1 5.10947 -20.1812 18.9809 -3.02733 1.06806 -0.0185872
310 1 2.02311 14.6311 14.0218 2.58595 1.02302 -2.43546
311 1 12.6291 -10.7214 1.15954 4.0966 -0.376871 -0.954476
312 1 -6.81335 1.90316 -9.44566 -2.25618 -3.29779 -0.658982
313 1 -16.0553 -17.001 -8.52984 5.26005 0.375878 -1.60884
314 1 -16.5326 5.50163 -6.82787 4.34257 1.17453 -1.28379
315 1 -14.6092 -22.4681 1.40782 -2.09738 -0.846957 1.74141
316 1 22.9134 -7.38426 4.58396 1.45342 0.185419 -1.1775
317 1 -11.5022 -11.6702 -23.7315 -3.63418 -2.16297 2.91708
318 1 18.6114 -21.3566 19.1542 3.07559 0.559647 -4.26033
319 1 -12.6671 3.02006 12.5965 0.116343 1.07836 -1.30484
320 1 -1.36895 0.906534 8.5256 0.0895635 0.330342 1.47318
321 1 -17.8566 -11.6932 -12.8513 5.04058 -0.192034 0.56679
322 1 -11.7853 14.0101 -0.87441 -1.16424 -2.70797 1.46368
323 1 -13.663 4.79667 5.26296 -1.38005 1.78298 -3.58001
324 1 21.8974 1.0339 2.3141 -1.37455 -2.07867 -2.32029
325 1 -0.688097 -21.33 17.2284 1.47042 -1.41537 2.22898
326 1 -18.4587 7.95159 2.35046 4.33259 -2.43657 4.39453
327 1 -8.47478 -8.61971 20.6707 -3.16823 -1.50718 0.816534
328 1 10.7628 21.9873 14.6276 -0.773684 5.26488 2.14
329 1 -0.112815 2.39059 -10.3708 -1.54315 1.25006 1.55452
330 1 -11.8002 -23.1732 21.5109 -4.32267 1.45534 0.11089
331 1 13.6524 7.42016 3.54618 -3.22456 -2.69065 1.53301
332 1 7.53645 -2.53434 -7.61627 0.129868 1.09198 2.43983
333 1 7.37618 -11.1068 -14.1231 -0.815718 5.09844 0.819489
334 1 4.7206 -23.4763 -2.77307 6.37928 3.21851 1.73687
335 1 -24.2333 46.5833 5.44778 -3.2574 -0.575159 -3.28806
336 1 18.4086 17.81 -21.4584 -2.66982 3.86293 2.18555
337 1 -19.665 20.0281 2.71073 0.0982595 2.18749 -1.09203
338 1 7.62201 -8.34553 15.0824 -0.442877 -1.37624 1.53515
339 1 -3.12526 -19.7669 -23.8532 1.97384 -0.0122923 -1.68827
340 1 -15.6289 1.32223 -17.4522 3.82006 5.59681 -3.50713
341 1 -12.4809 1.76668 -10.112 -1.69674 1.1755 -5.60265
342 1 0.0691122 -17.1799 -13.6269 -5.01911 -0.100529 -2.74082
343 1 -3.35367 -14.3484 -7.74228 -4.32864 0.214979 -2.79305
344 1 10.0822 -18.7183 -11.2143 -0.558852 -2.40495 -0.574268
345 1 -10.5101 -0.462592 19.9809 1.4899 0.179327 1.83109
346 1 16.247 4.20051 4.29509 3.10797 1.71449 1.24564
347 1 20.6004 -8.65504 7.57623 1.11449 -4.0128 1.21257
348 1 -12.6593 -1.35528 9.9222 0.902738 -1.76254 2.04819
349 1 -4.14304 13.0614 -23.7356 3.3239 -0.219288 -3.54081
350 1 -23.2004 20.8185 21.4632 -0.0802538 2.50321 3.5115
351 1 -14.1984 5.4609 9.19062 -1.39443 -0.161856 -4.82298
352 1 12.8831 3.73256 0.623755 -2.7539 1.36703 2.92045
353 1 19.0414 -23.6067 -15.7726 -1.09422 4.10026 1.42253
354 1 7.45043 23.4514 -10.1104 -3.69358 -2.19107 -5.21195
355 1 -5.5993 0.132545 8.50776 -1.3029 -0.717185 -2.29003
356 1 -2.59317 -17.335 22.9292 0.817909 -5.48655 0.105499
357 1 -5.41124 -15.2654 2.38399 3.88576 -3.8738 -2.99231
358 1 16.9963 -14.1454 9.42193 0.351689 1.99807 -2.94094
359 1 -15.7584 -19.1071 -12.1151 0.262915 -1.32272 -1.2151
360 1 3.91119 14.6826 -1.55967 -1.90544 2.4474 -0.295318
361 1 -22.0616 -22.3446 -6.08315 -2.03285 4.53291 4.73966
362 1 -19.3912 13.0717 7.31494 2.0201 -1.61534 -0.426034
363 1 -17.7458 -19.3999 7.60607 0.697748 -0.952162 -7.37972
364 1 -9.97824 9.02169 -6.60724 1.63331 -3.46676 1.61809
365 1 0.603863 -17.0763 17.0688 3.39357 -2.90648 -0.365094
366 1 -22.1587 0.940031 -11.0971 -0.4828 -0.049464 -1.0411
367 1 4.54833 15.5138 -15.1068 -4.22755 -0.308313 1.84401
368 1 3.86036 -6.40205 12.1459 0.348688 3.18468 -2.14638
369 1 14.4639 5.88703 -14.5288 -1.60095 0.476656 -0.392161
370 1 1.26561 -12.8449 22.9948 -1.09215 -4.30818 0.416563
371 1 -11.6663 -23.5171 17.4196 0.575565 -0.881858 -2.86496
372 1 -8.08382 24.3282 8.9464 -0.817813 -2.02039 -2.7499
373 1 -15.5689 4.96171 22.7419 -1.88708 -0.99043 0.901107
374 1 -4.99894 19.7855 -12.5851 1.31215 1.45398 2.49592
375 1 -22.4479 -6.17895 23.7226 -1.47356 2.56478 1.03401
376 1 -7.03038 -10.2232 -12.1379 -1.98747 -0.273034 -2.26287
377 1 13.8826 1.03801 8.2736 -0.946409 -1.3212 -1.81857
378 1 17.6955 -14.4563 -4.43796 -2.12713 0.905153 -2.27567
379 1 22.152 23.9725 0.660112 1.00697 -3.79446 1.93206
380 1 8.94372 17.9738 -18.0597 -0.10079 -0.702462 -3.93378
381 1 -21.6889 -14.9465 14.8195 0.571642 -2.10349 0.785276
382 1 13.1412 14.9082 -3.67915 -0.558527 -0.474986 0.143686
383 1 11.9471 46.6662 6.28244 -3.64181 -0.919649 -3.07065
384 1 -9.80536 11.9118 -9.5263 -0.121686 -3.57638 -0.000326715
385 1 -6.90008 4.53314 19.2453 -2.93006 4.96766 0.242252
386 1 18.6532 -3.4807 -17.274 -0.178627 -0.935905 -3.90808
387 1 4.95487 -18.4935 -0.652263 -0.475819 0.915721 2.93657
388 1 -18.8436 -24.0853 23.372 -1.75474 -7.09767 1.92857
389 1 -13.4703 8.53618 9.23172 -1.98155 0.192311 -6.57115
390 1 11.6744 7.67396 7.2914 -3.04471 2.05998 3.20091
391 1 15.8982 -0.0488554 17.5915 0.4919 1.71182 -0.19189
392 1 20.4044 -12.1304 15.7182 0.201824 -0.258302 1.36863
393 1 -11.4573 -17.9596 -13.5828 -3.2146 0.704636 -2.95249
394 1 -11.3691 13.3459 -5.71363 1.69712 -0.654591 -3.4934
395 1 -9.43163 45.8668 17.8403 -0.315198 1.74513 -3.90563
396 1 11.0542 -21.2629 -0.620094 -2.48336 3.1589 2.53096
397 1 4.43556 -20.7349 16.0096 1.696 3.50278 1.48133
398 1 -21.8121 -23.8651 -8.89986 -6.92415 1.4284 2.47777
399 1 11.9687 13.9282 0.308514 2.8911 -1.72329 0.429626
400 1 -21.2126 -17.6183 -4.2673 0.259624 3.60225 3.30643
401 1 -23.7013 -17.9276 -5.30435 2.07518 -6.03676 -5.83156
402 1 -0.732176 8.27639 -22.5231 2.70446 2.86535 -2.87162
403 1 14.8728 -1.46991 -23.6663 -1.00947 -5.18134 -1.67661
404 1 -13.6336 0.440524 3.56565 -1.40583 -1.14331 -0.925083
405 1 5.5814 -23.9914 -7.20397 0.678885 1.19483 1.93612
406 1 -8.39775 -21.6814 -23.5356 -1.12683 0.0323354 4.75496
407 1 4.23341 -10.1349 17.8881 2.58364 -8.63508 2.11258
408 1 -2.64048 1.03626 -15.8671 0.407557 -3.38664 1.84843
409 1 0.733152 2.61574 -5.71966 3.09218 2.32605 -5.31501
410 1 -12.7836 11.1057 2.09939 -5.71367 -2.84062 -4.51514
411 1 -2.3121 -1.07256 -6.01932 1.08855 -2.24296 -5.78148
412 1 -18.0478 -4.85606 9.43619 -3.04366 3.102 2.42219
413 1 -23.5097 23.4526 -1.48093 2.0109 -6.16669 -0.112164
414 1 6.28411 17.042 -11.4003 -1.14794 -3.26419 -1.05403
415 1 -17.611 7.8134 -8.7945 -8.66799 -0.403685 1.77678
416 1 -23.948 1.35721 11.4124 -3.26855 4.33629 1.17096
417 1 -12.505 3.15761 9.39307 -0.193258 -0.720054 1.07681
418 1 21.8819 21.2669 6.07239 -1.872 3.05126 0.132801
419 1 -23.1495 3.3928 23.1255 2.07075 -1.51329 -1.00099
420 1 -2.77905 -3.18686 12.5585 1.02441 1.34432 -3.76617
421 1 -13.5269 45.2444 -17.025 -1.26489 -0.254041 -2.57184
422 1 -3.45869 19.0505 -20.7894 -5.08921 -0.838745 -4.27315
423 1 -7.66674 3.45095 3.07106 -2.09405 1.75146 -0.479686
424 1 6.298 -7.40357 -0.37869 -1.31179 -0.876013 3.38555
425 1 -21.7029 15.5273 16.4577 0.416782 -3.19756 6.0173
426 1 -16.2743 -1.94044 -9.25285 -3.97355 0.237129 -3.70768
427 1 -14.2579 -23.7265 20.5744 -1.42645 -1.84133 -4.51835
428 1 9.76501 12.3119 -8.79643 -1.44898 1.6306 -0.0918675
429 1 -9.53504 9.80632 -15.2499 -2.86198 -1.73425 3.2193
430 1 -22.7642 -1.11286 -23.7396 -0.771319 -5.93713 2.5767
431 1 5.96677 -6.73045 -14.8675 -0.212588 -1.24127 -7.72257
432 1 5.13879 -4.34101 14.1232 5.32377 1.81347 3.33711
433 1 -20.9764 2.86786 -16.7038 -2.00495 -1.88435 -1.88993
434 1 -13.1537 -3.70008 -10.5462 2.16899 2.20376 1.62788
435 1 0.188112 23.0788 6.81592 -4.89418 1.23155 -1.14897
436 1 -13.1141 -11.8355 -8.54998 0.905222 5.13868 -1.049
437 1 18.8577 18.397 -6.92928 -3.37888 2.82775 4.6014
438 1 -17.7838 6.21925 -4.03825 3.6548 3.11834 -0.54773
439 1 -3.65535 21.0737 -6.53272 5.99631 0.116576 3.73829
440 1 -8.44681 12.811 -15.1704 -3.6491 5.06409 -1.79129
441 1 19.6761 0.539678 -7.31839 -1.17049 -1.63894 -4.16104
442 1 4.46223 3.58059 14.9618 -3.25312 1.0823 3.05868
443 1 20.0857 24.8014 13.3725 0.716088 -2.65014 -7.34774
444 1 -20.9168 7.56257 -17.5731 3.3391 -0.631587 -3.73627
445 1 14.6326 -10.0706 -13.0396 2.03021 -2.93201 -0.858876
446 1 22.321 -15.7768 -5.25171 0.472059 0.31348 -0.647523
447 1 5.25409 22.4176 14.6621 6.42918 -0.308777 0.688657
448 1 -13.3122 0.208968 13.2428 -0.526693 4.10633 3.14
449 1 12.258 -6.90871 1.10886 -0.206606 -0.80992 1.47872
450 1 15.1806 -21.5031 6.24159 -4.398 1.42776 6.31237
451 1 -21.9783 -11.6085 -20.6841 1.36058 0.850156 0.259667
452 1 22.5766 14.9947 2.83484 3.51745 -4.80847 4.93533
453 1 -17.2304 17.3764 10.3988 2.20107 4.98122 -1.93178
454 1 -7.2192 -4.179 -17.9892 3.18271 -0.680015 2.04054
455 1 13.8224 -8.67343 19.1768 -1.11025 1.36926 -0.369418
456 1 -3.89939 18.159 -23.5245 -4.04349 -0.418947 -4.68461
457 1 7.57392 21.3865 19.0716 -5.79834 -1.96467 2.00748
458 1 21.1273 21.6221 16.077 0.700376 -0.35359 -0.752996
459 1 -2.29345 7.71804 -16.1999 3.83026 -4.25929 4.87897
460 1 3.21893 9.96071 -23.3817 -3.61982 -0.429802 -2.626
461 1 1.86532 0.088089 -17.0147 0.0403654 -0.801996 -5.58155
462 1 -4.38146 -18.9073 19.3395 -3.45152 0.832346 -1.28082
463 1 7.75688 12.7001 12.9185 -2.70338 -2.97069 -0.232396
464 1 -14.8774 -22.4765 4.26811 1.72171 4.10194 2.62806
465 1 -1.5354 -13.0583 5.16261 6.53449 3.91129 5.31222
466 1 14.3103 13.8384 -18.9473 -0.773391 8.4526 -0.253483
467 1 -7.49762 -10.1776 12.5331 3.82649 1.95959 -4.0775
468 1 20.8676 16.1578 -8.11426 3.37903 -0.676023 -2.2625
469 1 -24.3265 -13.8211 12.5355 -3.73133 3.68408 -1.78239
470 1 -20.8912 6.03694 -13.7893 6.85954 2.27779 4.78959
471 1 18.4809 -10.2616 -10.3854 0.298767 2.12962 -3.81711
472 1 -14.3118 -4.42419 18.0523 -0.612346 1.70438 -1.47991
473 1 4.99812 11.8892 12.2896 -7.49056 1.78309 -2.76762
474 1 1.83809 -5.51135 -8.75096 4.31416 -0.107204 1.89601
475 1 22.3456 12.7619 -17.6398 0.464727 6.62475 1.82749
476 1 -12.7104 -4.18845 -1.58385 4.06905 -2.64736 -0.265615
477 1 -10.9476 -8.7936 -13.8706 -1.54128 -3.41769 1.94002
478 1 5.50169 -1.7439 -19.8585 -0.992437 0.534213 -1.65747
479 1 14.398 -19.3792 15.3041 2.26384 0.781544 2.02565
480 1 0.899153 -11.1184 10.62 -2.989 -6.31893 -2.36654
481 1 -5.63692 6.11147 -18.2996 0.583522 -1.26971 -4.27963
482 1 -22.242 -1.96244 19.4832 2.87432 3.33399 -5.35993
483 1 7.83026 -18.9876 -2.25413 1.34608 -4.34976 4.22935
484 1 23.1662 -13.0578 -11.5687 3.11763 0.516606 -4.66001
485 1 22.2083 -22.2673 -18.8493 3.12844 -3.28071 5.17615
486 1 15.0395 2.50534 -6.00535 2.76608 -0.1981 -3.06839
487 1 3.97655 25.322 17.7993 0.480072 -4.86848 5.5201
488 1 -3.6418 -14.1726 21.2407 -1.51989 -2.00608 3.15452
489 1 -13.3069 23.1813 -13.1292 5.33557 -0.802504 -6.20011
490 1 16.084 -17.9649 -14.4912 -2.81573 -4.33213 4.91521
491 1 -19.7619 -11.6736 8.84873 -0.412307 -1.92457 0.712958
492 1 -17.9531 -17.3772 -12.4118 -0.17331 0.0255806 -2.29601
493 1 14.0026 3.02705 -14.2732 2.28357 2.84643 -0.642441
494 1 7.0901 0.735189 5.16255 1.14428 -3.85245 -0.113918
495 1 -4.09891 -8.27339 -4.10017 0.154723 0.816132 -1.61275
496 1 3.77362 7.639 -11.4689 -0.348362 -1.86612 4.13495
497 1 11.9335 17.3754 23.0276 -2.00378 -0.833313 4.68817
498 1 19.7766 -0.598066 23.0024 -3.45175 -3.96071 -1.12616
499 1 22.4356 1.32893 -8.75415 0.303965 2.5324 -4.85625
500 1 -5.47745 -16.9121 9.91605 -1.73339 0.666812 3.08304
501 1 -13.1757 -13.8809 -6.60185 -4.07205 -2.29158 1.325
502 1 12.7453 -17.2758 19.035 -2.11782 1.85064 -1.56784
503 1 9.59202 -0.227156 -13.4557 -0.675256 -0.229209 1.27502
504 1 -0.191249 7.66913 5.60949 -2.90889 1.37767 2.60255
505 1 -5.79429 7.51539 -22.5222 1.27409 -4.52813 -1.92425
506 1 -0.0338318 -21.5279 -17.5606 -3.0954 -1.2096 1.32501
507 1 13.4142 21.8097 -16.1386 1.54402 0.654935 -1.33652
508 1 -1.11115 20.8651 -11.7185 4.35211 1.12908 -3.23321
509 1 22.9998 10.8337 -15.4179 2.69433 0.00860165 -0.275271
510 1 10.7502 -16.549 17.2728 -0.955816 5.59109 3.47889
511 1 7.59767 -14.613 3.54023 2.37929 -5.05226 -1.70305
512 1 2.62428 -2.11041 20.454 1.08676 2.14022 -1.5415
513 1 -16.9921 -15.231 21.7944 -1.10821 2.49511 0.998007
514 1 -14.6851 21.5996 19.6465 -0.41764 -4.58975 -1.36483
515 1 -1.77195 5.37724 16.8844 1.95089 1.56423 2.7381
516 1 9.76178 -23.5495 -3.36113 2.57245 7.9214 -0.670592
517 1 -18.1138 -1.10496 -21.6901 4.1803 1.90541 0.997824
518 1 23.1192 46.5518 2.51534 0.49545 4.22581 -3.83645
519 1 -18.9391 -12.5675 -8.61036 1.5808 1.26829 -1.57569
520 1 -4.40167 46.6797 -14.9865 -1.27016 0.741921 -1.78664
521 1 -10.1164 23.6333 -8.14103 -3.48406 1.29304 -0.712726
522 1 3.04765 -15.9537 5.80699 -0.396283 2.73193 0.549968
523 1 -10.8651 -16.8295 -7.90586 -0.162692 7.61616 2.29135
524 1 -0.584249 -5.02461 18.7934 2.34488 0.392701 -3.65781
525 1 -7.79508 2.13102 -3.5435 -4.43913 6.4642 0.333302
526 1 -19.8346 17.1975 -3.19564 2.97003 -1.89623 1.63727
527 1 -3.06157 14.4218 -9.38786 -0.297898 -0.110709 3.66154
528 1 -18.9552 16.1679 -10.218 6.6186 4.91354 -1.07179
529 1 -7.65308 -12.9412 8.16551 -1.31171 1.32672 4.01356
530 1 -8.88142 2.00606 12.5791 -0.712777 1.44969 0.28573
531 1 23.0595 -9.36892 12.5194 0.631034 5.04328 -5.0749
532 1 -11.659 -1.46616 1.08558 3.6273 -3.06935 -3.22611
533 1 -9.41827 -19.7127 14.3487 -0.82962 -3.95699 -3.71012
534 1 19.5415 9.76965 -10.8833 1.72429 0.0613378 -2.53752
535 1 5.60002 8.74175 7.8357 2.97269 3.8073 -1.72308
536 1 -2.25831 -8.41475 4.10261 -0.590401 4.2121 1.84397
537 1 9.57042 -6.68476 3.52555 1.13969 3.79586 -2.77728
538 1 -21.0432 -1.80546 13.9941 0.962102 2.53642 0.656709
539 1 18.2515 9.24808 -8.23981 0.653459 0.551076 7.40478
540 1 -13.5336 -9.00799 3.36556 -3.03609 0.379652 5.28651
541 1 -12.0382 2.26229 18.9384 -2.01607 2.13126 -2.32646
542 1 -23.512 5.59982 -6.45394 1.67502 -0.838295 7.62404
543 1 22.4834 -19.4427 -15.9102 5.24801 -2.78338 -1.70313
544 1 -2.6071 -20.8226 -20.2492 -2.12665 -7.35623 -2.402
545 1 20.1285 -20.9674 14.1102 -3.55056 -4.01147 -2.5842
546 1 -5.74045 -16.5484 -14.0157 -0.0984215 0.163924 1.32672
547 1 14.9059 -15.3528 -19.8399 4.68189 2.35178 -1.5941
548 1 10.7002 1.9644 18.5147 -2.70628 -1.25 0.589281
549 1 -20.2982 -4.04631 7.6143 -0.154116 -0.544612 4.00794
550 1 2.48283 -22.1265 -16.4849 -2.35901 -3.65895 3.05474
551 1 5.0862 6.3415 -18.9014 2.04827 -1.20901 -1.05652
552 1 -2.68628 -15.8985 -4.12156 4.33235 -1.82365 1.13906
553 1 -12.2059 7.38029 1.07867 -3.80467 2.15651 -1.21573
554 1 4.86914 21.4227 -17.2896 -3.02822 -1.24852 -2.88311
555 1 -14.0735 -15.3494 0.450229 2.5231 -4.16119 -1.46435
556 1 -11.3981 19.3224 -1.08296 -1.84735 -0.431985 -4.55212
557 1 11.6313 46.3308 -10.8633 1.08677 1.43762 -4.66281
558 1 -5.95516 -10.1789 14.7688 0.754351 -0.774467 0.581399
559 1 -8.56615 -19.2713 7.73421 -3.14335 0.639698 -1.80964
560 1 22.9605 -22.4017 -4.81197 0.950819 2.70815 -0.401418
561 1 7.99224 -23.0665 19.3759 3.46572 -3.45632 3.70791
562 1 5.62386 8.23303 -23.5461 -0.584823 -1.56211 1.79451
563 1 5.10099 -19.9494 5.60657 -1.08496 3.83136 -0.954104
564 1 -12.8694 -17.069 10.3805 -1.8352 -0.229427 1.58209
565 1 12.018 -20.1574 19.1723 -2.99955 -0.625237 4.84174
566 1 19.1491 15.8317 13.7212 -0.310002 -0.418976 0.118193
567 1 -21.2491 26.1791 -4.8229 1.64545 0.936246 -4.50158
568 1 2.81931 -7.03185 8.19597 2.58236 -1.5902 -3.30767
569 1 -5.27769 23.611 -14.8433 -0.275056 1.30315 -0.0692615
570 1 22.7883 13.3088 14.7194 5.36229 0.522248 -1.40734
571 1 -3.95909 -11.7773 19.7125 -1.14147 1.21033 -1.25053
572 1 10.6369 45.9216 2.67453 -1.7471 -2.69132 4.62911
573 1 19.8868 -5.93789 6.32805 2.84689 -1.79438 0.449615
574 1 14.5887 -22.99 -6.67765 -2.79846 -3.50995 0.988684
575 1 -15.0273 5.5466 -4.27943 -1.06902 0.504261 1.79973
576 1 20.0883 -1.29078 15.5337 -3.65855 -2.60843 -1.53214
577 1 -7.84358 18.9084 -1.54196 0.00459397 1.99293 2.53295
578 1 -23.7326 19.7976 -20.5015 -0.181896 -0.807177 -2.60492
579 1 2.63087 -21.3505 -12.8376 -3.44861 0.867407 0.0641194
580 1 -6.41642 1.87682 -14.8434 -1.56703 -1.23896 -7.1256
581 1 -16.3169 -8.63993 15.9547 5.35717 2.89643 0.984259
582 1 -2.80934 -13.7791 -18.5029 -0.876664 -1.82456 3.56717
583 1 -22.7819 25.1484 12.3741 -0.915636 0.123835 -5.93907
584 1 16.7528 0.388304 -12.1912 -2.60983 -2.6969 -0.513285
585 1 -6.15225 12.6894 15.8096 3.83676 -0.708633 -0.650222
586 1 16.1008 23.437 -20.7646 -3.00842 -2.96784 -1.33841
587 1 -20.1883 45.93 -11.8465 4.48174 -1.14107 -0.966686
588 1 -21.6609 24.1408 6.96906 -0.555157 -0.767733 -0.739718
589 1 -0.321694 3.16168 -1.01605 -1.67049 1.48806 -0.685399
590 1 -5.13608 17.7557 20.4876 -0.0770626 0.646218 -1.83969
591 1 19.4676 -21.4871 11.2494 -1.85768 0.454979 0.281959
592 1 -17.146 -13.6385 10.4357 -0.0208922 -0.2387 1.89401
593 1 -13.8551 -20.8722 15.2857 0.369 1.20661 -0.57561
594 1 -17.7236 -0.247794 2.86942 0.704074 0.179259 -4.49909
595 1 9.53855 -16.7057 -23.1962 2.27969 4.42045 5.10808
596 1 -12.0476 -19.4927 4.91084 -0.53055 -1.52113 5.45054
597 1 -22.8787 45.2048 -13.0232 -3.60314 -0.201794 -3.96836
598 1 14.4312 -15.2185 4.89842 -4.22254 2.27682 0.431634
599 1 11.7551 -13.8064 12.8333 2.03418 0.957022 5.82455
600 1 -22.5488 22.9937 18.1875 -5.70646 -1.76561 -3.0474
601 1 0.29245 -2.02224 22.145 4.20587 1.49286 -2.10705
602 1 -9.94052 8.20464 18.8532 4.48446 1.17775 -2.10709
603 1 -4.92075 5.7988 -4.46317 0.27737 0.0410819 -1.94929
604 1 1.23512 25.8121 -23.2754 1.18596 -4.59961 0.0131546
605 1 -18.1037 -1.22995 17.4382 -0.818148 -2.73685 -3.13547
606 1 2.90974 -1.77569 -18.8771 -1.42593 1.76681 -5.52152
607 1 -0.634445 -2.87395 16.8213 -2.20122 0.581779 2.47013
608 1 4.23898 8.92425 -8.78856 0.478006 1.61887 2.51481
609 1 12.3688 -20.4673 22.5409 2.05744 3.91154 1.74099
610 1 13.1096 -4.29007 14.9503 1.56182 -0.494318 -5.95653
611 1 -2.7829 -5.39433 -3.68177 -2.85436 -4.60798 -2.14295
612 1 -5.69337 11.829 -17.0819 -2.12124 -0.260006 -3.25157
613 1 12.3533 9.19474 -22.6461 -0.124674 1.33978 1.21173
614 1 -17.2091 -9.68125 -5.89995 -3.22087 1.21055 0.825023
615 1 10.4067 -5.02611 20.8129 1.48353 2.84997 8.29311
616 1 15.8577 -1.05446 20.4577 -2.72495 -2.34913 1.54073
617 1 -13.6472 22.7937 -16.2127 -5.01999 -1.60033 1.32397
618 1 14.1789 7.24621 8.81711 -4.9054 -6.6096 4.16649
619 1 15.8588 -0.477243 9.47122 -0.125088 4.21367 0.561406
620 1 20.7593 -15.5747 -7.85353 3.83283 2.59953 2.00487
621 1 -9.03973 17.5103 -12.5913 0.405289 -3.70282 7.28755
622 1 -22.0301 -9.47614 2.46505 -5.88939 -0.0351222 2.27419
623 1 22.2335 -16.6042 5.69949 -1.18358 4.10868 -0.648329
624 1 -8.71486 2.38525 -21.0762 -1.06462 1.49016 -3.71998
625 1 -2.79266 -9.8473 -1.94383 -0.693474 4.04525 1.55137
626 1 -6.21039 4.49587 -15.9995 2.92185 -2.70919 2.68154
627 1 21.2886 13.568 10.8278 -1.80634 -3.90646 -0.76334
628 1 -21.022 -16.514 -1.40164 6.47092 3.7787 3.23344
629 1 -7.16668 13.0153 -4.24969 -1.10678 1.8943 -4.9062
630 1 -23.7352 24.3858 9.93341 -5.7583 -1.88024 1.08631
631 1 -5.89695 -16.707 18.0473 2.21866 -2.42946 -2.9133
632 1 -14.7425 -17.8802 0.280413 -3.15538 3.51012 4.81442
633 1 8.90301 5.68252 21.8031 -2.01373 4.11514 2.73712
634 1 -7.88403 2.44906 17.726 0.749754 2.8666 3.47559
635 1 9.93692 14.4834 -6.73438 -0.620704 -6.68381 2.95892
636 1 -23.1583 2.9274 -15.011 1.00336 0.655086 0.0785347
637 1 -8.297 -24.3366 -22.6302 -3.12441 -2.23628 -1.41292
638 1 11.4643 19.0392 -7.50988 -4.20706 1.57319 4.19811
639 1 -10.8834 -19.9449 -22.751 3.99655 -4.26985 0.404424
640 1 1.38201 0.446229 6.04971 0.884531 6.56639 3.55351
641 1 -14.7367 21.7923 5.51245 -2.07945 -1.95932 -4.17214
642 1 -6.3744 -1.02761 4.94386 -4.63512 0.638982 5.83274
643 1 8.66586 -19.2392 5.7545 1.22044 3.58714 0.459981
644 1 -7.14068 14.4128 -1.8289 -0.601357 7.90933 -1.18244
645 1 -11.4737 -13.4296 -17.5357 4.53773 0.845461 -0.627356
646 1 13.92 24.7548 14.1666 4.98466 -4.17429 0.80067
647 1 5.48586 1.49261 -4.52114 -4.0785 -1.77123 -2.81429
648 1 21.6313 -16.178 21.7057 -1.38557 0.53386 1.76388
649 1 9.52717 -19.0518 18.0989 0.879236 0.0584096 2.29965
650 1 -9.61644 3.51508 20.1576 -4.28155 -4.37653 -0.981856
651 1 -20.1888 5.77629 -10.8245 0.28911 -3.73118 -0.0463732
652 1 -7.47799 -6.42614 -19.9936 -0.503434 -3.32061 -0.52893
653 1 -21.2202 -22.5921 -16.416 2.01293 -0.391589 4.96943
654 1 -12.2704 -1.7463 -16.7913 1.96871 -2.27265 -0.64583
655 1 -3.42133 -9.95234 -10.9926 5.93864 4.76928 -2.38692
656 1 0.253024 21.6386 -8.89775 -0.183857 3.76974 -4.41212
657 1 -2.08412 -6.94351 -9.29993 4.27245 -1.77308 1.23649
658 1 18.8673 10.5518 13.0676 -2.14529 -2.33255 -3.64329
659 1 9.99111 2.33792 22.3171 6.87972 -5.43584 7.29212
660 1 7.05269 2.50967 7.76886 6.11353 -1.05986 2.4042
661 1 -18.9533 -6.84747 -18.1525 1.09885 -5.76032 5.74768
662 1 2.23166 -8.77999 11.7066 -1.05128 -1.62738 5.43741
663 1 -11.7688 -19.1444 -11.035 -0.612845 -0.40822 4.52282
664 1 -16.6653 -20.4679 10.7646 -2.00663 -1.03308 7.31956
665 1 -2.95392 -6.00112 15.0399 -4.36932 1.96524 0.0767558
666 1 -8.97116 -6.35678 -12.4374 -1.13306 1.50755 -1.3479
667 1 -21.6483 -21.9175 23.2278 0.642161 -0.907936 -4.67716
668 1 -11.8141 15.4275 18.4754 -0.00841693 0.658966 -2.23865
669 1 9.66898 -15.9234 14.6859 3.3661 0.527543 2.96156
670 1 0.800099 -10.8322 -4.46361 2.92102 4.08218 -0.665518
671 1 19.8683 14.7328 3.60105 -4.48057 2.12753 1.38295
672 1 23.1992 7.74064 -10.3941 2.6099 -0.441016 1.51202
673 1 -1.61268 22.5881 -22.9113 -0.324895 2.44578 -0.260343
674 1 -10.3903 1.59875 -19.1424 4.42679 0.23995 -3.57861
675 1 -20.4445 -12.2351 -6.21596 0.754916 -3.70122 5.90077
676 1 5.41667 0.528622 18.4383 2.49328 1.19065 -1.18731
677 1 -22.5296 -11.5253 -12.3905 -4.80603 -1.93488 -1.56562
678 1 -20.4507 -5.97542 0.60214 3.17478 -2.38028 4.33286
679 1 -20.0938 2.3954 -8.02508 1.60947 -4.08082 3.22837
680 1 7.49412 21.1707 -8.58099 -1.80448 1.11971 1.12763
681 1 -3.13083 0.70996 -7.90348 2.8335 0.426094 -2.07035
682 1 -1.90216 19.7828 -8.20653 0.733807 1.25751 -3.53426
683 1 3.37946 4.94581 -17.034 -0.96879 -6.08548 0.399316
684 1 10.8106 -22.5347 -12.7973 0.919732 3.63439 3.50038
685 1 21.6438 -0.256484 6.05534 -0.967349 4.80057 -3.29238
686 1 -13.6541 -0.252463 19.7978 -1.52927 -2.1979 0.0649829
687 1 -15.3724 7.56742 11.2305 0.447936 -3.11197 -9.31612
688 1 -11.9404 -13.1611 -14.5424 1.93719 -1.80354 -2.26285
689 1 -3.4578 -3.05267 -2.19169 -2.06768 -4.06673 1.33869
690 1 -2.47804 16.9898 -5.56667 -0.704073 -3.00414 2.24009
691 1 -0.277257 7.88797 14.2606 0.642556 1.05786 -4.22427
692 1 -8.52105 -2.72569 4.20666 -1.40931 2.60237 0.2954
693 1 -9.66608 23.056 2.81587 3.26943 2.82725 1.68329
694 1 10.2348 -19.1069 1.10706 -3.43026 -0.931638 -0.475084
695 1 9.75322 -8.99993 -6.93506 -0.289925 -0.213754 0.52927
696 1 -8.92934 -21.9631 8.37795 1.99016 1.18236 1.61293
697 1 -19.7538 16.6429 -18.9739 2.8745 3.3056 0.402833
698 1 23.3232 -13.0764 -4.64128 0.470699 1.80782 -1.66858
699 1 -15.5739 -11.4701 15.9086 3.40182 -0.348352 1.9119
700 1 4.35456 4.58016 -20.7674 -2.33531 -0.288909 -4.03014
701 1 13.9824 -2.45296 8.62984 -4.14703 -6.61308 -3.78041
702 1 -14.5981 -2.69705 13.6864 0.655035 -2.08612 -1.15666
703 1 8.4725 24.0966 -21.2099 -1.67717 3.19594 3.50115
704 1 -10.3566 -10.6169 9.23338 1.03925 1.76432 1.54294
705 1 5.60062 19.4617 -15.4991 2.67017 -0.601277 1.48798
706 1 3.65968 1.97969 21.9142 3.65302 -2.62036 -0.0720033
707 1 -19.0499 1.18948 21.1573 5.74062 -0.386253 0.419494
708 1 9.86291 -6.34341 -20.318 -5.41645 -1.29019 -3.17564
709 1 -11.273 -2.33297 -6.09152 -0.399244 2.35872 2.39543
710 1 -3.53301 -9.65254 13.1985 -1.52547 -0.19415 3.97543
711 1 -15.4668 -6.80925 -12.8994 1.66901 -3.64351 2.5109
712 1 4.33683 -14.7639 16.0303 3.79023 1.38739 -0.974729
713 1 2.07793 4.47385 3.50517 -3.39945 -3.04077 -5.89895
714 1 17.9996 -8.23918 -14.3749 -0.858116 0.0939436 1.91751
715 1 5.68283 16.812 12.8247 2.09538 6.84899 -3.33338
716 1 1.53184 -22.9537 9.95552 0.0368471 -7.7758 -0.316039
717 1 -13.1859 -5.6322 -14.16 0.152549 -2.8764 3.90553
718 1 -11.1234 -6.00584 5.90596 4.72834 -1.95525 1.55116
719 1 13.6259 -8.84309 11.5088 4.63554 -0.872971 3.41243
720 1 0.26781 -6.46551 -19.554 3.45066 0.959438 -0.806885
721 1 -11.2817 -10.881 -15.9424 -0.604312 -2.74879 1.38767
722 1 7.31685 -23.3817 -14.1696 3.99602 0.638781 1.81535
723 1 -20.847 15.5401 -6.878 1.68045 1.80399 -0.963634
724 1 -7.88697 21.7166 -11.8186 1.29911 2.02153 -2.87922
725 1 4.67658 20.0797 -21.5503 5.25513 -5.34899 0.0827443
726 1 -5.17345 -5.31678 22.4346 0.0439976 -2.20918 -3.99965
727 1 7.81526 -2.63853 -13.3745 1.8694 -1.50889 -0.5673
728 1 -9.28319 17.1359 -8.55925 0.466478 1.1394 1.20334
729 1 -13.4819 13.7556 16.6353 -5.85979 -4.26594 1.68981
730 1 17.2655 -20.9363 -19.296 -3.70438 -1.22934 -0.021454
731 1 -12.9247 11.8979 -22.9331 0.108544 -5.87675 3.7248
732 1 13.1724 -23.3593 -9.02877 3.65344 1.47881 1.9476
733 1 -14.874 -15.4493 4.44162 -0.311695 2.74338 5.01381
734 1 -18.9958 21.5609 16.0553 0.511714 -1.27131 3.18533
735 1 16.0275 9.10679 7.32289 -2.20871 1.4586 1.57283
736 1 4.525 23.068 -6.00426 5.05571 -5.24553 -2.38407
737 1 23.2846 -18.2887 3.88491 1.5943 0.914136 -0.253128
738 1 -12.6034 8.64816 16.2277 2.05511 0.6863 2.82408
739 1 -15.2592 -21.2083 -1.31757 -3.4719 0.115375 -3.67218
740 1 16.0459 12.9306 20.989 0.799569 -2.24473 -2.07246
741 1 -13.5892 -21.8915 -15.4177 1.12245 -5.12674 -0.210183
742 1 -5.89061 45.5202 19.0505 -3.00479 1.85969 2.12712
743 1 22.6331 21.2787 1.58028 -1.20687 3.50055 3.50066
744 1 9.1411 -13.6337 -14.5264 0.936759 1.26554 2.01603
745 1 -23.5319 3.5382 18.3937 -2.605 -3.35041 0.883057
746 1 -16.473 -5.87049 -22.2636 0.269323 2.09247 3.15921
747 1 10.9393 -11.6219 3.31263 5.22339 4.74801 -1.37115
748 1 -11.2026 -21.3324 19.3377 -2.95572 -1.09561 -2.34613
749 1 0.847665 15.7766 8.13922 0.604989 -0.627947 0.961919
750 1 14.4285 -6.40215 -12.9912 1.47554 -0.451078 3.05346
751 1 -17.18 9.88767 -17.1107 0.277975 2.61235 2.04518
752 1 -23.4613 -20.9913 4.90658 -0.457424 -3.19127 -1.21886
753 1 -13.8045 -17.7425 22.9548 1.18904 -2.34215 -0.819767
754 1 -14.4899 24.8842 13.4432 -5.04383 2.37613 0.777251
755 1 9.60538 9.5032 -22.9526 -6.19945 0.23867 -1.65385
756 1 -7.0408 -3.6361 -1.42176 3.89016 -0.716461 -2.79594
757 1 -18.1624 14.9609 -3.72951 3.66622 -4.68602 -1.45502
758 1 -14.9865 -14.8858 19.7393 2.59323 -1.47291 1.82354
759 1 1.74872 15.7044 -11.8062 -6.11972 3.45365 -0.281772
760 1 1.19704 9.50097 12.5132 -6.35114 0.227841 -3.27906
761 1 -9.02167 -12.3009 -7.9941 -2.46688 -0.21641 0.0914395
762 1 3.61825 19.6137 23.5274 -2.01126 -0.091346 -8.65478
763 1 15.7411 5.35944 7.5873 0.119644 -0.00815249 -4.09984
764 1 21.5231 2.49394 6.8433 1.7157 2.89597 2.23194
765 1 20.871 8.63571 8.92041 -1 3.04541 3.85655
766 1 -11.4822 18.9519 -15.3632 -0.498951 -1.82463 -2.1855
767 1 -4.23413 -13.4302 -3.51045 -0.860025 0.71715 -0.22365
768 1 -7.46606 11.0938 9.11738 2.16348 -3.62015 -1.0218
769 1 13.6266 25.392 18.1212 5.06048 1.01316 0.0858434
770 1 -4.29188 21.8384 23.9474 4.74097 -1.80903 0.595683
771 1 11.8217 -16.7372 12.9739 -0.174926 -1.34462 2.01085
772 1 6.77498 7.57213 5.57506 -0.854399 -0.242898 3.79001
773 1 13.0844 -21.0218 11.4416 -1.78503 -1.12972 7.09997
774 1 15.6374 19.4224 13.4968 3.11764 -1.53631 -2.05838
775 1 22.0038 -18.2428 -12.0569 1.48542 1.7548 -2.36022
776 1 9.79915 -0.208429 -20.5605 -0.446423 -2.01127 -3.19231
777 1 21.7779 -10.4668 -9.09054 0.381438 -3.98581 1.27726
778 1 2.56124 -18.7438 -17.9511 -4.64732 0.865548 1.64597
779 1 7.18238 0.066891 -6.1421 0.25596 -3.97635 -4.88107
780 1 -7.12279 -10.0018 -18.8272 1.81225 3.81124 2.83169
781 1 -19.4892 4.42162 4.95554 -2.03324 -4.78998 1.50609
782 1 20.7537 -8.99655 -14.5207 1.93396 -1.74813 1.09122
783 1 0.847574 -14.475 20.55 5.51883 -1.07059 -1.80913
784 1 11.7052 17.5555 -3.2719 3.0339 -0.286362 -1.44832
785 1 -3.02915 22.5989 21.3597 2.64376 1.46097 1.56205
786 1 -21.7389 23.4141 22.7618 2.73513 -6.3764 0.135759
787 1 8.47588 11.5851 -14.1331 4.96738 -0.717556 -2.58022
788 1 -20.3204 9.215 5.29137 0.890269 -3.58212 -0.253687
789 1 -15.6288 19.5372 0.779696 3.37214 2.40449 -2.50628
790 1 1.94563 -1.84392 17.864 3.89894 -3.95104 -5.71844
791 1 -3.35973 24.6202 15.7872 1.03436 4.93029 -1.82435
792 1 -23.3368 14.8275 -8.46622 2.67335 2.79947 -0.526859
793 1 23.2887 -10.2044 1.66094 -1.85973 0.0256779 -5.52456
794 1 8.10515 16.7044 -22.6362 -0.31536 -3.06498 3.7903
795 1 21.3628 -6.27256 18.8795 3.90863 0.963547 0.293748
796 1 -8.04766 -14.9646 -13.7989 0.520453 1.19234 0.357552
797 1 -19.1628 -11.2401 13.0467 2.44377 2.60654 -1.00101
798 1 -16.391 0.808107 -6.40137 -0.742305 5.64709 -1.43161
799 1 -11.398 19.1189 -8.37961 -1.9806 0.731614 0.44731
800 1 -19.228 -9.18794 16.7182 1.61934 -1.42438 1.04524
801 1 20.1801 13.1582 -0.0827195 3.86752 2.09556 1.79531
802 1 -19.3076 -21.2872 13.8663 0.838369 -3.13402 -2.87966
803 1 18.1591 -14.6407 -8.14745 5.62605 -1.48334 0.214808
804 1 12.032 -20.9504 -10.2643 0.889656 -5.76472 -4.10278
805 1 9.68392 24.3955 22.321 1.57693 3.82864 4.38783
806 1 -1.81724 -11.7242 11.8762 8.51246 -3.973 2.33243
807 1 16.1008 22.3766 -23.2202 -1.40501 -1.14614 -1.47029
808 1 -0.0700541 -20.1578 -13.2664 -1.6153 -3.98842 -2.53035
809 1 -5.76714 25.3472 -17.1459 1.80505 1.66503 -3.66294
810 1 -20.208 -14.922 -3.69852 2.32129 -4.49266 2.5113
811 1 -13.7837 -4.9571 -5.55848 5.05157 3.17809 -5.28195
812 1 5.793 -12.1204 -7.0683 -6.53188 -4.37761 2.21779
813 1 -15.678 24.7967 -16.5653 -3.83565 -1.91144 -0.113647
814 1 -20.9889 -1.34507 -2.5364 -2.50036 1.89213 -0.295311
815 1 -18.2552 6.5359 -16.2912 1.6017 -0.804932 5.28675
816 1 22.5389 -16.9332 17.2204 0.154267 -0.377737 8.17277
817 1 10.5496 -8.09159 16.1523 -0.533965 -1.74481 -5.87092
818 1 -10.3293 10.2728 22.286 3.99656 0.505649 3.08857
819 1 9.76517 12.4149 21.0373 -1.21428 -2.02673 -2.96228
820 1 2.42705 13.7414 7.00269 -2.12669 0.599518 -0.515996
821 1 -23.3424 45.9105 -23.0197 5.50461 -1.25169 2.37237
822 1 19.1114 -15.1529 14.5292 -0.702925 -0.443738 4.90362
823 1 5.25589 -10.0986 6.2333 0.113387 -2.74072 2.90009
824 1 5.13198 -19.9964 -7.99629 3.71428 6.60248 -1.01468
825 1 -23.7611 2.82769 3.62746 -0.884471 -1.88979 1.9681
826 1 -13.2311 7.57957 -3.71551 7.16015 4.26167 3.00838
827 1 -1.44965 0.285906 5.38761 1.78099 3.82191 -1.23864
828 1 -7.56194 -19.099 12.0434 -0.203005 -2.60012 1.42902
829 1 19.5154 17.751 22.0529 1.38876 -1.07915 -3.77479
830 1 -11.3712 -9.13705 20.0097 2.7011 -1.37423 -8.56704
831 1 -1.69107 -13.3153 23.277 1.86863 5.45739 -0.513114
832 1 -6.42748 -1.46562 12.4018 5.05105 3.91225 -3.6356
833 1 -11.766 -5.86087 -7.17275 -0.440585 -0.0566249 -0.651003
834 1 2.3187 9.64231 -0.478227 -2.33778 4.02843 -0.863411
835 1 3.00307 10.0749 -20.7972 -0.185164 -0.104273 2.92975
836 1 3.38113 -11.4655 20.5638 -3.58319 2.8268 -2.81266
837 1 -18.9777 -14.8513 -6.50697 -0.316191 -2.89042 -3.15152
838 1 -24.3395 -21.9572 2.29308 -4.75232 -0.0615945 -4.60364
839 1 21.2633 20.4661 -6.28784 -1.48003 3.79527 -1.41605
840 1 3.77389 -16.6843 11.0357 3.68582 1.25152 -4.2819
841 1 18.4195 2.10871 7.50896 -4.69343 1.41185 -5.5109
842 1 -5.99637 -22.9623 -3.40792 1.12853 -3.26963 2.33792
843 1 20.6145 -5.6568 14.1871 4.07562 0.495613 2.01454
844 1 19.738 -20.0188 23.5712 -5.28126 2.29179 -3.19405
845 1 18.4351 7.5699 -1.19972 -2.03429 -4.56627 -3.07742
846 1 7.83722 2.86146 -12.5276 -1.38062 -2.28382 -0.508574
847 1 -13.7901 46.4982 -14.3953 2.75526 -2.78323 9.96985
848 1 -3.90521 17.8347 -14.3475 -0.246847 -7.23672 3.3677
849 1 -22.9671 -12.8229 -7.42033 1.13685 3.94844 -1.09572
850 1 14.4683 -20.2403 -19.7817 -0.657593 0.205613 -2.31734
851 1 -21.121 18.2986 -13.3253 0.781275 -3.00273 -4.99252
852 1 11.9263 -3.88733 1.06072 -0.749736 -2.46778 3.35866
853 1 14.3038 12.2622 -16.355 6.94739 5.48115 -1.76898
854 1 -20.9379 -12.0293 2.34138 -1.49248 -0.23869 -1.77956
855 1 -16.6508 24.2093 -19.1861 7.218 2.36756 1.53006
856 1 -21.09 -6.04122 -9.37159 -0.888031 -1.71645 2.63994
857 1 -22.6771 -5.69936 11.6376 2.1141 1.07417 -2.18826
858 1 16.8725 -13.2966 13.543 -5.04511 -3.11323 2.39275
859 1 -13.3105 -7.53433 -0.542932 -2.3031 2.7785 3.53099
860 1 8.10722 -8.66764 -15.1957 -0.632524 0.756918 -0.97847
861 1 22.89 21.4367 -11.7661 -1.34367 4.22527 0.255134
862 1 -1.66623 12.988 -7.33108 2.20542 0.157877 2.77544
863 1 17.9066 -18.8604 5.01549 2.68955 3.19987 -5.20704
864 1 -16.7488 4.64456 19.7204 -3.70027 0.258148 -1.2055
865 1 0.14494 -21.2371 11.7401 5.70186 3.75409 -7.22615
866 1 14.838 -3.49187 19.0368 -0.194203 -0.733151 -3.7846
867 1 -0.857311 12.9335 17.9534 -1.07852 -2.94458 -1.0145
868 1 2.86188 17.2315 -5.29558 -1.89037 -4.60077 -2.36121
869 1 0.018822 17.735 1.67659 -0.868164 1.18835 4.53522
870 1 14.4481 18.9531 18.0093 0.362379 2.00644 2.59092
871 1 7.0816 9.20918 -21.242 1.51999 7.62908 -2.54889
872 1 -6.18172 -4.66831 -21.9432 -1.23027 -1.48895 3.2961
873 1 -6.93083 0.75611 -22.4597 -3.69545 -4.2172 -0.496389
874 1 10.0598 -0.479402 0.754011 1.47551 -1.65569 -4.13824
875 1 18.6914 13.1496 10.04 2.19576 0.964626 -0.923945
876 1 14.2948 -16.2682 -8.69052 -0.480902 2.25642 -5.01115
877 1 2.57352 -19.0665 17.6925 3.99942 -2.35985 1.92684
878 1 6.72181 12.224 21.8921 -0.871101 -2.61916 0.906452
879 1 18.4511 6.85353 -18.2412 1.87717 2.15983 -1.95858
880 1 5.87345 14.7868 20.673 2.04985 -1.75384 4.60815
881 1 -3.13272 -6.34842 18.0479 4.76129 0.88116 -2.2876
882 1 -13.8596 -2.96526 0.834078 -1.81076 2.82489 0.304875
883 1 16.379 15.4646 -6.79772 1.44517 -4.34504 2.67603
884 1 19.7413 -19.3168 -16.7524 -0.865578 -1.40073 -3.06669
885 1 -6.37265 -20.0556 -0.3705 -1.59318 0.814122 2.9986
886 1 -7.20972 23.7433 4.23334 -0.968354 0.252023 0.821174
887 1 10.7845 -22.7867 19.2893 2.57059 -2.31185 -1.4834
888 1 -7.94193 18.226 -16.3947 5.60948 1.9594 1.10409
889 1 -15.3124 -0.490989 17.1778 -6.9381 1.99546 3.3901
890 1 14.4536 -21.6099 13.752 4.4595 2.8478 -1.27646
891 1 -22.0463 -1.78058 5.52678 0.832812 4.27516 -3.70281
892 1 3.76804 -10.0697 -4.57508 -1.5671 -0.43896 3.36848
893 1 20.1384 -7.22918 3.34918 1.09026 -2.05079 1.53801
894 1 2.35843 15.7819 22.047 1.07027 0.955599 3.80919
895 1 2.80781 -23.9312 7.2425 3.88832 -0.645111 -1.35723
896 1 13.513 0.158009 21.6473 -0.612516 -3.3662 -0.26053
897 1 -12.6526 -22.2642 9.94075 -1.96616 -2.71295 -0.803814
898 1 15.1975 3.46964 -23.1479 0.541067 0.766405 2.2374
899 1 16.0866 -23.7046 17.7727 -1.85922 -2.90758 0.0251185
900 1 -15.5794 -14.8032 -10.6546 -0.670184 3.08101 0.554734
901 1 5.45726 -23.0683 8.24374 3.04134 -3.3498 -0.357444
902 1 -10.0061 16.0435 0.726917 0.0565127 3.07811 -1.0173
903 1 -8.07926 26.6739 -17.8172 4.30924 0.985917 1.03336
904 1 -9.14246 -6.18273 -6.02614 -1.1335 -0.897009 -5.22093
905 1 23.1968 -7.87764 22.462 -3.9777 -1.21492 1.64853
906 1 -7.69611 -21.4399 18.0335 -1.69068 -1.45837 3.77999
907 1 -16.1832 2.43397 -10.6929 0.765943 3.59598 -3.82403
908 1 -7.28657 -15.746 13.5664 -0.244041 1.27451 -1.86974
909 1 15.6921 -24.0412 9.92856 -1.90484 -0.855649 4.50235
910 1 -10.5989 6.57013 -4.71231 1.18621 0.920687 -3.9064
911 1 -0.35305 15.8573 -21.1822 2.92897 0.14565 -2.59235
912 1 -14.7921 24.8278 -8.63879 -0.0289386 1.91407 2.74846
913 1 -4.77232 22.1261 16.948 -0.796385 3.36904 0.629421
914 1 -23.3089 15.5877 11.547 -1.75451 7.34359 2.04446
915 1 13.2636 -7.56704 -15.3802 2.26996 3.21807 0.0588254
916 1 -16.5006 -16.2165 17.8429 2.45813 3.63967 1.16944
917 1 -23.9922 3.80455 -21.9215 -0.877812 2.49354 -4.16751
918 1 -5.17162 8.7233 1.79911 5.64299 0.229785 1.57252
919 1 -9.89785 17.9936 14.4259 -2.72205 6.83473 -1.4116
920 1 3.53469 16.183 -22.0274 2.3222 -0.102462 1.98145
921 1 12.6912 -9.27592 -17.9906 2.78541 -0.924845 1.77653
922 1 -12.5876 2.0846 -17.1984 0.838257 -3.36754 6.0029
923 1 0.829526 -11.731 2.30659 -0.480515 -3.8964 2.24195
924 1 -7.89954 18.3309 4.51112 -0.749198 -1.35864 2.5382
925 1 2.05306 8.90513 -3.36182 1.21439 0.805604 -1.39948
926 1 1.38594 -14.5361 7.53541 1.89926 0.420505 -0.493176
927 1 8.70636 14.9818 19.7829 -1.52656 3.76147 -0.229877
928 1 10.966 -17.7086 8.44977 -1.75663 1.42912 3.04717
929 1 -5.67067 -13.8381 -6.2804 -3.71692 0.814868 1.70733
930 1 -18.5101 -19.0253 -14.7703 -4.89166 3.51709 4.93501
931 1 18.6121 -4.49538 -8.49085 -0.0253018 2.32599 -2.09135
932 1 -18.1195 17.5806 15.9402 1.02611 0.109702 0.785905
933 1 -16.3516 -21.7117 -22.6793 -2.63732 1.67854 -2.10666
934 1 0.38976 18.4802 -21.1651 -2.12338 -1.24201 -4.46062
935 1 23.0178 -10.8018 -0.919172 0.880047 -1.91255 -0.126133
936 1 9.38856 12.6184 16.3157 -0.80519 2.84092 0.59501
937 1 5.90903 17.5763 19.8794 -2.14554 -5.32035 6.16911
938 1 17.3941 10.2546 5.00591 0.743468 0.470843 3.6488
939 1 -5.09467 -13.1619 -17.19 2.17177 2.24138 2.15218
940 1 19.625 3.65432 -11.3973 -2.91199 -4.00013 1.25635
941 1 -22.2376 21.9799 8.99991 -5.14908 1.44079 1.67815
942 1 -6.24371 -16.0012 -16.8536 2.42773 -6.34967 1.86276
943 1 15.1799 -8.29415 4.34742 5.21821 -2.77286 -3.15997
944 1 -16.0324 -2.20562 -23.7434 -0.570077 -1.19717 0.0263571
945 1 6.72998 46.1747 17.3375 1.75215 2.77388 -4.00557
946 1 -15.4375 -7.17661 4.75581 -1.83756 0.593657 2.52302
947 1 -10.9097 20.4788 19.6315 -0.393034 4.24297 1.78715
948 1 -21.4535 4.68719 -4.72828 -2.16475 0.254143 0.166862
949 1 -1.49042 14.758 21.7905 1.21854 2.87495 -4.40666
950 1 -20.3718 6.76764 10.5193 0.391871 3.76951 -4.18295
951 1 -8.84613 44.8772 -15.8384 -3.53611 -1.58725 -0.657208
952 1 12.3416 -14.2734 -11.7542 3.17479 -1.59147 -2.22785
953 1 15.0869 -1.03915 1.80145 -1.0278 -1.6994 0.612394
954 1 16.5523 4.16112 -12.9557 1.81592 0.367326 0.317712
955 1 -12.1569 18.8302 -18.1144 -1.86013 -1.6263 -6.60441
956 1 -11.6616 -7.51296 -9.36548 -2.86768 2.81582 1.38192
957 1 -3.43649 -3.08585 15.5255 4.34452 4.19046 -4.08719
958 1 3.51401 14.3186 19.2671 2.2625 -0.663479 -5.21198
959 1 -14.9257 -15.2384 23.6516 1.14359 7.115 2.3081
960 1 1.07918 -20.7457 4.79 2.02289 4.02275 -0.0693841
961 1 -5.69488 12.5951 0.874833 -2.20631 4.20038 2.80214
962 1 -3.65251 7.13609 -7.88125 0.0258035 -0.845164 9.38286
963 1 -15.3637 27.06 -13.013 0.835544 1.56628 -1.39228
964 1 11.933 -16.0587 -21.9357 0.780563 -2.29234 -3.97488
965 1 -14.2768 14.6465 8.50538 2.37678 0.578145 4.31665
966 1 -16.7182 -4.18843 14.7753 1.44204 1.02667 -0.123308
967 1 19.062 -5.75569 -15.6672 -3.85216 3.99339 1.50596
968 1 -2.55103 23.6227 -14.5571 -2.81873 -2.16282 2.20041
969 1 15.995 44.6245 1.60977 4.93101 -0.920766 -3.57071
970 1 -2.01808 -23.6071 -12.1079 2.15009 -7.09736 -1.19976
971 1 15.4893 -5.58091 21.1409 0.719971 1.39144 -2.26984
972 1 -8.53875 -18.8852 1.24921 5.12266 4.92133 -2.14326
973 1 -11.1331 -0.885567 17.1329 2.79637 -0.0752597 1.88603
974 1 -2.16913 23.6261 -11.7478 -3.24817 5.50689 1.01269
975 1 -7.87316 -10.2135 7.84313 -4.7625 7.33187 -2.21361
976 1 -19.0516 -4.0682 11.8405 4.01989 -1.10998 1.66251
977 1 5.43959 46.6353 12.8265 -0.714181 -0.68111 2.98496
978 1 4.89084 15.9325 23.2592 -0.724777 -0.300601 0.468184
979 1 9.21279 23.5119 -18.5977 4.67832 -1.04589 -5.09277
980 1 3.12396 23.8305 10.9448 -2.35853 -5.24461 -6.85361
981 1 4.98489 -6.07086 -2.69613 -6.24237 -2.05436 -1.296
982 1 -5.01096 -5.44516 6.65371 -0.122661 1.64983 -1.1991
983 1 -19.2463 8.30637 17.9324 2.55433 1.93941 -0.590822
984 1 -14.8792 19.1483 -5.05134 -0.591793 -0.341085 -0.42479
985 1 -16.9761 20.1065 11.4598 -1.44614 -3.57234 -1.8238
986 1 -2.91328 7.12315 13.0221 -1.49548 -0.760727 -0.874417
987 1 -20.9607 -18.4364 10.4873 -0.0991041 0.237655 -0.149117
988 1 -11.3651 -23.0188 7.61234 0.0887005 -2.15413 -2.25901
989 1 9.64295 -0.57504 -4.89645 -2.73272 1.13066 -3.10677
990 1 11.0289 -6.72052 13.6643 3.97234 1.6892 4.44222
991 1 -7.57045 -5.48093 7.95186 -0.548236 1.46476 6.66173
992 1 -21.5532 11.5486 6.12808 3.87772 1.97924 1.40257
993 1 22.3546 -0.07154 -23.2304 -2.0171 4.22413 0.856037
994 1 23.3128 -16.2725 14.5757 -0.416359 4.47444 2.39339
995 1 6.70419 2.36062 2.73547 5.19274 -2.47336 -1.23309
996 1 20.5977 8.41425 -17.2101 5.4035 2.51266 -0.993534
997 1 -23.466 24.1331 -22.5524 -5.21647 -0.249265 0.0764391
998 1 -1.56018 12.5564 11.5349 -5.02086 -6.18025 -2.97789
999 1 -24.5309 9.37587 7.72867 -9.4318 1.53636 -2.92517
1000 1 16.511 17.8584 -8.74916 -1.07805 -0.284121 -5.34703
1001 1 -20.8016 -1.69012 -7.33297 3.87122 -0.414326 -3.34522
1002 1 -12.4436 -15.1865 2.77748 0.83324 1.03597 1.30621
1003 1 13.3723 -15.5815 10.8258 -3.52531 -0.15 -5.8994
1004 1 23.5115 25.2894 7.26419 6.49023 7.30174 1.96466
1005 1 -14.7878 16.89 1.88377 -6.43671 0.223839 -0.526639
1006 1 -23.3454 11.5033 16.3358 1.5883 2.40236 -3.04262
1007 1 13.8734 -2.00494 16.8704 -2.22232 -1.87772 -1.58476
1008 1 4.41557 -5.43893 17.0235 -0.0208875 3.14431 -2.60723
1009 1 8.43733 -20.1588 2.77459 0.0622297 -0.778216 1.46128
1010 1 -14.0271 7.54223 -8.47446 -4.24746 0.478189 -1.29852
1011 1 -20.1673 2.74204 -0.516593 1.23583 -0.109769 -4.88091
1012 1 2.83981 3.36875 -0.96185 0.706002 -0.504884 2.53484
1013 1 5.40909 -16.0831 1.87133 -0.0316619 -4.94066 2.37159
1014 1 -19.6488 -23.2619 3.72268 0.302083 2.96116 2.68059
1015 1 1.814 7.44382 -23.6104 -8.92998 -4.20439 -5.3561
1016 1 22.7538 5.28156 9.62294 -0.48051 0.057872 0.759138
1017 1 -7.49353 4.65192 15.8117 -1.72875 2.22684 0.270124
1018 1 -21.9652 -20.9232 7.57815 -1.21679 -4.77086 -2.47576
1019 1 6.05354 18.1364 4.60468 -0.835558 3.69862 1.84298
1020 1 -17.9013 45.755 7.29909 0.187405 1.31046 2.17735
1021 1 21.9753 -19.6821 -4.44648 5.75003 0.944346 -1.13531
1022 1 -9.85185 -22.0052 -14.1637 -1.80579 -1.10727 2.6046
1023 1 10.083 0.106644 4.90458 3.63868 0.43894 -0.0336641
1024 1 -3.01144 7.47396 20.9873 -3.71607 -2.68171 2.46898
1025 1 9.64174 6.03526 -19.8233 -0.777327 1.85003 3.39782
1026 1 1.11291 10.7963 -13.2234 6.74089 1.40881 0.650909
1027 1 -21.4222 0.170724 10.5631 4.12474 0.0824498 -4.11365
1028 1 -6.22678 -12.6072 -13.054 5.88709 2.88883 3.04339
1029 1 13.2799 9.82669 -3.46041 -7.06311 -1.81288 -1.54476
1030 1 -18.2055 -17.2356 23.4802 -4.66537 -1.54697 -4.67739
1031 1 -6.64431 -11.2943 -6.7375 -2.28666 -3.45541 -0.200551
1032 1 13.2697 6.11875 17.4384 0.874858 -0.0673286 4.66647
1033 1 -1.58175 -18.176 1.96399 -3.96866 0.84721 -0.381106
1034 1 -13.0439 10.8917 -12.2144 -0.475939 1.61099 -1.89733
1035 1 9.30183 17.4439 -1.32641 0.828621 1.05803 -2.01412
1036 1 1.52996 -14.4199 17.066 2.29367 2.23539 1.1599
1037 1 -9.2617 -15.4895 15.9932 -1.38241 -1.45904 -1.06164
1038 1 -2.94186 9.95756 12.3672 -3.15485 -1.79216 -0.9936
1039 1 19.7605 22.9448 -9.26226 -0.638217 1.19321 -0.456743
1040 1 9.16231 -4.52097 -23.2202 -2.20288 -2.40557 -2.35121
1041 1 -2.65549 9.48049 -13.6976 -2.5608 0.224655 -0.546238
1042 1 11.7371 -6.07987 -22.7914 3.39972 2.36683 -0.608811
1043 1 17.4717 8.36475 -5.62127 2.60267 -0.315757 -0.209872
1044 1 -4.91055 22.6684 -11.9555 1.83349 -4.24337 0.0672868
1045 1 -5.31488 -1.39181 -23.8761 4.57962 -2.51498 -4.99587
1046 1 17.3209 17.1121 -14.9361 4.8354 -2.83851 2.50332
1047 1 -18.9232 1.34246 18.3412 -0.256381 -1.90426 -0.0677643
1048 1 -1.15008 1.97296 -23.8193 -2.52587 -2.23354 -2.07086
1049 1 22.3456 -1.57358 -12.6836 2.51055 -1.6146 -0.349136
1050 1 14.7202 21.7871 17.3038 1.1005 0.362464 -0.206122
1051 1 -0.850153 2.37014 11.2122 -0.797681 -2.92617 3.79662
1052 1 -20.0971 -4.84557 -21.3773 1.93588 -4.27669 -3.74269
1053 1 6.93675 6.18127 -21.2893 -1.83367 -4.16994 3.41451
1054 1 -17.2029 22.9213 0.454744 1.65923 2.16419 -0.551873
1055 1 -7.26094 18.8267 13.8889 0.342592 0.032416 -0.688353
1056 1 -11.1509 21.3519 6.892 -0.0899806 0.277766 -1.81072
1057 1 -7.26236 -18.6627 -15.8082 1.92534 2.46167 -2.34883
1058 1 0.329984 -1.84175 -8.99623 0.551183 -2.39417 -3.69946
1059 1 6.06707 -22.3505 -18.2004 3.994 -0.242837 1.80339
1060 1 -19.5465 -10.0297 5.67988 2.90176 -0.788197 -0.118762
1061 1 9.1141 6.63938 -13.6614 7.44428 1.29142 0.572235
1062 1 -8.63089 -1.22071 10.3493 -3.31758 3.26716 -2.30843
1063 1 0.787125 18.7241 12.1294 1.01556 -5.18514 2.80525
1064 1 15.3636 -17.6575 6.037 -3.25584 2.6247 1.57965
1065 1 11.5925 20.895 -17.9266 -2.16805 -0.263114 -2.08869
1066 1 12.8137 -5.5569 22.2041 -0.895293 1.46028 3.94748
1067 1 -22.7405 5.82031 7.75976 -3.88158 0.35369 0.59597
1068 1 -2.80333 14.5528 1.74086 -1.47264 2.93809 5.90493
1069 1 -21.6368 20.2526 -18.2003 -1.02363 -1.19015 -1.49975
1070 1 -7.50074 8.12933 9.29533 -0.498473 -7.89689 0.700126
1071 1 -17.9617 25.9542 -12.0172 4.69117 -0.0988594 -0.871678
1072 1 14.3169 8.83464 -18.1117 -7.55718 2.62553 -0.328798
1073 1 0.670645 45.977 -13.0094 -0.504358 2.7371 -0.902365
1074 1 -10.1743 12.9915 -17.4307 -1.93868 -3.35975 -3.87627
1075 1 0.875192 11.7012 15.8572 -2.72981 3.81587 -3.64904
1076 1 20.7907 5.94797 22.7871 2.83553 -1.8936 0.524929
1077 1 16.4716 -7.86109 -7.4351 1.44181 3.74779 5.05249
1078 1 7.30819 -10.6963 11.3215 -0.942455 -2.66605 -0.333818
1079 1 -14.4416 1.18982 10.6043 0.700444 -0.995207 -2.60797
1080 1 -18.9316 -6.87489 -7.88751 -1.26061 -3.11136 -3.08449
1081 1 7.24545 -5.74297 16.1453 1.83589 -0.960051 -2.90417
1082 1 -16.6503 -18.5638 -6.35231 0.876088 2.06426 -1.34386
1083 1 0.183216 21.6079 -17.7728 3.05392 -1.4385 -2.81083
1084 1 -4.73627 -17.7424 -4.91126 1.38885 -3.44171 3.3622
1085 1 -10.0187 -15.1872 -1.91338 -3.89487 -5.09551 -0.331135
1086 1 -13.5905 9.96454 -5.26747 1.72241 -5.32024 -1.30552
1087 1 9.81669 -3.6501 -19.3822 0.776171 3.30113 2.30572
1088 1 -21.967 23.0299 4.44572 -2.50316 4.40576 1.74074
1089 1 -14.6881 6.9049 15.6328 3.36379 -0.481649 0.367186
1090 1 -21.257 -17.266 -12.0747 -2.48247 -0.937441 0.207797
1091 1 -14.508 10.7914 7.70971 2.49626 3.52909 4.35768
1092 1 -19.4084 -17.8824 -6.50034 4.42848 2.16283 0.510936
1093 1 23.4678 9.11766 3.76545 -2.57255 2.15635 -2.78155
1094 1 -24.2264 19.5182 -23.5767 -1.71025 3.18193 -0.83061
1095 1 -7.14996 24.7044 -12.917 -3.13293 2.68138 0.0383379
1096 1 9.51434 16.2045 -14.0124 3.43904 -0.848724 -3.86659
1097 1 16.0581 26.2215 12.6114 4.49035 5.03233 2.61397
1098 1 -10.2543 -3.36527 20.3005 4.13695 0.806142 3.631
1099 1 17.5771 12.5736 18.1897 -1.50363 -5.92381 -2.99287
1100 1 9.11584 -8.41927 19.8959 -3.77843 -1.4844 -1.97009
1101 1 8.5661 -15.9106 11.9853 -0.905343 -2.81032 -5.43453
1102 1 13.4164 -15.1053 17.0634 3.38872 -2.85908 -0.645348
1103 1 20.9576 6.68298 16.6042 -4.29852 0.285013 -1.70074
1104 1 -22.0163 -2.01739 8.46007 3.64409 3.7946 -2.65443
1105 1 21.5507 -0.663966 0.0313622 1.00211 5.05219 -6.05302
1106 1 -16.4191 -17.9374 4.33001 2.4163 -1.91687 -3.64573
1107 1 1.35077 -11.7265 -1.80267 -2.32597 -4.34411 3.46685
1108 1 13.4231 15.3605 21.8527 4.19152 -0.0889407 -4.02786
1109 1 -17.7899 -5.49309 4.15551 2.07969 -0.210986 0.0170658
1110 1 -13.5009 27.1916 9.73473 -0.59744 -0.818478 -4.12554
1111 1 12.1557 -8.17128 9.05659 -3.41553 0.678411 -1.85887
1112 1 -0.977142 -17.8502 20.6696 2.43744 0.423017 0.121918
1113 1 -18.9695 23.1341 23.4385 -6.04409 3.83006 0.358849
1114 1 -17.2009 0.215177 11.0306 -2.28866 -5.90466 2.05836
1115 1 22.705 22.3428 23.3648 4.05512 -3.72307 0.520129
1116 1 -13.8467 1.96207 5.94895 3.90829 3.76616 1.57273
1117 1 -3.34879 15.4672 9.17863 -2.97095 -6.40059 1.2433
1118 1 19.0926 -2.26763 -14.8077 1.60639 2.71561 2.27461
1119 1 8.3893 -13.3885 6.22145 3.65715 -2.00008 -1.61191
1120 1 -6.38882 -12.067 -2.36273 -8.05175 -2.84417 -0.740525
1121 1 13.6634 -3.34526 -21.7436 -4.44287 1.17808 2.47166
1122 1 -9.8522 23.0758 -1.18039 -4.94726 -1.39343 1.89683
1123 1 15.1899 -6.96007 0.334388 -0.0301181 1.82055 0.594656
1124 1 -2.54379 11.7636 -17.487 -2.35257 -0.322316 -1.63582
1125 1 -22.9286 7.95545 5.88066 1.25331 -0.307886 3.53491
1126 1 -0.827482 -13.8498 -11.4968 1.76198 -1.17526 1.30846
1127 1 13.956 16.4112 -8.4598 7.7062 -2.70114 0.803298
1128 1 0.768067 12.236 -0.0921846 -6.73595 0.236473 -1.69571
1129 1 1.64085 -7.23998 -23.8346 -1.42981 -0.0563066 -0.46574
1130 1 -5.01158 14.7448 -16.4847 0.172783 -6.05668 -0.326769
1131 1 18.2736 -9.46574 -3.35444 -2.76052 -1.01311 -4.56344
1132 1 23.4081 -4.62349 17.9757 -0.681632 -3.2045 -2.57093
1133 1 10.8748 11.7736 18.5907 0.725866 -0.877045 1.66034
1134 1 14.8089 -22.317 20.1676 -1.59971 1.89727 4.99033
1135 1 5.77671 -1.34839 -23.7221 3.37387 1.42579 1.36792
1136 1 -18.9596 -21.449 -23.4956 0.999532 2.63518 -1.84541
1137 1 5.80365 3.37908 5.27822 3.87516 -0.771065 -1.60067
1138 1 -21.8147 -23.1784 5.79665 -2.3655 -3.86437 -6.27782
1139 1 -8.80211 11.1719 4.38804 3.28816 -3.00147 -3.56742
1140 1 17.1231 -9.13382 -21.9468 3.37538 -0.543475 -3.46141
1141 1 -20.5391 9.3978 11.5554 2.20872 -3.89821 2.6868
1142 1 8.15303 15.3765 9.86825 -5.02435 1.84066 0.520448
1143 1 2.11018 -10.7564 -11.909 2.21972 3.62116 1.14489
1144 1 19.7754 -0.417126 -12.6739 2.3334 -1.18041 3.16486
1145 1 3.0487 22.2555 23.0014 0.6031 0.838265 8.35659
1146 1 10.3761 18.8307 19.1244 -3.92875 3.88454 -1.57151
1147 1 -5.58134 9.52489 -1.84614 4.09119 1.96162 1.77315
1148 1 -10.6336 11.7228 13.8408 -4.1352 -3.97352 -1.20274
1149 1 1.99531 -14.765 10.1629 0.202712 1.44607 0.269646
1150 1 -14.3154 16.6561 10.6129 -3.92977 -0.140071 3.95869
1151 1 -20.7803 -23.5579 17.48 -0.999517 -3.11188 2.74418
1152 1 -15.3704 14.3369 19.0468 2.03905 -1.96872 4.28325
1153 1 -2.8471 -21.2351 -0.514178 1.07769 0.65793 -2.17832
1154 1 4.34704 12.7532 -20.8107 -2.48835 0.473221 -8.05072
1155 1 7.05855 -21.2195 14.9317 -0.58282 -2.03198 3.95765
1156 1 -15.206 -10.4871 -21.845 1.13012 5.06128 2.05035
1157 1 2.32775 0.172693 -10.1679 -1.09718 0.0505927 -3.24089
1158 1 -16.1438 2.12136 18.4978 -0.157943 -1.16302 0.919178
1159 1 20.44 -8.48848 13.1652 0.191018 0.511179 -1.50398
1160 1 -10.2691 7.30778 -10.4291 -4.06163 -2.61329 -0.986588
1161 1 -7.25721 46.051 -19.9895 -0.046016 2.07357 -3.38731
1162 1 9.8794 9.22219 2.45996 -1.83346 -1.4585 0.214764
1163 1 -20.3127 44.9423 12.5302 0.158485 -1.93583 -1.82568
1164 1 -20.0832 -14.3359 10.3574 4.5208 3.87835 1.05235
1165 1 15.1964 23.1294 0.0619863 -3.72372 -1.44426 -1.26537
1166 1 -15.4283 25.6255 16.1345 1.14424 -2.65669 4.98647
1167 1 0.577683 15.1104 19.528 -1.89318 6.21446 -1.43076
1168 1 10.8714 -10.987 -2.6188 0.267548 -0.710027 0.401603
1169 1 13.6275 -8.50076 22.0721 4.84896 -1.44257 -2.12146
1170 1 4.27725 15.9434 10.2552 0.252161 0.411263 0.843633
1171 1 20.8599 -1.07104 -9.42796 3.88895 -0.534071 -2.16786
1172 1 -22.6585 -16.6299 -16.5622 -0.776874 1.6647 -0.708783
1173 1 7.13173 -19.9323 21.4446 -1.90899 0.929464 0.384032
1174 1 -21.5822 -21.5299 -18.9115 4.25172 -3.97415 -0.782861
1175 1 -11.0801 15.0649 22.1902 -0.686553 3.00836 2.90096
1176 1 -2.22271 -13.2011 14.1855 1.81605 1.98804 -0.576918
1177 1 8.49834 3.22832 -17.0849 -1.23525 -2.30467 2.57649
1178 1 -3.16721 8.69846 9.74856 -2.3954 0.30022 -5.49956
1179 1 8.14286 -8.04954 -9.18203 5.37538 0.690497 -4.71535
1180 1 -8.97782 45.3517 -12.9945 4.99833 -1.77667 -0.0533711
1181 1 9.68951 18.3719 -9.48591 -0.00713235 0.713103 1.43303
1182 1 20.7235 7.96987 0.571614 -1.71926 -0.596191 -0.696446
1183 1 1.75056 -5.95286 -13.1099 -2.70491 0.767343 -2.38464
1184 1 6.65056 20.1535 23.7053 2.2456 -2.3661 6.15791
1185 1 15.4075 13.2226 -23.6827 -1.92591 -1.25208 1.34414
1186 1 4.79779 -9.75784 -1.24554 2.08546 -3.86514 -0.0610892
1187 1 -13.1532 16.9371 -7.45465 2.42118 3.00344 2.39591
1188 1 4.55512 -0.569406 -0.1843 2.6641 -3.08046 -0.43893
1189 1 14.5102 13.9933 4.21989 -2.47423 -0.977866 -1.04024
1190 1 14.3489 -1.64708 -16.3771 -0.569839 1.28744 1.60585
1191 1 -3.4142 -0.918523 -19.7679 1.01302 -1.50699 0.921559
1192 1 -14.8162 -0.188475 -10.7026 1.71865 1.96187 -0.743845
1193 1 11.1828 -1.33845 21.0531 0.511676 5.6001 -1.34688
1194 1 7.65932 17.3189 -5.36849 0.808769 3.26339 1.08136
1195 1 14.2744 -10.4431 -15.8795 -1.58908 3.15838 -0.669743
1196 1 6.53124 13.2969 -11.242 -3.39269 -1.14966 2.23423
1197 1 -17.9251 18.6639 21.1845 0.884051 3.34553 2.54055
1198 1 20.1056 -23.9346 9.96299 5.06225 3.89446 -0.734396
1199 1 -15.0735 6.31104 -12.09 0.609468 1.17383 2.30213
1200 1 11.4932 -10.868 11.8737 6.53636 -0.648637 2.98331
1201 1 23.1914 -20.619 20.4537 -7.05463 1.00949 0.375561
1202 1 -15.5171 -1.47542 -4.70618 2.2018 0.291277 -0.973115
1203 1 -15.278 -13.7047 -15.6063 -3.51655 0.156803 0.375133
1204 1 -2.3831 23.1355 1.65842 -2.03229 4.18098 -0.505353
1205 1 -4.51224 -19.0307 12.485 -2.87721 1.21977 2.91165
1206 1 -23.5164 -20.8771 -22.6814 6.14718 -3.09149 4.22533
1207 1 15.2855 -6.46321 -18.7041 2.98964 0.759614 -1.1703
1208 1 -24.1073 -6.20846 9.36292 -3.22188 -3.71794 3.08835
1209 1 -0.589536 -5.70735 -22.6617 1.40395 1.96788 -0.291716
1210 1 -3.43115 20.6942 -2.359 -1.60248 -1.15682 0.549447
1211 1 -17.7671 -10.8536 10.7426 -3.52475 -1.76523 -0.437582
1212 1 20.4116 5.79622 -9.39504 -3.09401 2.92974 -0.527148
1213 1 -22.7418 -16.3904 18.3928 2.38036 1.87116 -3.06437
1214 1 15.9819 -2.31613 -0.609626 -1.18017 0.192525 0.0546911
1215 1 6.70532 9.54308 -10.184 6.97429 -4.87577 -1.81575
1216 1 12.3318 -4.3958 -9.67543 6.06201 -1.33898 -1.06437
1217 1 15.4556 -14.6922 2.13827 -2.78973 1.64638 -1.4017
1218 1 14.994 -4.35653 -10.6222 -3.4162 -1.88827 1.29452
1219 1 13.7 14.4404 9.08766 1.02864 -1.49316 -1.17182
1220 1 -20.9511 23.8388 16.0301 -1.75231 1.06939 -2.71894
1221 1 3.06429 23.5718 -20.6569 3.58483 0.46712 -3.69675
1222 1 19.5946 22.34 12.0555 -6.85197 2.08017 -1.52366
1223 1 -22.8764 8.17811 9.84029 -4.31784 -2.08453 2.19386
1224 1 13.5895 -7.88355 14.4181 -0.465388 -0.525847 -3.10984
1225 1 1.26602 -20.7555 19.5755 0.319393 1.10056 2.8822
1226 1 -22.171 15.4122 2.5464 1.15676 -1.59736 0.7599
1227 1 -2.71436 -8.00027 1.12418 2.77598 -3.28374 -1.17532
1228 1 -22.7635 -21.4474 -12.4002 -1.51239 -4.77209 3.8497
1229 1 19.4031 -18.9255 -0.383582 0.0863886 -4.17564 -1.9103
1230 1 -14.0598 -18.8429 -9.65931 6.30942 2.87377 4.46902
1231 1 -20.4863 -9.86172 -4.23235 -0.456841 -0.892673 2.20968
1232 1 -20.204 18.555 23.344 0.959306 1.81401 -2.74323
1233 1 -7.94762 0.586991 -18.0451 -2.17145 4.79873 -2.06116
1234 1 15.3562 13.4457 6.85405 -2.32506 -1.68315 4.86015
1235 1 11.3716 16.2447 1.91363 -6.18729 0.165568 -2.84973
1236 1 -6.59843 -20.6743 14.4378 0.491724 -0.643434 5.05953
1237 1 -17.6606 23.2074 14.1986 -8.15031 0.615941 -1.6408
1238 1 11.3795 -3.53809 -12.3807 -5.65546 0.491185 -2.13895
1239 1 -1.95731 -22.9158 6.94602 -5.1588 -0.507637 -2.45295
1240 1 -4.88243 -23.5465 2.59566 -1.8705 3.0159 6.21239
1241 1 11.7704 15.1285 -19.2237 3.65379 -1.67934 1.3536
1242 1 8.16577 -18.4107 -15.0973 3.72925 -0.36843 2.77368
1243 1 10.6271 18.3765 -22.1353 -2.25651 -0.933818 -1.46462
1244 1 -16.8434 1.62968 7.05321 3.63193 1.66038 1.33453
1245 1 -18.7556 11.9455 -22.8827 -3.7767 5.04408 0.110046
1246 1 -5.98382 -15.9658 5.34447 3.97551 -7.2333 0.0833022
1247 1 -4.31937 -4.20804 -8.04915 1.91724 6.03007 -0.145395
1248 1 10.7051 5.12411 18.1283 -1.98135 1.65819 0.924347
1249 1 9.55802 13.3195 -19.991 5.9793 0.056492 -1.44532
1250 1 6.55218 1.88151 20.691 1.34176 -4.16804 -1.29407
1251 1 22.9255 1.45594 21.982 -1.48179 1.39096 4.1644
1252 1 21.7112 -20.819 0.451984 -1.37481 -2.26105 3.24074
1253 1 13.0019 22.1845 -2.91917 0.341938 2.31156 -1.00498
1254 1 -21.8866 -18.2708 5.67722 -4.34739 -3.98857 6.22382
1255 1 -5.09769 -10.0953 8.40189 1.83763 -2.35609 -2.5438
1256 1 5.95214 -19.2103 -21.1822 1.66489 1.44061 1.3421
1257 1 -4.80057 -24.1436 -11.9271 -5.90908 -4.06829 -4.00527
1258 1 -15.4876 10.1641 21.1165 -0.518225 -4.92242 -3.2911
1259 1 18.6955 -11.0863 7.62149 -3.56519 -0.659982 3.3222
1260 1 3.85008 -11.2846 -16.2955 3.0319 0.871076 -5.15149
1261 1 12.2636 -9.15172 -10.0315 -2.56252 -1.72602 0.113622
1262 1 14.1417 -14.3056 -5.3741 2.18699 -2.36955 -0.252567
1263 1 -14.2198 -6.22253 -3.02587 2.41784 0.129092 0.404902
1264 1 -22.6901 -9.68623 -2.40685 5.74317 2.57745 4.53273
1265 1 -6.67165 14.7708 -11.9054 -0.979748 -4.59074 -4.39578
1266 1 17.3978 -7.70496 6.10145 -2.41167 1.4979 -1.76904
1267 1 22.8199 -14.3665 3.90127 -5.4165 -6.62325 0.0588721
1268 1 -21.396 -13.6748 -16.7289 2.46329 0.551586 -3.35937
1269 1 9.44667 -6.9465 22.5753 -1.86897 0.178161 0.460523
1270 1 21.4729 16.0811 12.0993 0.0721566 -3.63486 -1.35469
1271 1 -0.944081 3.17887 18.3643 -1.11577 -2.33707 -1.62056
1272 1 -23.6656 10.1033 13.547 4.21476 0.15738 -1.02117
1273 1 18.6822 6.11457 19.7091 -0.0713518 1.73703 -5.36196
1274 1 20.6494 18.7089 -17.3643 1.24388 2.23129 3.00312
1275 1 2.88676 4.50462 11.7795 2.85824 -2.25439 2.56319
1276 1 0.750708 -9.44495 -19.6247 -7.4115 -1.57777 0.578803
1277 1 -9.19724 24.4547 -5.44662 -2.47329 -4.6777 3.47547
1278 1 16.5037 -6.73333 -23.0129 4.942 1.20351 -6.25415
1279 1 -21.2367 15.5276 -12.0661 0.723872 -0.371474 -0.093378
1280 1 1.03603 -3.81347 -4.11854 -0.641438 5.40848 -1.48978
1281 1 15.3537 -12.5333 20.2562 -1.06812 -4.20438 -5.24681
1282 1 12.2062 -20.6468 -3.09415 3.3928 2.04463 0.728066
1283 1 5.60009 -21.0301 -13.5968 -2.80844 1.1469 2.59519
1284 1 5.06832 -12.0028 0.500534 0.237474 -0.34105 0.92791
1285 1 -11.2161 24.6537 16.1673 1.36564 -1.33562 -2.44619
1286 1 -6.02257 6.69344 -14.1778 -1.09058 1.46523 -2.41854
1287 1 9.85027 -19.2518 21.0687 3.16146 -0.270982 2.18452
1288 1 -1.34665 -5.4056 -13.7837 2.61854 2.13134 0.208112
1289 1 19.8838 -10.7473 -6.57104 -7.45492 2.60102 -4.13713
1290 1 1.12102 7.1114 8.3454 1.80827 0.163651 -2.55112
1291 1 -18.4325 16.129 1.2173 -3.37607 -1.46444 2.77858
1292 1 -5.11135 18.3439 -1.76879 -1.55691 2.8413 2.56673
1293 1 -7.82746 0.349163 -1.44416 1.39513 -0.920576 0.54164
1294 1 14.9451 -11.9506 -8.21252 3.01282 -2.87734 -0.553883
1295 1 13.7373 5.54245 -1.39401 -1.11293 1.12481 0.101973
1296 1 -8.66151 -11.7835 4.23202 1.58372 -2.78242 -4.04349
1297 1 15.6825 16.4351 15.4623 -3.42799 -2.22063 0.643091
1298 1 -0.645078 -7.82983 -1.42829 2.49707 -0.0262908 -4.15962
1299 1 -10.491 -10.086 -6.22312 -0.960573 2.10335 -4.43496
1300 1 5.41904 -1.67325 -2.57719 5.16655 -4.676 2.55867
1301 1 11.5218 14.2355 -12.8845 2.97145 0.42301 4.22383
1302 1 -1.65591 -2.46449 -21.544 -4.43336 -3.59534 -3.15545
1303 1 -5.49227 -7.76046 -15.0134 5.50368 -2.53417 -0.876429
1304 1 3.49834 -0.583997 -4.45658 0.10247 1.74506 2.18934
1305 1 -6.53324 4.80395 11.061 3.01775 -3.36965 1.37733
1306 1 6.23074 -21.1721 -1.26335 3.39121 -1.09896 -0.635306
1307 1 -14.3211 45.0226 -4.73711 -0.160792 -3.48382 -4.80535
1308 1 -19.6195 -0.484503 5.21151 1.80279 2.57046 -6.05019
1309 1 -3.04881 -9.87858 -5.97222 -1.15602 1.99664 3.32691
1310 1 -0.352893 -17.6274 -4.42336 0.270627 3.26587 -0.395809
1311 1 2.73208 18.8893 -15.2569 -1.14372 -1.08689 1.21516
1312 1 -15.2609 -7.74721 7.57219 4.20635 -3.37662 2.55125
1313 1 17.2295 19.2324 22.7074 -4.70804 1.23783 1.62449
1314 1 -16.6786 10.4277 -20.2127 2.16826 0.641859 0.983603
1315 1 -19.5255 -14.0713 -22.5631 3.95153 2.36543 -1.67517
1316 1 21.632 -11.6196 -15.8103 -2.13359 1.8477 4.72062
1317 1 -11.1242 7.86498 -13.4857 -0.376113 0.0643509 -0.370471
1318 1 22.0593 18.3966 0.29626 -2.03224 -2.21685 1.37238
1319 1 11.8325 21.9242 -0.341787 -3.11568 2.71168 4.16623
1320 1 16.4938 -8.4386 -11.8353 -3.14499 -0.38248 -1.5264
1321 1 8.95158 -20.8214 -9.4232 -0.254647 0.701179 1.81814
1322 1 0.400543 -16.0155 -6.84448 2.44766 2.53842 -0.983316
1323 1 13.9032 -13.4659 14.6948 0.654222 -1.54193 6.15306
1324 1 -10.0822 -20.6802 -19.8429 2.17406 -1.32311 -0.897063
1325 1 -5.31055 17.2964 5.3394 1.59398 -3.05539 -2.82018
1326 1 -18.062 -19.9671 22.3268 0.539191 1.74073 -3.57938
1327 1 -8.61528 22.2714 -23.1621 -0.50393 0.464668 1.43284
1328 1 11.7552 14.675 4.57752 -0.882088 0.254757 3.25694
1329 1 22.2389 -14.744 -2.56656 1.00901 0.962311 3.91033
1330 1 -9.43998 15.5763 -5.77571 -0.97419 2.80638 0.98855
1331 1 -18.2068 5.93669 -1.38332 -5.70322 -1.07054 -2.38683
1332 1 12.9624 -20.9323 -22.4594 0.5567 -1.93426 -2.45833
1333 1 -1.17584 10.2964 5.4753 -0.172147 -8.71861 -1.17902
1334 1 14.8989 -9.4088 -9.50936 4.44946 -1.00622 1.59336
1335 1 -14.533 26.9699 -15.6493 1.59609 -0.461871 1.15059
1336 1 3.17336 19.8233 -6.70573 -1.50744 -3.33915 3.01047
1337 1 6.93762 -20.4062 7.93289 -4.31926 -1.40444 -0.0916695
1338 1 -0.368454 5.83758 -0.730629 5.36319 3.66014 2.01646
1339 1 1.61633 -17.1373 21.265 -0.562672 -3.08982 1.43284
1340 1 -19.7515 19.1962 11.2322 6.00285 -1.41736 1.47387
1341 1 4.13351 9.15564 12.4298 -0.0972413 0.499556 2.59143
1342 1 3.56369 -23.7668 -18.2424 2.30163 -7.96104 2.17367
1343 1 -13.1772 -8.98043 -3.3725 -1.17204 0.0139079 -0.442366
1344 1 20.9636 -10.9236 5.71098 2.3458 -4.57124 0.280899
1345 1 21.6904 3.40185 -17.5281 5.19305 1.26618 -3.53313
1346 1 16.1373 -6.51401 -15.7509 2.11002 5.80425 2.85551
1347 1 -17.0322 -12.7257 -19.5778 2.78046 2.41634 0.278966
1348 1 3.33841 12.4267 -13.9711 0.199792 6.32127 0.721787
1349 1 1.33382 -11.5883 7.70767 1.3425 -0.17679 -0.0584051
1350 1 -15.1942 0.632413 -2.70945 5.09269 -1.27295 0.0251616
1351 1 19.1635 -14.9995 17.3265 1.52729 -3.29583 2.81828
1352 1 5.75753 24.9805 21.6324 -3.12605 2.50738 3.35993
1353 1 6.38241 23.7923 -1.43286 1.32921 2.77091 1.11118
1354 1 -1.44763 -8.20425 -14.387 0.968083 2.38783 -4.54175
1355 1 -4.65262 26.3991 17.772 1.59254 5.20948 1.39198
1356 1 -19.5706 -12.34 -1.46255 1.21146 -0.374674 3.57909
1357 1 -20.0774 -12.2726 -11.3109 2.20378 -2.2535 -5.35666
1358 1 -12.0366 25.0988 -23.5647 0.854569 1.37485 -5.55122
1359 1 -21.5895 46.5808 22.6709 -1.61712 4.36258 0.696702
1360 1 16.9294 -13.3568 6.69979 3.22223 4.613 1.50974
1361 1 -6.02839 -21.9283 4.53588 -0.204541 0.217301 -1.20889
1362 1 20.0153 22.7112 7.52374 5.28794 2.90527 -2.53056
1363 1 -14.7555 -11.4655 -18.8791 4.42616 4.50142 2.84325
1364 1 11.7457 -12.5197 -13.9147 1.80698 -4.01512 -0.5629
1365 1 6.22944 -6.06263 -19.1355 -1.36347 -6.14032 -1.30606
1366 1 20.3277 -16.2915 0.18628 -4.89007 -3.71191 -0.364028
1367 1 -10.2093 -12.3933 11.3996 -2.56365 -2.48449 1.94142
1368 1 -18.0972 17.7795 -1.07089 -5.08117 2.30474 -3.1702
1369 1 22.2814 2.35774 -3.63548 2.94443 1.52779 -7.65008
1370 1 -2.10826 -10.4299 21.801 -0.134624 4.55451 -0.329555
1371 1 -20.4054 11.094 -2.54878 -1.88559 0.973686 2.16045
1372 1 -9.03167 12.1998 6.98938 -1.92233 -1.12545 -0.773218
1373 1 -15.0325 -6.49136 14.2533 1.77693 -3.03117 -3.33302
1374 1 -18.3831 25.0894 16.3229 -0.224192 -2.36987 -0.179116
1375 1 18.8317 -9.49831 4.4627 -1.42933 -4.60685 0.6178
1376 1 5.21367 7.27501 -6.80201 -0.621936 1.6654 4.02186
1377 1 -14.4806 24.0551 -22.9937 -2.30879 -1.00175 -4.67657
1378 1 8.45159 -10.5881 3.07111 3.51493 2.46596 -1.60286
1379 1 -18.9506 -18.9391 5.12547 -5.00996 -0.0348466 2.60008
1380 1 14.6944 21.0735 -6.17329 -1.11955 2.9642 0.080918
1381 1 18.5 17.9591 9.79531 -4.66899 0.497215 4.44588
1382 1 14.4063 -12.8803 10.1772 -2.27023 0.548286 -0.805884
1383 1 -6.10738 45.0482 -16.1317 -2.11531 3.75369 -4.646
1384 1 0.596853 20.2679 -14.084 -0.963848 -1.81728 3.38351
1385 1 -18.5282 22.5242 11.5511 -1.81531 -4.61047 5.34324
1386 1 -7.90028 9.14093 2.19178 5.52212 -3.54728 0.250965
1387 1 -19.3035 -0.120324 -0.770252 1.55115 -3.09968 -0.443951
1388 1 12.0327 -4.4774 18.5857 -2.47522 -1.03722 -1.19456
1389 1 19.9042 -6.40376 0.692728 2.98941 -2.64593 -0.566311
1390 1 4.79752 -2.14029 12.3702 -3.07429 2.62703 5.33596
1391 1 -12.2773 22.1084 21.7039 -0.479064 3.96053 -2.84393
1392 1 19.8509 3.38418 2.28864 1.51879 2.38925 -1.29329
1393 1 -0.117891 -6.09759 1.19284 0.146595 -3.47578 1.95489
1394 1 4.78937 6.65741 1.06234 -2.63908 0.390134 -0.43509
1395 1 1.52108 9.91344 -8.00207 5.49016 -3.06785 -0.194157
1396 1 -18.2381 -9.29557 8.14231 3.45327 0.78144 0.636099
1397 1 3.10299 20.7857 -9.36214 -0.451505 2.08481 0.643425
1398 1 3.13067 21.2955 -4.06 -3.16967 0.405891 2.90097
1399 1 -1.78948 -22.9186 -2.4811 -0.316564 -3.19032 -5.96915
1400 1 -13.5009 16.4446 -21.873 -1.20385 1.02544 3.77797
1401 1 22.5472 -23.2409 21.3832 3.33828 -2.81086 -3.61661
1402 1 -18.9377 -5.12241 -15.707 -1.08366 -1.40953 -0.539785
1403 1 16.7746 46.2213 14.5135 -5.39557 3.08345 0.879009
1404 1 18.4441 -10.157 10.4195 -0.774156 -5.34178 2.87085
1405 1 20.5741 21.1658 -22.7411 0.812278 2.74328 -2.16696
1406 1 -9.49413 2.73753 -11.9031 -2.12875 -0.716606 1.8695
1407 1 -21.2381 10.0092 -0.0426394 3.17385 -0.726782 0.0987998
1408 1 -6.96883 -4.34252 -11.1279 2.39332 2.1401 -1.0809
1409 1 -2.78871 5.4234 -21.6774 -4.97893 3.43678 -3.59645
1410 1 1.17435 -20.4985 -19.8941 -3.67918 2.03201 -1.86495
1411 1 17.7048 -0.0706955 -21.8996 1.8144 -3.14062 -2.34822
1412 1 -20.4836 13.1546 -11.1787 0.241019 -0.721373 0.0403626
1413 1 -15.7502 2.90905 -19.8214 -0.8953 -3.03765 1.33136
1414 1 4.5246 23.3442 4.5273 0.77055 -1.48539 -2.2305
1415 1 -5.39763 -22.892 -0.415409 -0.109409 3.43007 5.57344
1416 1 -22.4565 -7.94671 8.1283 -1.49902 2.37383 1.05036
1417 1 10.7055 5.35481 10.8936 3.08524 -4.91527 0.742821
1418 1 15.3548 -9.47886 1.64859 -0.0657913 1.36617 -2.10597
1419 1 8.76546 21.3568 -4.08488 1.38814 -3.65626 3.02201
1420 1 -11.0121 20.3136 -20.4533 0.609692 -0.765398 0.837538
1421 1 20.937 -13.808 6.40047 -2.90032 -1.24495 0.138694
1422 1 -11.2751 -20.1094 -15.362 -1.40683 0.639575 -2.87922
1423 1 8.77901 20.8222 -17.4075 -1.28482 0.985267 -0.383357
1424 1 20.4826 12.8548 -6.42699 -0.906695 3.18756 0.0531343
1425 1 1.17314 4.453 -11.7735 -1.90816 3.87984 -3.3122
1426 1 3.8457 -19.5455 1.84693 -4.87439 -1.60982 3.10501
1427 1 19.1595 -15.2911 -2.01603 6.49966 -5.0402 -2.88294
1428 1 -5.54019 -13.0028 22.7558 -5.68145 3.69563 -0.206879
1429 1 -21.546 -16.2071 3.74729 -3.42259 -0.692627 1.12481
1430 1 3.60125 15.5222 4.76462 -0.847829 -4.36549 -2.05168
1431 1 -9.67964 1.22784 -9.56607 -0.651709 1.18025 -0.402603
1432 1 -13.5151 6.00981 20.9925 -0.708048 -0.8408 -4.83743
1433 1 -17.828 -12.5612 -16.5566 -3.18447 5.68279 3.84674
1434 1 -23.8577 6.72432 20.4771 1.55299 3.24914 -0.873908
1435 1 17.2471 21.5434 -3.76197 -2.26546 -1.13066 -2.08245
1436 1 -17.1577 -4.559 -13.5538 -0.309922 2.42155 -2.40408
1437 1 6.10917 15.1706 -21.0096 -1.26534 -0.466577 -2.98133
1438 1 -4.34957 -2.84713 -10.8347 -1.82986 0.292723 0.241539
1439 1 -17.8762 12.9039 -12.522 -0.655782 -3.0292 -6.48866
1440 1 -21.6217 15.1642 -2.08965 0.717959 -4.04801 4.27113
1441 1 -19.1762 -18.1146 16.4562 2.99191 0.632175 -4.07945
1442 1 -20.3746 -4.06073 -5.69441 -1.16914 4.44748 2.44374
1443 1 17.1549 -12.9883 18.1331 -2.58287 -1.14226 -2.41729
1444 1 14.4725 20.2843 -22.824 0.949482 0.831084 -0.919726
1445 1 13.4956 -21.1098 8.55898 0.298314 -1.23747 -0.392282
1446 1 3.83231 -9.78918 -9.78172 3.59258 0.501366 -2.72574
1447 1 -24.2341 -9.04008 -22.0367 -4.55496 4.45896 0.963369
1448 1 -16.554 4.48767 5.67553 1.90184 1.82067 4.3545
1449 1 9.75815 -3.82921 3.98072 2.56473 -7.25875 -0.184298
1450 1 -6.80955 -2.46369 -7.84808 -3.24243 -1.44224 3.33479
1451 1 11.4269 18.9097 -11.4701 2.39922 -1.23195 3.49633
1452 1 -4.85415 45.3813 -18.4384 3.6922 1.63983 2.48774
1453 1 -0.277366 -21.0956 -8.99769 0.812439 0.658835 -1.39067
1454 1 7.08677 -13.4144 -0.864446 0.339334 4.46342 -4.60589
1455 1 -11.7883 -17.5828 -5.01479 -0.514366 -0.814129 1.35497
1456 1 -15.4486 18.1754 12.9115 -2.5409 -3.05849 0.0193349
1457 1 -22.4078 1.20524 -18.6903 -0.01001 3.21874 -1.57154
1458 1 -20.0226 14.8262 9.53974 2.71077 1.09681 0.62664
1459 1 -12.7556 -14.2474 -1.90631 0.592281 -4.08374 0.890466
1460 1 -13.201 9.32153 -14.8485 0.378762 -1.14181 2.68162
1461 1 -14.3868 17.9074 23.4103 -3.10444 2.05613 3.62354
1462 1 -10.1488 -17.3487 8.92694 -3.32916 0.593098 1.03732
1463 1 8.36075 -0.88651 14.2604 -1.7872 -0.646595 -2.2698
1464 1 2.67994 -18.6011 6.22987 -2.32642 0.875012 -2.67957
1465 1 -20.8003 27.023 -11.7056 -6.36013 -0.895746 -0.0872295
1466 1 -17.0457 -6.13191 -3.28331 -2.07552 -0.419919 -2.14178
1467 1 22.6469 -16.5717 -14.9642 -2.32098 -0.323611 -4.34983
1468 1 17.8333 26.0662 14.6384 1.15139 4.75457 3.47849
1469 1 19.3867 11.7295 6.60209 -3.69547 8.98615 -0.987258
1470 1 -4.26472 -11.9262 4.86441 5.29904 3.27519 6.02358
1471 1 -0.851925 -8.41112 -7.11786 -1.68551 -0.76283 1.63165
1472 1 22.1966 2.54424 16.5602 2.59125 -3.74372 0.339127
1473 1 15.5743 -20.9813 -14.2601 -5.79625 7.01602 -0.383381
1474 1 1.16584 22.919 -22.8527 -1.82437 0.894002 -2.08965
1475 1 -21.0921 -24.5177 -4.18875 -1.08247 -3.51513 8.42645
1476 1 -19.0592 13.917 -18.1098 -3.20475 -0.820304 -2.02015
1477 1 18.513 -0.74396 0.2176 -2.2495 0.726411 -0.923292
1478 1 1.27634 2.5263 1.66571 1.23643 -1.53288 1.39217
1479 1 9.71922 -11.5701 9.5148 -0.859813 1.86566 -2.09951
1480 1 2.22903 11.3177 -5.5316 0.227087 3.06405 2.98428
1481 1 -8.39423 16.5038 -3.12555 1.71595 4.56227 5.45594
1482 1 5.60263 23.6228 -21.404 4.75164 -2.59236 -3.98451
1483 1 10.947 46.2111 -19.1048 8.57404 1.59403 2.60881
1484 1 -3.92464 12.0746 7.19849 5.44896 -1.54966 0.88676
1485 1 6.09167 -11.2158 23.7387 1.3306 -1.7328 -2.99978
1486 1 -17.1389 -4.09331 17.679 0.305702 -0.798452 1.41204
1487 1 -1.50799 5.81041 -14.2114 0.15517 -0.962887 2.59296
1488 1 -18.8413 -15.4865 15.1425 1.02142 -2.40399 -2.49894
1489 1 21.8209 15.4684 -0.0982195 0.764616 -1.06238 3.328
1490 1 -22.1946 7.3195 -3.62328 1.58898 2.84312 1.85306
1491 1 16.3002 4.56842 -9.03647 1.57867 -1.14269 -2.45835
1492 1 -12.4145 15.1274 12.4301 1.9434 1.92895 -1.60764
1493 1 -1.07464 -8.51697 -11.609 -0.00138199 -1.72416 -2.27458
1494 1 -11.4321 5.98859 -20.2405 0.760996 0.00502157 -3.90473
1495 1 -17.3866 -8.01398 23.0627 2.03503 0.863959 -2.61
1496 1 -3.60036 8.95402 -9.96772 -2.46545 3.1441 -0.838337
1497 1 14.5071 -11.7524 -18.6154 4.02053 -1.65952 -1.67896
1498 1 -13.3216 8.0746 13.1102 2.07531 2.40207 0.887695
1499 1 17.9049 6.18666 22.5132 -0.943407 -3.44204 -4.06003
1500 1 -16.9921 20.0873 14.4536 -0.947692 1.73899 1.52304
1501 1 7.13024 14.5274 -18.3536 -0.169726 2.0729 6.6774
1502 1 -22.3618 -5.74362 -6.75437 -3.37383 -0.110354 -0.651478
1503 1 10.1278 25.4339 -22.9058 -1.51261 -5.35791 -0.483602
1504 1 -2.16918 -23.0854 -7.96793 3.81977 6.57985 -1.55485
1505 1 18.255 -23.3033 -20.7022 1.13322 -5.48841 -2.54148
1506 1 15.389 13.2044 -3.32141 2.16602 1.06314 -5.50585
1507 1 -21.2441 20.9454 -4.14033 5.6126 4.92769 -2.52509
1508 1 21.6223 -10.8981 -4.43898 2.92025 -0.353096 0.249905
1509 1 10.9128 21.6743 -11.0317 -1.43957 -1.88573 0.525902
1510 1 -15.5302 -10.5389 0.571372 -2.42934 3.42182 -1.3019
1511 1 -21.4374 -4.34489 15.4197 1.48654 5.60326 -0.383823
1512 1 -12.3122 -11.346 -1.85082 3.11909 2.95641 -0.747765
1513 1 -19.2388 2.37209 15.6166 -5.16884 -4.14831 3.01186
1514 1 -13.6104 -2.28137 -7.99398 -3.01572 2.32587 5.07627
1515 1 -5.16994 -20.4424 16.9673 -3.07946 3.02636 -2.63355
1516 1 -10.074 24.3108 -21.6686 1.62002 -0.942816 1.55438
1517 1 -23.2305 -15.4501 -9.1058 -1.058 0.50371 0.414823
1518 1 0.593822 14.9963 -23.8442 -4.2837 0.252984 2.48895
1519 1 -12.8815 -18.3308 2.52237 1.0916 -3.6132 3.00857
1520 1 11.0762 3.83505 -18.6056 6.44722 0.628342 0.199727
1521 1 -9.04704 -8.57315 17.5658 -0.332382 3.45345 3.27119
1522 1 -16.2612 0.654057 -13.038 3.60291 0.67203 1.67163
1523 1 -6.63008 7.36113 15.9337 -1.88517 0.453756 -0.218643
1524 1 0.604661 -19.1529 7.98725 -3.70434 0.780899 -3.4845
1525 1 -8.74157 -5.69547 4.21684 -0.412891 -2.88882 4.08673
1526 1 17.5196 24.0622 1.33412 -0.675168 -2.20462 4.05023
1527 1 2.05476 -0.951953 -6.82398 0.818598 2.88388 1.01905
1528 1 12.0556 13.4864 15.7224 0.871235 2.61227 -4.01384
1529 1 -6.6798 3.36599 13.5185 1.11647 -1.84231 -2.03063
1530 1 16.3374 18.4722 5.07923 1.22432 2.99541 -4.87881
1531 1 8.42994 -8.22627 10.0631 1.25748 -2.9189 -2.58204
1532 1 19.3208 -7.15285 -18.0973 1.33106 -2.80443 7.54625
1533 1 10.7698 23.3136 12.0624 -3.1704 4.50902 3.06738
1534 1 -16.0004 -6.57451 10.1469 -2.80756 2.99097 -0.366387
1535 1 0.747528 -9.0574 14.1005 3.46675 -1.48632 2.03392
1536 1 -9.77394 4.1181 -23.2474 -2.04893 -1.15699 -2.21695
1537 1 -2.84687 25.6637 -16.9878 3.41068 -4.42526 -3.00615
1538 1 4.5807 18.5012 15.8611 -2.26671 -3.68058 1.19292
1539 1 0.972792 8.33064 -20.1952 -0.782912 2.1068 6.8151
1540 1 -20.9948 5.71414 23.4574 0.442849 -2.19956 -3.11904
1541 1 6.31785 -20.9374 -10.722 2.15421 -1.53294 0.284838
1542 1 -20.3076 -3.03878 17.6689 -3.48004 3.91182 0.758245
1543 1 2.84844 0.990112 17.6846 -4.82732 1.37225 -0.248075
1544 1 -4.10905 21.7487 -19.5708 -0.640956 0.0624354 -1.18204
1545 1 -5.0679 -12.953 14.7752 1.86723 -3.26357 0.324297
1546 1 -15.2863 -12.1797 19.5922 -2.38207 -2.16767 -0.353548
1547 1 18.6876 -3.7472 -0.170435 9.48529 -3.26671 -1.70602
1548 1 18.6334 -22.396 -7.46723 1.2227 5.05373 -0.845402
1549 1 -3.76162 -2.33939 -17.1606 1.13216 3.14756 1.88539
1550 1 -0.619238 -11.0802 -10.5089 -2.48606 -4.4228 0.682363
1551 1 11.076 -2.94981 -5.24889 1.71966 -3.75652 -0.526593
1552 1 17.9493 9.96325 -16.3891 2.10135 -4.49564 0.556796
1553 1 -10.0237 21.2467 -15.3656 1.00913 -4.1924 1.21487
1554 1 -9.52001 -7.95292 -18.5053 1.08401 0.392783 2.64084
1555 1 -20.937 -3.92153 -2.92701 -0.0268901 3.97439 -7.79477
1556 1 -23.39 -19.0839 -10.7079 0.653 -2.97986 -2.05016
1557 1 8.53683 -23.996 -17.4853 1.03959 0.445199 -2.5128
1558 1 9.14081 -17.1256 -0.673456 -3.24263 1.79979 -1.18911
1559 1 22.1282 17.9199 2.9158 6.73439 0.119572 1.05116
1560 1 -18.4796 -19.2845 19.3207 -4.85648 0.710395 0.800959
1561 1 20.2354 18.2206 -4.42324 -2.15684 -1.97711 -0.0860703
1562 1 -1.2881 -3.30507 0.85349 -2.78906 -1.5353 1.40386
1563 1 -5.52051 -4.12833 12.2768 0.0103209 -0.00753756 0.321298
1564 1 8.29791 16.4722 -8.02581 -0.387523 1.62739 4.96231
1565 1 -4.55114 15.0096 -13.5825 -1.20486 1.34319 4.41311
1566 1 0.410561 -8.22997 9.57078 2.61268 -0.0277963 -2.50072
1567 1 1.37026 -11.1153 -22.2806 -1.03497 2.77877 -4.63954
1568 1 17.1567 22.0136 -9.16856 3.03219 0.724637 0.784399
1569 1 8.8038 12.057 2.78448 -3.13086 1.43085 0.695667
1570 1 -23.6678 5.46653 -13.9417 2.51884 -7.13749 2.78857
1571 1 -1.53534 -12.5469 -1.08463 2.48622 -2.37271 -4.86221
1572 1 -0.197363 -16.3944 11.3161 -1.12276 -4.43789 -4.62106
1573 1 -11.5173 -13.2449 17.5525 -2.24545 -0.821107 -3.53572
1574 1 17.996 -18.2075 2.19714 -5.05879 -1.24257 5.52047
1575 1 -15.2432 15.2683 4.21587 5.99862 -1.40152 0.0706642
1576 1 11.6214 18.3065 -19.3564 -2.33043 0.483815 3.37449
1577 1 16.6153 45.9924 3.98229 -1.7842 4.66622 0.901726
1578 1 15.9141 -1.63673 -10.4847 0.533185 -3.25311 -3.0747
1579 1 -6.53861 15.0232 -6.17466 -0.0810742 1.49278 0.512184
1580 1 -15.8093 -23.6287 -7.81137 -1.807 -1.88596 -0.577665
1581 1 -10.0639 -5.82483 11.4169 3.76498 3.66263 0.45287
1582 1 -13.6118 8.86477 -1.10934 -3.29097 -2.89544 -3.12113
1583 1 10.3574 -4.33717 -3.04544 0.867299 -3.31366 1.06953
1584 1 -5.05529 -0.808905 19.0536 0.761036 0.751379 -0.742893
1585 1 -8.67885 -13.4764 20.614 -3.04569 2.92642 -1.21544
1586 1 -18.2857 -23.6476 -0.519676 1.60697 -3.2855 -0.616016
1587 1 17.4333 -5.74791 -11.7456 -1.7787 3.75178 -1.54123
1588 1 2.16694 20.957 -20.8084 -3.49785 2.26059 4.38094
1589 1 -10.6001 -21.4702 -3.26342 2.09003 -0.157035 -0.422607
1590 1 20.6142 9.70936 -14.6187 -3.04625 1.86576 -2.32401
1591 1 14.773 12.8338 0.745256 1.93629 -1.28919 2.13257
1592 1 19.4841 8.64055 15.1328 -2.70095 -6.56503 -2.98349
1593 1 -0.271984 24.2309 -16.4027 -1.91589 3.9068 -1.54493
1594 1 10.1837 2.69357 -3.1496 3.33157 0.926695 -1.56309
1595 1 8.01042 14.2933 -4.38476 -2.59198 -0.627996 -2.15136
1596 1 -5.36445 0.145783 -16.8894 -4.13038 -0.240629 -0.945519
1597 1 18.4367 45.4689 6.00355 4.56553 -0.719126 -2.94605
1598 1 5.3715 15.5616 2.22113 -3.24709 -0.0163093 -2.94826
1599 1 -21.6686 -2.69069 11.2956 0.587511 -3.26873 -1.07114
1600 1 15.6922 -15.597 -15.9913 -3.48926 2.9238 -1.40291
1601 1 6.07676 13.0036 -15.1832 1.03375 3.21206 -0.934752
1602 1 -19.8669 -12.2145 -18.7967 0.325897 -0.231123 -2.98683
1603 1 4.62119 -10.8681 -13.6171 1.39807 -1.81509 -4.13204
1604 1 21.9403 -15.2525 -17.5607 -3.50956 -0.0685223 0.632882
1605 1 -2.22189 -0.778887 -10.2352 0.450705 1.75859 -2.07113
1606 1 -20.8124 18.364 4.95313 -4.10813 1.15742 -4.39291
1607 1 12.3493 -24.3032 -16.5465 1.1733 1.74229 2.56498
1608 1 23.5052 4.3371 5.90328 3.45999 0.858794 -1.38851
1609 1 -20.4743 22.6306 -17.2775 -1.96621 -3.06434 0.17474
1610 1 -10.8624 22.0527 -12.6911 -0.690032 2.05038 -0.307417
1611 1 6.88982 9.89941 -3.6331 0.741146 -3.39111 -1.26094
1612 1 -23.3654 -19.3441 11.8776 0.279894 -0.770482 -2.25221
1613 1 -2.77853 -15.1805 -1.41021 -5.1626 -3.67707 0.564751
1614 1 -14.4567 -11.3095 4.74441 -1.25142 -1.37627 0.602326
1615 1 -2.95599 -17.2016 -14.7323 0.641862 0.111592 -1.97715
1616 1 16.3154 -12.8563 -20.8113 5.25855 -4.45728 -1.85331
1617 1 -12.5232 -13.8523 -10.6641 -3.52169 3.23487 4.41995
1618 1 8.9927 17.7163 16.5442 -1.10864 -0.764714 2.97153
1619 1 13.7201 15.1678 17.304 -0.389189 2.61433 -0.0220313
1620 1 14.1119 -8.56808 -5.80747 0.457109 -2.16341 -3.40124
1621 1 -15.2906 4.79535 12.1329 -3.99035 -0.0466003 -0.513729
1622 1 -14.961 22.2934 14.4546 -0.0902685 3.49344 -2.07972
1623 1 -10.3594 -15.6251 12.7346 1.15753 -4.47742 -1.87029
1624 1 6.54336 21.4061 -19.5747 -1.92429 -0.510302 1.26404
1625 1 12.1559 12.0657 -11.3809 -0.331505 1.48267 1.96403
1626 1 15.3841 -1.86934 11.9273 -5.20064 3.93017 3.70161
1627 1 20.1959 -7.01088 22.1526 -1.16859 -0.331783 -4.14202
1628 1 19.1173 3.06243 -0.593249 -2.71732 -4.10805 3.01852
1629 1 -7.12924 -23.9186 17.0316 0.618041 -3.06933 -4.37629
1630 1 10.7062 -10.8302 21.2534 2.28899 5.95201 5.80605
1631 1 23.545 -19.5769 8.88642 2.30514 -1.66637 1.33979
1632 1 -5.79263 4.89213 -21.255 -3.275 1.77467 -0.129651
1633 1 19.0684 19.7571 -19.5126 0.630849 5.71219 1.10165
1634 1 -18.291 -11.209 -21.8716 -0.994252 -2.29121 -4.22764
1635 1 7.66045 -14.5842 -12.3076 2.63499 -2.9788 -10.1464
1636 1 17.5819 -11.2595 15.5453 2.55806 0.815864 -5.21839
1637 1 -0.568357 21.1572 -2.18015 1.54934 6.1833 -5.27063
1638 1 16.4575 -4.02571 -19.2687 2.17083 -2.09184 -0.386671
1639 1 13.7765 10.6778 17.6874 4.59359 2.10016 1.80147
1640 1 -15.8927 -23.8045 -12.6266 -2.70081 1.1335 3.2486
1641 1 19.9721 -12.7929 19.3324 1.88355 3.66808 3.54827
1642 1 -2.76998 22.8473 6.25655 -2.5428 -0.654531 6.93526
1643 1 -6.19018 24.6826 -10.0522 -1.38507 -2.30875 -1.59098
1644 1 -16.9072 2.87592 10.1491 -1.6707 -7.58035 3.21382
1645 1 -5.08069 -4.78013 -5.20202 -2.08327 0.180098 2.56052
1646 1 -21.5828 -6.16313 -19.1044 0.375932 -0.771116 1.17288
1647 1 17.2582 12.6337 -17.2931 -1.93752 -1.25006 0.229906
1648 1 -20.8385 -16.4652 -23.4941 -0.707214 -2.56127 3.45894
1649 1 -16.3429 -6.835 -9.09423 0.540791 3.31565 3.4873
1650 1 11.5776 -5.22422 -14.8993 2.06632 -0.824898 -1.98056
1651 1 15.8515 -20.1016 -2.11103 1.19072 5.374 0.591245
1652 1 13.7567 5.29949 -18.3788 5.95287 5.24961 -0.941074
1653 1 13.4248 46.2335 2.20443 4.76869 -3.31574 1.30121
1654 1 6.08687 -17.5247 12.8199 -1.33618 0.907734 2.30714
1655 1 -3.91347 14.4016 11.8144 -0.252206 0.628884 2.75017
1656 1 -4.40509 13.8226 19.344 2.29101 -3.11025 0.839294
1657 1 15.5661 8.06758 -11.5888 -3.44399 -0.460518 3.04757
1658 1 -18.9204 21.8319 6.84441 -4.08806 -2.37208 2.17835
1659 1 -6.85045 -23.3152 6.95768 -0.820839 -1.63272 -1.32088
1660 1 3.49755 -9.344 -23.5087 -3.84959 -1.34045 1.22196
1661 1 22.8533 -1.57142 15.2165 1.46196 0.454481 8.02288
1662 1 -8.32899 -23.5737 -9.71126 -0.459105 2.49496 0.577732
1663 1 -15.3009 -0.866276 -0.48307 -2.62304 -0.556007 -1.89129
1664 1 3.81332 -15.083 -14.803 4.15583 -0.114578 -1.40669
1665 1 -5.83231 9.13492 18.552 2.60562 -0.177823 1.94976
1666 1 17.1611 -10.15 -16.5062 -2.2883 9.4638 1.09365
1667 1 -11.9561 -2.24928 7.04536 -5.62838 -3.66316 -0.547982
1668 1 -8.94947 19.2024 7.89311 -2.20105 -0.748953 1.11433
1669 1 15.4927 -23.503 -13.3257 -6.01388 -6.51358 -0.170006
1670 1 3.9045 13.1351 -3.92851 -0.762533 0.0668109 4.7337
1671 1 -14.3178 12.2894 22.5885 8.10973 0.760056 0.510936
1672 1 2.18364 12.4367 23.4324 -1.59584 0.313982 -1.21607
1673 1 -0.475192 -16.6271 -0.522209 -0.762508 2.8532 -7.46514
1674 1 2.36125 -5.89258 -5.92856 -2.08032 1.8869 2.45688
1675 1 4.44896 9.1488 15.4974 -0.181393 3.02927 3.26219
1676 1 -18.372 1.68191 -4.60245 1.58061 -2.68456 -1.19777
1677 1 22.3709 -15.4861 10.223 -1.69334 6.41582 3.50283
1678 1 3.55721 23.5305 -16.3719 1.38122 -1.61598 -0.614745
1679 1 -7.38906 24.1446 19.5511 1.06963 3.08831 -4.22593
1680 1 -23.3471 -16.252 -20.8193 2.9158 4.08559 1.47566
1681 1 -15.6684 -8.19946 -20.3012 1.01406 4.36886 -0.596233
1682 1 9.37075 8.40826 -0.242553 3.96712 -0.487533 0.272995
1683 1 14.4807 25.7496 -17.0255 -2.35071 0.0505217 0.895427
1684 1 4.97705 15.9888 17.4233 4.79624 1.16341 0.231161
1685 1 -20.9316 17.2681 19.7689 0.512229 0.665449 -3.05409
1686 1 11.4106 -9.21849 23.4792 3.05569 2.74919 5.81908
1687 1 20.107 -15.5855 -14.0318 -3.02536 0.175142 -0.483738
1688 1 -18.0353 -2.51952 -11.6489 -2.01657 -1.49482 -1.72667
1689 1 2.36974 -22.896 -1.36877 -2.14841 2.63584 -0.397379
1690 1 -6.49838 -22.8954 11.7344 2.5733 2.48856 4.7219
1691 1 -15.7357 -10.4423 7.14895 1.10945 -0.289317 0.781779
1692 1 -6.51772 21.6934 -6.4448 -3.75147 0.109334 2.17276
1693 1 22.2756 11.9725 22.6153 3.17879 0.145489 3.67202
1694 1 -15.1817 5.03847 -9.59847 0.980936 -0.967441 0.656018
1695 1 18.3704 -24.2289 -9.61101 -2.01465 -2.95966 -0.909137
1696 1 14.1447 1.32864 3.54615 1.20492 3.48906 1.18246
1697 1 -12.2643 -22.2206 5.0355 -4.61672 -1.30749 1.66068
1698 1 -9.91599 10.2062 -2.064 -2.46598 0.888856 -5.5502
1699 1 12.5476 -1.38993 12.0614 0.21646 0.398514 -2.92107
1700 1 13.8279 0.0488695 -14.1878 -3.69518 1.16498 1.7629
1701 1 10.6734 23.3299 -3.80686 2.8569 1.92646 -3.62417
1702 1 3.94663 -21.3907 9.86156 7.47039 -7.32814 3.30054
1703 1 3.2572 2.72389 -14.9818 -3.56428 -0.701091 0.413034
1704 1 -8.31185 -9.20867 5.31086 -0.886684 -3.06594 -4.34258
1705 1 -0.448504 25.5155 19.3252 -0.433444 -1.91782 -4.77392
1706 1 9.90933 8.8588 -19.9856 3.0608 0.00547782 -0.443208
1707 1 -11.8717 -8.7825 17.1418 -2.24959 1.6941 -0.391794
1708 1 -7.05216 27.0198 16.5627 -2.20119 -1.27298 -0.166477
1709 1 15.8021 18.2107 -0.660101 0.948217 3.66631 -1.99359
1710 1 -7.34938 -20.5082 -13.3186 -0.137939 -3.52748 -0.392087
1711 1 -1.28987 2.5973 3.20188 0.679334 1.228 3.37593
1712 1 10.0779 14.7014 -22.5339 3.52827 2.73673 9.59242
1713 1 21.2918 17.95 9.76359 0.541443 1.50022 -1.54316
1714 1 5.46476 -1.10239 -12.407 -0.69099 0.345183 0.306342
1715 1 11.0081 26.6811 17.5853 1.40315 5.26204 1.09953
1716 1 15.0711 45.9958 -23.9206 -4.85389 2.96216 -4.39549
1717 1 10.7847 -16.6883 -3.05538 4.15146 -0.29764 4.60427
1718 1 7.42333 -18.8742 -12.3993 -1.2415 0.185415 2.68953
1719 1 22.4859 9.24128 -1.40429 -5.97427 0.186756 -1.03001
1720 1 -4.35482 -22.0185 7.67413 -2.66642 3.31004 2.85466
1721 1 6.54579 3.02472 11.6054 -2.61613 -0.291532 -0.351247
1722 1 20.8507 45.4288 15.0113 3.07495 -0.249437 -1.21553
1723 1 -23.0396 19.0144 3.34965 -2.87921 -2.35418 -2.44553
1724 1 -16.6331 46.5975 -5.38352 4.89884 -8.03883 2.98254
1725 1 -15.2126 9.2364 -22.19 -2.24947 -5.2347 -1.31066
1726 1 18.5108 21.4893 23.5346 -1.57337 1.06568 -0.424674
1727 1 22.8113 -6.61029 -20.5267 7.41577 -1.41055 2.64614
1728 1 -21.4493 -8.98854 -19.912 -0.86469 4.29895 -4.68869
1729 1 -14.1278 10.8256 12.6663 -1.72707 -0.328247 -6.02384
1730 1 -3.79144 -8.30451 -21.2058 -1.02918 -3.20775 6.17743
1731 1 21.6443 3.84544 -1.53642 5.56279 -0.398702 2.98724
1732 1 13.8583 -13.1244 7.11622 1.47308 -5.09527 2.01998
1733 1 -9.62466 -13.8437 6.0713 1.15556 -1.69366 -2.85815
1734 1 -7.71138 25.5073 -20.564 -3.99652 0.995103 0.175636
1735 1 2.68549 20.1365 -17.9266 1.05258 -2.16883 1.07041
1736 1 19.0646 2.19961 10.5828 2.63869 4.4405 1.20072
1737 1 -18.3613 -0.200224 -8.15969 0.173994 -4.96132 -2.34872
1738 1 7.24327 12.3346 -21.2788 1.71464 1.28856 -0.94728
1739 1 -7.52114 -17.9848 15.9578 1.2609 1.80415 -2.76883
1740 1 3.47757 21.2496 19.3692 -0.422031 2.47303 -2.5369
1741 1 12.453 12.6987 22.0688 3.11483 -1.68343 1.59508
1742 1 0.5802 -7.825 21.2374 -0.864463 -0.925761 -0.554801
1743 1 19.4516 -16.9841 6.6406 1.13415 1.26089 0.716289
1744 1 14.0074 23.6997 -6.973 -4.09206 -1.25333 -4.47928
1745 1 7.27958 11.0369 -7.94461 5.64226 3.67484 0.259634
1746 1 17.1821 23.9154 -13.0001 2.59511 -2.19636 0.531571
1747 1 5.21096 -14.9454 -6.87831 -0.978632 -3.42534 -4.21238
1748 1 15.7585 -0.283144 -5.0361 3.97691 -1.90352 -6.78135
1749 1 21.6347 11.6241 12.6048 1.51692 4.7253 1.41324
1750 1 13.9169 27.0777 10.611 -5.95144 1.31401 1.64207
1751 1 -0.206289 -11.2452 15.7311 -0.181698 0.511053 1.32252
1752 1 -22.7786 16.3524 -18.4747 -3.59108 6.76687 0.130865
1753 1 -20.5948 -14.9947 -20.0212 1.74515 0.118288 -2.48715
1754 1 -23.8003 10.9972 -20.5546 -1.62499 -0.386388 0.633457
1755 1 -9.92945 -1.3615 -10.7416 3.52577 -4.0187 3.70147
1756 1 -17.0022 5.20135 8.38582 0.379622 -0.090185 3.4337
1757 1 17.4881 -18.2506 -6.8367 -3.6112 -1.64059 -2.02294
1758 1 20.6218 -24.1342 5.36553 -0.578976 -4.42437 2.61103
1759 1 22.6241 9.08279 11.2838 1.24612 -5.30027 2.334
1760 1 -16.3173 -12.699 -23.4564 2.06848 0.679716 1.68389
1761 1 21.7842 -19.2049 -22.2194 0.285168 -1.10508 2.09452
1762 1 6.7098 19.0293 7.16311 4.07323 1.33463 -3.28088
1763 1 -4.2838 2.76514 14.8577 -1.37833 -1.11743 3.80613
1764 1 -15.8625 18.9605 -12.0486 -1.38047 1.19918 -2.40827
1765 1 2.96858 -16.5013 -5.41404 4.34056 -3.31395 -1.08351
1766 1 -16.6622 3.53208 15.6342 0.390622 1.63902 -0.326435
1767 1 8.366 27.3657 18.0918 2.09989 -2.28461 -2.47733
1768 1 11.7649 -0.938345 6.88712 -1.67005 -0.894421 -0.684994
1769 1 -23.1804 18.7342 14.8159 -1.66618 0.717221 0.492082
1770 1 -7.81411 -2.76404 -23.1098 -4.46476 -1.17224 3.75223
1771 1 -0.0338809 21.4631 11.0638 -4.17836 6.29954 -1.45296
1772 1 13.3062 -22.768 0.266987 -0.82871 -0.955325 2.26767
1773 1 17.7861 15.617 11.1149 6.26052 1.31615 -0.818451
1774 1 17.201 -20.9024 21.6875 -1.24342 3.16492 0.68082
1775 1 9.34326 12.9509 -11.5932 -1.3539 -4.26093 -0.196566
1776 1 9.70802 9.26155 -3.94557 -2.80527 -2.19446 0.23016
1777 1 -23.3149 -12.8463 16.5291 1.73721 -0.702214 -0.168878
1778 1 -17.0915 -8.39247 -11.3797 5.73649 -1.82479 -3.23198
1779 1 4.49725 3.81158 -9.02428 -6.54919 2.94756 -0.71909
1780 1 6.83435 5.0025 -7.77545 5.23389 -4.12565 -0.451715
1781 1 7.98718 18.9385 -20.7243 -0.892385 -6.09666 2.4024
1782 1 -24.0303 -15.9387 -12.0153 -0.822686 -5.5738 1.13524
1783 1 14.2315 5.08029 -6.95365 -0.135873 1.06356 -1.17972
1784 1 -10.2509 15.7758 16.1799 -3.91291 -1.58314 4.41493
1785 1 -6.15731 6.18023 -8.32466 0.295971 3.78505 1.29828
1786 1 -5.43486 1.89508 -6.90999 3.59329 -0.779732 0.47308
1787 1 7.72108 19.6562 -10.9592 5.46328 3.06528 0.311989
1788 1 -13.3915 -17.0771 15.6731 -1.58839 -1.85328 -1.43134
1789 1 22.7656 -1.69144 -5.08227 -3.77863 -5.27316 1.09257
1790 1 6.85295 0.694073 -14.2039 -0.70056 -3.4296 1.43137
1791 1 0.961523 -9.84434 -14.3439 -2.78518 3.67208 -0.294919
1792 1 -14.0476 7.18326 6.55135 -4.4581 1.73829 -4.93686
1793 1 20.8391 7.77908 -22.6246 0.131544 -0.106218 1.88317
1794 1 19.9313 1.61225 -21.9904 -3.06411 -2.48268 0.986182
1795 1 18.7829 -2.42976 -10.7516 -4.95641 0.585324 -1.81376
1796 1 -21.5694 -11.8892 -23.4077 -5.35599 0.696214 -5.31151
1797 1 0.0166538 18.4623 17.0836 -0.130325 -1.42974 0.536434
1798 1 17.2408 -8.79356 -18.8917 0.424643 -2.8872 1.26544
1799 1 -12.5923 11.6517 -16.43 -0.713625 -0.0216622 -4.65056
1800 1 -0.286432 4.26922 14.8569 -1.80634 1.44876 -0.342244
1801 1 -7.71364 -19.0282 -6.7736 0.427295 0.346471 -4.70784
1802 1 -14.5435 -21.4531 -12.6802 1.83449 -2.56086 1.49382
1803 1 -12.4292 14.4955 -8.12713 0.864889 -2.43834 0.293885
1804 1 -1.17895 45.4778 -17.4757 3.77848 -1.13166 -0.298165
1805 1 10.8205 1.7577 -5.74765 3.34429 -2.21264 1.09562
1806 1 9.59587 -5.97242 18.1375 2.68228 -7.47844 0.691627
1807 1 -14.5413 -8.67509 -23.9956 0.777966 -5.05992 -1.93721
1808 1 21.9411 -13.8632 17.6214 2.07994 -7.66711 -2.9633
1809 1 8.69732 16.0163 0.952811 4.11697 -2.15151 0.774426
1810 1 10.9832 -23.3575 -7.14102 1.58516 -0.165884 -2.50058
1811 1 0.406313 5.31216 22.1358 -1.84025 -2.85569 4.46711
1812 1 -12.5572 -4.98012 -19.5316 -0.177335 -1.59379 -5.18131
1813 1 -16.4746 9.7125 17.798 4.86368 1.75155 3.38893
1814 1 10.2436 2.7718 -9.2924 -1.14242 -4.13619 -0.518657
1815 1 16.0852 -10.3811 22.1914 4.7748 -0.333478 5.35066
1816 1 2.64637 17.9541 -10.1067 -3.85408 2.63993 -6.22092
1817 1 -0.561263 17.1124 -16.9294 2.16543 -2.675 -3.80858
1818 1 -24.0963 -12.2894 6.56879 -2.13047 0.677043 0.478265
1819 1 -13.4865 -11.1719 17.5681 -5.06915 -1.21007 3.77511
1820 1 14.4053 10.5832 -12.8511 4.449 -0.663254 1.84016
1821 1 20.3627 25.4853 10.3419 1.9734 2.74484 -1.88913
1822 1 16.8405 -2.17315 -3.28176 4.60757 -4.16695 2.82784
1823 1 8.49149 -22.8877 8.33152 6.71394 -4.20003 1.90332
1824 1 -16.7599 -17.6354 9.62416 -4.3892 -3.77413 -0.939332
1825 1 7.84198 -10.804 -5.5837 -2.62491 -3.08401 1.08902
1826 1 20.6715 9.31497 2.92884 -2.55699 -1.78113 -1.568
1827 1 17.1286 -23.7772 -2.38046 -2.10115 2.38474 3.21684
1828 1 -12.5158 -21.9098 -19.8725 -1.01732 -0.905893 -0.280703
1829 1 4.74565 19.9694 10.9973 1.72362 3.26196 -6.90794
1830 1 -17.0964 1.9904 -15.4584 -1.16363 -0.939647 0.0158067
1831 1 13.8037 -16.424 -3.42993 0.265674 -1.98496 -2.82927
1832 1 -21.4432 -13.2568 21.8543 -5.94399 -2.20347 1.2973
1833 1 -11.0813 5.88809 19.7862 -1.12072 3.88177 -0.386262
1834 1 9.79282 -9.58419 -22.0939 3.0293 2.19697 1.25306
1835 1 5.1884 23.4156 19.2972 4.55004 -3.5443 -0.0174551
1836 1 -9.85533 44.532 -20.0304 2.32876 0.475224 0.262447
1837 1 13.1328 -23.8682 8.62652 -0.509835 -3.81721 -2.98499
1838 1 18.7012 21.804 2.77175 -1.92288 2.27759 0.468201
1839 1 18.6735 24.5669 4.21877 0.979007 -3.38112 0.888219
1840 1 -18.3681 -10.9427 3.31617 -4.41664 1.58354 -4.37328
1841 1 8.32716 -23.0258 -11.3737 -2.19735 -2.83682 -0.0517191
1842 1 14.4265 -21.4971 2.66468 3.14062 1.92899 -4.36413
1843 1 2.23921 -4.29526 -15.5443 1.11549 2.9199 2.24423
1844 1 -3.35903 -1.40086 7.38513 -2.56194 -2.5734 0.258725
1845 1 22.6258 17.5321 -19.3043 -2.36836 0.410334 0.526425
1846 1 11.6528 -19.8544 6.54222 -2.16076 3.27636 -2.36054
1847 1 19.8555 -17.8458 17.1853 2.61071 4.29922 3.21058
1848 1 4.83953 9.0235 -19.1882 0.122076 -3.90997 -7.03567
1849 1 12.954 46.4075 -13.671 -3.84502 2.74041 1.25432
1850 1 18.9541 -19.7896 -8.63794 -2.08453 0.963602 -2.86974
1851 1 -5.47788 3.50929 -0.0621135 3.21279 -2.073 -3.91167
1852 1 -0.963166 -0.874976 -17.4567 -0.38558 -4.39221 4.08491
1853 1 4.22253 -11.635 8.40303 2.84196 2.55883 1.88828
1854 1 2.8872 -23.9018 13.8822 4.58535 -1.59248 2.88747
1855 1 1.59007 22.7448 -14.7625 4.33652 -2.13193 -1.12212
1856 1 8.14883 -7.87694 -18.2994 -0.889818 1.88326 -2.36571
1857 1 -1.72686 -18.8584 -2.16808 -2.41962 1.83395 -1.09128
1858 1 2.97066 -17.6829 -13.718 -2.6212 -0.801397 -1.22483
1859 1 7.56049 -16.4359 -17.2291 0.337915 2.04113 0.442207
1860 1 6.44974 0.108155 11.9972 -0.592876 -1.77196 -3.39179
1861 1 -16.7526 -22.3458 -18.1918 -2.70995 -7.59494 2.0827
1862 1 -10.8757 -3.45134 -8.83934 0.585459 -1.77718 1.39815
1863 1 -3.6232 -17.1522 -7.81846 -3.18307 -1.1285 -0.242156
1864 1 -7.08344 13.2064 20.1568 -4.30323 0.174443 -0.550582
1865 1 -9.51094 -3.58965 6.78473 -6.17329 6.17642 0.807221
1866 1 5.71069 23.8745 12.1398 -1.14136 -1.94879 -0.00815571
1867 1 6.47011 -9.73583 -3.46715 -1.60992 -3.27456 1.80928
1868 1 -3.7247 2.18221 18.3 -0.144692 -1.99311 -0.201438
1869 1 -0.503598 24.7181 16.6182 0.0880899 -0.969764 -4.00962
1870 1 -20.6835 10.8786 17.1281 4.51309 -1.81759 2.94645
1871 1 15.4007 -12.5426 4.2987 -0.68952 -4.55458 1.89743
1872 1 2.12176 -13.446 -11.1943 -0.221646 -2.03105 -1.74926
1873 1 -10.4554 19.2575 10.333 5.11406 -4.34879 -5.60927
1874 1 -8.00117 -16.6949 -21.225 0.665207 3.01782 -2.31306
1875 1 21.7613 -7.33341 -9.81804 1.53559 -0.852935 4.00035
1876 1 -21.515 9.85213 -19.3359 2.56909 0.3747 -0.928807
1877 1 -13.8964 -3.89701 9.13735 -0.744722 1.32016 3.85352
1878 1 19.6045 23.9878 -0.527775 0.73848 4.43057 -2.37648
1879 1 -17.2247 -17.5091 -21.7599 3.03341 1.60454 -3.8055
1880 1 -1.73934 25.9767 -19.6388 -0.15032 1.76171 0.00895901
1881 1 14.0455 1.85201 17.128 4.78063 -5.05127 -3.01029
1882 1 -9.69333 11.1921 19.4556 -5.31444 2.94662 0.340614
1883 1 -10.2413 -14.2346 -6.11007 -0.228227 -1.66771 2.1663
1884 1 16.8125 16.9595 7.55525 -0.3867 -4.06079 2.14796
1885 1 -7.47805 20.7843 20.6092 1.24968 -2.90684 2.31358
1886 1 19.0099 25.508 6.92587 0.193499 -0.463691 -0.511314
1887 1 16.3281 -7.41518 14.554 -0.268861 -0.774118 0.516181
1888 1 -7.28494 -18.9247 -10.8805 2.09984 -4.18793 -2.84423
1889 1 -9.96678 3.96115 8.19951 -1.78732 -2.02307 -1.2619
1890 1 -22.3659 8.2858 22.3967 -0.621476 1.27991 0.963244
1891 1 -7.89434 -12.5984 -22.1903 3.36932 -2.03138 1.07367
1892 1 -3.23299 -16.4215 -17.6652 1.15947 -1.34596 2.80157
1893 1 5.07012 -0.646761 21.1955 -2.6364 3.50807 0.266358
1894 1 3.1798 -19.6606 -5.73549 -3.14345 -3.38648 -6.25633
1895 1 -19.1155 -6.3808 17.4426 -1.02461 0.561084 4.25135
1896 1 15.2452 20.6083 1.31349 -0.310405 -1.40118 2.71882
1897 1 -12.9778 -23.5546 -7.85647 -2.22813 -4.6567 -5.5351
1898 1 -21.3976 21.5128 11.6843 -3.16633 1.11381 -3.74689
1899 1 -7.59627 19.1932 -7.12551 0.783736 1.24251 -2.91346
1900 1 -11.9972 0.569645 7.80732 1.15718 -2.94397 0.758489
1901 1 -8.63604 -13.5623 -18.1195 4.95745 1.2841 3.15136
1902 1 22.4237 -2.6865 -19.5692 -0.093285 2.55083 -1.00277
1903 1 0.225032 -17.7275 -16.6811 -5.75164 2.30276 -0.954457
1904 1 -9.61528 -19.9056 17.0808 0.490167 5.29286 -1.73174
1905 1 -13.6794 10.4169 -9.559 1.89766 4.80954 4.05513
1906 1 -21.2192 -24.2725 10.6946 0.960133 -3.73415 -1.8941
1907 1 -21.2955 -7.4724 13.4998 2.98719 -0.926375 0.127188
1908 1 -15.1979 -1.82782 3.2944 0.436851 0.607506 0.156767
1909 1 9.32428 -9.07146 12.8243 1.19982 1.06098 0.32208
1910 1 -10.0231 -11.2972 13.8992 1.81326 -5.23145 -0.536143
1911 1 20.0795 -1.84378 -6.03972 -0.737166 -0.016077 -2.92003
1912 1 -15.9443 4.16943 -1.52895 0.847793 -1.14462 -6.60967
1913 1 0.529061 18.6928 -1.12706 2.01076 1.74784 -2.29598
1914 1 18.315 7.63394 3.46787 2.99229 -0.987684 -0.436481
1915 1 20.9045 -22.8402 -13.8077 0.21491 0.0582486 0.806349
1916 1 -3.60441 17.3349 3.17425 -0.171696 3.01182 -4.29659
1917 1 22.7894 24.2318 18.6729 -1.01431 -1.9383 7.3454
1918 1 -20.2386 0.141918 -20.1848 -0.320235 -1.12739 4.82623
1919 1 -18.0342 8.87047 -14.4037 1.12497 0.27862 -4.04135
1920 1 22.7502 -15.1699 1.15398 -1.81504 -1.42151 1.4514
1921 1 16.5544 10.5835 -10.2785 2.02747 2.5232 1.92088
1922 1 9.66585 17.2473 21.0294 -2.35552 -2.09095 -4.37895
1923 1 9.63661 -1.77245 -9.2472 -0.853383 4.20318 -2.95429
1924 1 -20.9254 -19.2926 1.40988 2.25541 -0.557381 -1.07791
1925 1 21.9009 -23.8632 17.31 -6.8515 -3.27639 -1.30029
1926 1 11.9901 -1.82906 -7.89893 -3.54309 -0.669433 -4.68212
1927 1 -5.46971 -23.4319 -21.6863 -3.51613 4.57856 -4.69576
1928 1 22.5275 -4.30914 5.67319 -0.731028 2.04774 -4.08042
1929 1 6.93848 17.9463 1.89344 0.907821 -0.316322 -1.51453
1930 1 -8.42238 -16.303 -18.4548 2.2136 1.18127 -2.74156
1931 1 -9.24122 7.30092 -2.55274 0.00897039 -0.546014 1.318
1932 1 -3.63202 20.3117 4.87958 -0.0875668 1.48286 2.48812
1933 1 -1.3736 19.1441 -18.6574 1.22483 2.04809 0.423276
1934 1 1.9266 -9.14875 -1.16822 2.98049 -0.00891724 -4.98182
1935 1 18.5001 -15.2662 2.21011 1.42779 2.85496 -3.14688
1936 1 18.8382 -23.2621 22.1416 2.08484 -1.38808 2.25892
1937 1 2.7762 4.45036 20.6752 4.52361 0.791442 0.0332004
1938 1 0.166601 7.36779 17.1871 0.302617 -0.172146 1.1486
1939 1 11.0315 10.2772 -1.56169 -0.90246 -4.19296 -3.1475
1940 1 -20.5812 46.3107 7.89403 -2.20776 -2.59577 -1.22827
1941 1 -1.58785 46.0461 -14.7729 -0.446585 0.547411 1.77982
1942 1 -3.2778 9.88689 -0.226688 5.4744 3.71502 3.28099
1943 1 3.02752 14.2118 -6.4246 -0.888011 -1.89204 0.951932
1944 1 -19.0412 -22.6634 -3.16545 -2.6743 -3.26818 -0.315554
1945 1 -23.4888 -23.6827 18.9357 -4.29429 1.3355 4.35806
1946 1 9.98546 7.6148 -7.34691 1.02063 1.18558 -1.87332
1947 1 -17.0465 12.4053 -15.9145 0.563502 1.5373 1.3988
1948 1 9.77255 -2.9538 -15.2073 2.08206 2.01169 -0.224405
1949 1 -8.26512 -4.62817 -8.60719 2.79736 -3.87419 0.599676
1950 1 20.1483 23.115 -6.59592 -2.58077 1.38324 -5.29595
1951 1 -2.26208 -16.1117 14.5481 6.4667 1.86703 -3.42299
1952 1 6.29802 -16.667 -10.7632 0.203938 1.86398 -1.92292
1953 1 17.9592 -21.5808 -0.701279 0.386368 -3.99303 -2.51879
1954 1 4.46325 6.12718 9.83531 -1.56081 4.38 2.52713
1955 1 -11.99 -17.052 20.7036 -2.0641 0.916751 -0.704961
1956 1 -3.67376 6.27056 7.83211 2.26119 0.308229 3.46819
1957 1 13.8438 17.1393 8.01802 -4.07969 -1.02496 -0.0470764
1958 1 13.9883 6.13827 14.7322 -4.08642 3.17991 -0.460707
1959 1 -23.8448 -4.49766 -1.87564 -0.154852 -7.02614 2.34545
1960 1 -17.4786 -4.96514 -19.812 5.5336 -1.87133 1.0291
1961 1 16.3032 -15.7631 -6.64612 -3.06752 0.449978 -3.7027
1962 1 -1.91839 -11.5632 -4.12187 -2.97792 0.529152 5.0868
1963 1 -0.160889 14.9983 0.466814 1.33083 2.08275 0.623057
1964 1 20.9999 26.1629 -14.9267 -6.77223 -1.9651 4.30528
1965 1 18.8981 -0.452873 17.7208 -0.325613 1.30308 4.14729
1966 1 -17.1798 -14.6026 -13.317 0.914234 1.90007 -3.13337
1967 1 -15.5913 -23.0963 15.8394 0.558507 4.15287 3.79943
1968 1 -21.6933 11.7143 12.3919 -0.986791 -4.71882 5.9477
1969 1 -3.96317 -8.29478 10.5012 1.82501 3.47388 -0.478031
1970 1 22.0413 -6.29571 -3.10992 -3.50233 0.822645 1.76041
1971 1 21.2936 -4.38835 8.5639 8.09691 -0.483308 -2.83572
1972 1 -4.96837 -5.64313 9.63256 1.93052 3.40259 0.549116
1973 1 14.8634 -20.1684 18.29 4.49892 -5.08258 -1.1774
1974 1 15.4555 -11.0306 12.3874 -4.19504 -0.319345 -1.73674
1975 1 13.6364 -17.519 -18.4351 0.00741512 2.65027 3.81405
1976 1 21.5183 -8.93926 20.186 0.990227 -3.62617 -0.0117528
1977 1 16.7387 -16.206 13.3095 -5.3597 -1.77309 1.36574
1978 1 9.11975 -2.75409 22.222 2.23976 0.796497 1.05611
1979 1 -1.31164 24.3725 11.1384 -2.01266 6.458 1.36001
1980 1 -23.7792 3.5081 -19.1815 -0.785629 -0.266119 5.25573
1981 1 15.4056 23.5772 -2.73891 -4.39444 -1.24615 -1.25117
1982 1 -19.8481 -1.60537 21.4376 2.1667 -0.64906 0.889144
1983 1 14.734 -5.60988 -2.17976 -2.14916 -3.18004 -2.35158
1984 1 1.81128 22.9323 20.6824 -0.147171 0.116891 4.26067
1985 1 1.70864 -23.1777 -8.94828 3.10751 2.21404 -0.568759
1986 1 13.042 -4.96611 5.36341 -2.61579 1.84752 1.84475
1987 1 -20.0089 5.02769 7.8005 1.07726 6.53138 4.81185
1988 1 8.90623 18.6111 13.6987 -3.05281 -2.04901 -2.71955
1989 1 -12.0473 -14.3753 10.6259 0.719195 -1.98501 -4.24461
1990 1 19.633 -16.5812 -5.1564 -3.25779 0.666761 0.911615
1991 1 -21.307 45.9551 19.8363 -2.35029 1.89616 0.928892
1992 1 14.6076 22.3311 5.98146 0.407845 -3.32757 -0.549469
1993 1 4.94911 11.1529 -12.0635 0.0598362 0.539381 -1.29138
1994 1 -23.0546 -17.2889 1.39688 -1.00364 -10.3227 0.695974
1995 1 1.94302 5.99668 14.0753 0.19804 0.283036 2.34793
1996 1 -8.37373 8.12521 22.5684 -1.6809 -0.829138 -1.18967
1997 1 21.3953 26.909 8.03441 -0.879413 -1.00051 1.21259
1998 1 -12.1383 11.1939 -0.687261 -0.282828 -0.341851 0.0891366
1999 1 -2.84558 -8.27265 23.8908 0.664043 -0.269162 4.10075
2000 1 2.04649 1.64184 -19.4948 -0.294471 1.29445 0.925064
2001 1 -8.80553 -13.1842 -3.6848 4.76301 4.33091 2.27264
2002 1 -23.5215 22.8968 -6.49735 -0.578064 -2.80852 2.47973
2003 1 8.70311 -3.88837 -10.8202 5.74131 0.949003 -0.267745
2004 1 0.224109 -23.0297 22.345 -1.99819 -0.742475 -2.29599
2005 1 2.17747 -5.8867 19.8071 -4.88012 0.115894 -4.16322
2006 1 11.5882 -11.6141 -5.25374 -2.55736 -1.21347 -3.25169
2007 1 -9.1568 14.5006 -13.0463 0.607009 0.919979 -7.21398
2008 1 -10.2269 22.9464 13.0216 3.5888 2.48287 -4.92164
2009 1 -2.93295 2.5928 0.563072 4.48251 -5.98972 3.95911
2010 1 -7.31717 5.57787 23.7284 4.83777 1.08253 0.66741
2011 1 -0.976828 8.65411 19.4531 -1.40375 4.8429 -0.372333
2012 1 17.5693 -22.2613 14.257 -7.72777 3.3042 -0.00294995
2013 1 -16.1152 23.2791 3.07555 1.83316 -4.76671 0.925199
2014 1 -8.83164 -7.52931 13.3106 1.8727 2.36701 -0.026694
2015 1 -3.64558 -7.04243 -1.44882 1.96658 -1.54439 -2.93444
2016 1 -6.4339 -17.2703 -8.67527 -1.99955 1.72918 0.122751
2017 1 12.7705 9.75534 22.2368 3.9399 -0.691253 -0.5725
2018 1 -18.4968 -3.15642 5.73928 -4.65003 5.86507 2.80362
2019 1 2.18434 25.6355 19.8569 -0.281843 4.44644 3.45422
2020 1 9.9602 -16.2151 -15.6551 -2.34249 2.82346 1.22178
2021 1 -2.88712 12.9303 14.5022 -1.66118 6.03333 -0.355138
2022 1 17.5707 25.105 10.5827 2.16962 -2.1405 -0.740992
2023 1 -20.3418 -12.8019 6.30154 -1.87838 -6.14286 -0.894688
2024 1 9.89968 11.2109 13.8322 0.101767 3.07116 -0.236984
2025 1 0.639896 -10.7612 20.9506 1.21889 0.664641 -4.8719
2026 1 6.13658 22.1769 10.2264 -4.95163 3.47847 0.0462327
2027 1 4.40648 17.2709 -7.65954 -3.21099 2.64114 -1.79367
2028 1 -2.32808 -5.04383 -17.6476 -0.67091 1.64592 -0.506108
2029 1 16.4189 -11.0876 -0.518885 -1.76357 -1.21206 1.73682
2030 1 10.6713 -19.4858 -22.0362 0.304043 -1.26898 -1.44371
2031 1 -4.90564 -20.9593 -11.3793 -0.295411 1.74594 0.270933
2032 1 -9.59225 9.1432 6.36162 1.52705 -0.99863 1.0625
2033 1 9.9674 12.769 -1.30832 0.266812 -1.87225 2.34702
2034 1 -10.8214 -4.53424 -17.058 0.64533 0.620097 5.50792
2035 1 18.6039 -18.5016 19.7528 -1.2628 4.18985 -6.65515
2036 1 -15.4644 6.39821 -22.578 1.39741 -2.08012 -5.36863
2037 1 -18.132 11.3737 13.3582 -0.697387 -2.82653 1.92413
2038 1 16.2333 2.0233 11.2709 1.63108 5.39275 1.31465
2039 1 9.15714 -23.0565 -23.06 -5.17548 -1.62851 2.92638
2040 1 -4.82398 45.5457 -9.59074 2.65915 -1.23016 -10.2697
2041 1 -9.38676 -13.6834 23.2121 -0.666423 2.20177 3.60715
2042 1 5.08735 -17.9906 22.3332 -0.473038 2.02304 -0.113797
2043 1 16.9351 11.74 14.5491 2.10659 2.51361 -3.91582
2044 1 4.04536 -11.2123 4.18355 -0.443939 2.39035 3.20971
2045 1 7.59097 -18.9373 -18.7632 4.22015 6.35357 1.56189
2046 1 -7.83193 16.5645 17.5731 2.63802 -1.3099 0.232472
2047 1 -5.19033 -13.7408 6.89559 0.373535 -0.432118 4.02782
2048 1 2.46144 13.8887 -17.3175 0.190916 -3.39102 2.78108
2049 1 18.7163 24.4865 -19.6725 -0.535325 -0.0354539 3.0256
2050 1 -12.9389 8.10443 -11.1013 2.70131 -0.178459 3.4535
2051 1 -24.0281 10.3874 -5.49512 6.02016 -1.44602 -3.05684
2052 1 -8.65471 5.49242 -20.695 -1.96823 -3.1075 1.09113
2053 1 -21.2905 12.3095 -18.2019 -9.05783 -2.32819 -5.88127
2054 1 14.6065 1.70721 0.525977 6.87838 -2.90248 1.87021
2055 1 6.60214 17.7648 10.0766 -0.13244 -0.161333 4.15316
2056 1 -5.62313 25.3804 -22.6077 2.00637 -4.52857 2.10038
2057 1 15.7189 -5.38275 6.14852 1.15264 3.19319 -0.582263
2058 1 20.1044 11.8085 -12.6329 1.74493 -3.72554 -4.77012
2059 1 6.99902 -10.3123 16.936 -6.25624 -2.36186 -1.88759
2060 1 -10.3637 -0.869102 -1.24735 1.84421 1.13681 1.30277
2061 1 -12.8922 -23.64 -22.0031 -1.3462 0.967044 -3.07219
2062 1 -15.6826 20.6037 -9.4706 -2.26242 -1.42974 0.976978
2063 1 -10.3576 -12.6873 -20.2728 0.135057 1.75507 3.9299
2064 1 -14.4649 -16.7172 8.35981 -0.535913 5.13887 -1.0924
2065 1 12.2117 -15.7554 21.4213 -0.69422 -1.43289 -0.562616
2066 1 18.326 4.7341 8.96244 -0.876441 1.29333 3.95525
2067 1 -23.7015 10.2935 20.7757 -0.437135 -3.5234 -3.44372
2068 1 -15.9254 8.68058 -6.5747 -2.86229 -3.15904 1.68104
2069 1 23.1352 -23.4807 -12.257 -3.45518 3.14283 -4.89055
2070 1 -23.171 -0.916137 -0.954333 5.40072 0.902132 -1.46967
2071 1 -18.4596 -12.9381 22.3965 -1.50365 -2.98836 2.90748
2072 1 -17.0743 8.03485 20.1888 2.5102 -3.64316 4.22837
2073 1 -16.4812 5.77964 -19.5873 -1.46471 -2.61847 3.26007
2074 1 1.56744 8.073 -13.0917 2.61494 2.69734 0.817356
2075 1 -9.83289 -21.0158 21.9 -6.2477 1.39529 0.965406
2076 1 -16.0189 27.2063 -10.0489 -1.77301 -1.70008 -0.603281
2077 1 -16.373 -3.00192 7.87034 1.00762 -1.78688 -1.05838
2078 1 -16.457 1.26867 -22.0068 -2.90759 1.39774 0.784065
2079 1 3.54041 -12.6318 -21.022 -1.13138 6.50236 1.74622
2080 1 -21.2291 45.9584 -17.8861 0.731968 -3.70939 1.39047
2081 1 -23.6425 20.4387 -16.1055 0.969884 -1.20483 -1.55861
2082 1 -10.1226 20.5508 4.32623 -4.91528 -1.46771 -2.14031
2083 1 21.2642 8.49164 -8.53079 -3.23724 4.26122 -1.11376
2084 1 15.4172 19.4826 20.6855 -0.290363 2.1337 -2.24875
2085 1 -20.5818 -19.7397 -10.1466 3.80824 0.282128 1.6166
2086 1 -11.0532 -8.6749 4.87014 3.54337 -0.224127 2.06941
2087 1 -11.4568 5.06349 -14.1357 5.78647 1.89214 2.6599
2088 1 8.12818 22.0698 22.0715 -2.18572 -2.30268 -1.43424
2089 1 10.1278 11.2938 -18.0144 -2.2779 -0.252418 4.8295
2090 1 16.5067 7.59937 15.4747 -0.94103 3.05305 -1.61756
2091 1 -6.55901 8.90934 13.5165 -5.09106 0.762809 -4.66232
2092 1 -17.7908 25.2982 -21.931 0.183197 2.65833 0.912893
2093 1 -3.75689 14.2318 -5.78012 -4.01375 -0.352421 -2.18469
2094 1 -24.1793 13.9809 -1.79611 -4.83798 -0.449039 -0.697509
2095 1 -22.0355 -8.67309 5.24117 0.492259 -1.00894 1.37168
2096 1 9.37098 -5.8516 0.720829 1.79926 -5.59508 -1.1106
2097 1 -5.48797 7.36469 11.5046 1.18516 0.994978 0.675631
2098 1 -16.0227 -16.8894 -4.07997 -0.88008 2.39601 -3.45993
2099 1 14.2349 -10.23 8.66958 3.84956 0.358723 0.277174
2100 1 -1.57966 -3.5728 20.9134 0.48744 3.59307 -3.5308
2101 1 -22.1567 -6.45205 17.226 -0.908415 -1.41984 -1.00629
2102 1 8.26355 6.79885 -9.37667 -3.09925 0.766962 -3.66363
2103 1 12.718 -15.9874 -16.3564 4.46266 2.27841 -3.40348
2104 1 -20.1312 -5.08381 19.9262 -2.69374 -1.72357 -0.348893
2105 1 12.8718 7.57546 -12.7785 -0.639458 -2.52344 -0.556931
2106 1 -19.0261 -17.3626 -19.2523 4.81066 3.97348 1.10804
2107 1 -8.76676 5.38978 -11.9819 -1.73293 0.608852 3.45369
2108 1 -7.61102 10.647 -0.247429 -4.3464 -2.3253 -0.159985
2109 1 -3.20035 12.3277 21.4387 2.54871 -1.78668 0.395746
2110 1 4.81995 9.43121 0.93166 -1.7144 -0.224758 -5.95411
2111 1 22.2371 -11.8149 20.5694 -4.65344 -2.94818 3.01742
2112 1 -10.3454 1.9323 16.3861 -5.53167 0.47918 -3.07102
2113 1 -17.8006 -3.68862 20.3741 -0.0649089 -0.445375 0.976234
2114 1 -1.41421 46.18 18.1634 -0.803946 -0.149639 -6.95852
2115 1 17.5305 -15.0132 -10.8281 -0.053485 -0.376455 -0.223087
2116 1 18.5843 -4.86959 2.79435 2.4069 -1.01815 -3.81547
2117 1 23.0387 23.6625 5.06558 0.722469 -3.1685 -0.938093
2118 1 -12.9974 -2.66111 -3.84648 1.52907 2.37923 -2.65388
2119 1 -12.1962 17.2072 2.41582 -2.73562 -1.21079 4.42345
2120 1 17.5531 -19.8026 9.70239 2.1329 -0.626036 -2.37803
2121 1 7.4001 -18.7395 -23.6501 -1.51375 -1.22958 -2.9524
2122 1 11.8318 3.01104 -12.4255 -0.202179 -1.53583 0.121118
2123 1 21.0523 -9.30858 -17.4434 -3.96755 -3.14207 -0.0745917
2124 1 20.5522 -4.90303 -19.3171 -2.81928 -0.663541 2.46418
2125 1 0.604728 -16.2819 14.0903 1.94071 -0.120195 -1.62414
2126 1 12.0749 -6.74843 -1.86556 0.517721 2.67599 -1.95931
2127 1 -23.8447 -10.6909 23.0684 -1.54494 1.55258 -3.8149
2128 1 -19.4594 -20.8934 -5.65496 -6.17113 -7.41793 -0.357864
2129 1 -12.8153 -23.8948 12.1783 -2.8242 1.35281 2.95365
2130 1 -21.5452 9.45668 -5.71343 -0.971498 2.39806 0.321117
2131 1 16.0255 -5.95388 2.89784 3.16489 0.966273 -3.81088
2132 1 11.7926 -23.483 -21.4898 -0.230399 0.445316 1.15535
2133 1 -11.9502 -10.9538 6.65048 -1.83957 1.53688 4.55082
2134 1 11.5247 24.9584 7.93308 -0.711528 0.456817 -1.25612
2135 1 18.9249 12.7439 20.8578 -6.16646 3.93666 1.89855
2136 1 -1.74118 -21.2632 4.3932 -0.714451 3.68513 -0.384859
2137 1 16.1637 17.8598 -22.9565 3.87779 -2.5947 -3.7704
2138 1 16.7853 24.3851 -15.8076 -2.41638 0.498263 -2.1456
2139 1 -11.3782 4.96802 -17.2872 2.94323 -5.29823 0.292798
2140 1 12.3147 -12.6282 17.8449 4.11691 -1.11202 3.04715
2141 1 -20.353 -23.902 1.12492 0.361398 0.351936 -2.91303
2142 1 -16.4182 -6.72377 18.4212 0.187431 0.943835 2.95263
2143 1 20.2958 5.19311 -14.1034 -0.66654 1.73028 3.02003
2144 1 3.10937 1.4832 8.20552 0.926743 1.74545 -2.58346
2145 1 19.9288 10.5517 22.372 -3.98789 3.27262 -3.1105
2146 1 2.21138 9.57988 17.0475 -1.72475 -4.70221 -0.0613585
2147 1 4.10552 6.36767 15.9001 -2.51938 2.50097 -3.11742
2148 1 12.441 -22.9624 21.4546 0.573821 1.32533 4.66381
2149 1 17.7732 -5.11991 -2.73992 -2.85493 0.804633 0.524067
2150 1 17.2761 -11.1144 2.87711 3.92813 -4.06381 -5.15864
2151 1 9.06527 0.565305 -10.7921 1.1056 1.35437 4.29341
2152 1 7.40863 22.9927 -5.89889 -1.61862 1.01593 2.55294
2153 1 -9.91223 -10.5905 -3.35886 0.590908 2.64902 3.66856
2154 1 -9.98923 19.6977 -23.2645 0.398627 8.86668 2.87147
2155 1 13.236 2.43688 19.773 2.57744 -4.42084 2.56503
2156 1 -23.2891 21.8663 -9.33543 -2.14984 -0.705406 -4.18934
2157 1 -2.57151 17.2469 21.8557 2.18121 2.22083 -4.27918
2158 1 -16.799 15.853 14.1302 -3.32784 -5.02543 -1.71945
2159 1 5.95441 -21.6943 12.1304 1.77828 0.157946 2.64192
2160 1 -22.1065 0.987823 19.0756 2.3013 3.12045 0.918989
2161 1 -0.234644 10.4117 -4.40753 0.20334 -0.59842 -0.07348
2162 1 18.0435 11.8241 -7.17145 -2.07679 -1.63598 -4.28798
2163 1 5.12807 -12.0282 15.73 2.08105 -1.01759 4.05649
2164 1 13.0063 0.803099 -7.58962 0.804792 3.26419 4.59335
2165 1 19.2475 19.4147 -12.3918 0.59858 0.52334 -2.5193
2166 1 -15.1483 20.762 -14.2135 -2.2744 -3.19781 0.131704
2167 1 -15.1504 -11.0371 -14.6373 10.183 1.53008 -3.12634
2168 1 -17.1299 18.2952 3.25425 4.08915 4.40148 2.0256
2169 1 12.3519 -6.479 -18.9 1.13126 -1.58776 3.45344
2170 1 -8.04418 -16.232 1.80823 2.79078 -0.00522477 -1.55876
2171 1 -3.37222 5.338 4.93815 1.3554 -1.41187 -4.8764
2172 1 0.333285 20.9999 -4.88122 -0.273128 5.6774 0.564546
2173 1 22.1309 1.38804 -15.5035 1.74641 -6.25124 -0.482821
2174 1 4.84095 5.31502 -3.34215 1.00206 0.0319761 0.171086
2175 1 10.7373 -23.7129 9.98718 3.93572 0.764559 -0.278172
2176 1 7.53845 -20.9442 17.672 2.46806 -0.485257 -3.51932
2177 1 18.9785 18.5906 14.5535 -1.40606 -4.47044 1.27517
2178 1 20.5827 -17.6235 -9.56465 -1.93237 -2.00852 2.41966
2179 1 10.6486 -3.95396 6.94603 -2.37371 -3.88627 -3.02129
2180 1 9.89053 -5.48215 -8.65615 2.37302 3.20922 1.80824
2181 1 -15.149 -21.0882 20.1549 -6.56878 1.08607 7.89808
2182 1 -2.09982 -0.430069 12.0722 -0.239531 2.3241 3.65318
2183 1 3.93079 -2.58192 16.1157 -0.546478 0.0452999 1.41253
2184 1 14.8942 18.0979 -17.4111 3.59466 -4.9965 5.82956
2185 1 6.40608 5.96335 17.8524 1.76643 -2.49393 3.98615
2186 1 3.46659 -9.31728 -18.3654 -1.05944 1.0343 0.0896851
2187 1 12.8286 -5.26044 8.3705 0.667526 1.80475 -2.49745
2188 1 -10.7513 7.55826 11.9718 -3.73177 -3.83862 -2.30473
2189 1 2.84008 20.3748 -12.1323 -4.36417 -3.30331 -1.25055
2190 1 -1.3494 1.07955 -12.3173 2.67035 -5.22284 0.53753
2191 1 12.5313 9.95939 3.38006 -1.95272 -1.88575 -1.10253
2192 1 -0.695778 3.35666 -21.1362 -1.29041 -2.12074 -1.60377
2193 1 17.7411 -14.0253 -14.6796 -2.60376 1.653 -0.354692
2194 1 -19.1018 5.27253 21.1825 2.11163 0.581418 -0.986916
2195 1 -9.6046 -19.3947 -9.08616 -5.13435 0.312554 -0.553489
2196 1 -2.70741 7.27871 -12.0419 -3.20005 2.65041 4.2006
2197 1 16.0124 22.1021 19.7991 6.26607 2.18416 5.05709
2198 1 4.70231 8.14407 -4.01036 1.58947 -4.17414 5.7331
2199 1 -16.4811 13.7185 0.938243 3.45636 -3.05402 3.29986
2200 1 -2.02741 -22.7869 2.21373 -1.54881 -0.768263 -2.12119
2201 1 14.6537 -9.20257 -20.2386 5.49495 -4.08966 1.53381
2202 1 18.7157 -18.4045 -19.7732 3.39734 2.76913 -1.39177
2203 1 8.27225 -2.56537 -2.34809 -0.512243 -1.04455 8.8617
2204 1 6.77693 0.846826 -1.94525 3.06929 -0.177802 0.782794
2205 1 -21.0681 8.77742 -15.0399 -1.74046 1.61484 -1.72466
2206 1 -3.70618 -9.87099 -14.0152 3.89616 0.0712694 -3.8497
2207 1 -21.4536 -8.40011 -0.15132 -0.375299 2.18786 1.71691
2208 1 15.9989 19.1811 -3.36014 -3.29142 1.66328 2.22639
2209 1 21.5906 23.0765 20.9379 -1.84063 -0.353656 -1.45268
2210 1 23.4145 -19.7174 -1.88687 -1.40722 -0.275652 -2.18722
2211 1 -19.036 4.75954 -20.2549 2.28935 3.36323 2.00269
2212 1 -17.8209 -5.22335 -5.87643 -0.464724 -0.347014 -4.45711
2213 1 19.6135 10.5811 -4.85585 1.789 -2.30247 2.5347
2214 1 13.229 8.16531 19.6192 -4.98051 1.81476 -3.69213
2215 1 10.6042 13.3245 -3.85632 0.152309 -4.11583 2.00806
2216 1 0.230896 -0.216245 -14.6032 -1.88162 -2.70443 -2.20863
2217 1 12.1798 -14.0626 23.7191 0.53856 -0.826593 -1.51701
2218 1 -16.8702 -4.8751 22.7437 4.54257 -1.22042 -1.32621
2219 1 -11.3227 -21.6955 15.3266 1.14662 -1.77372 1.12219
2220 1 1.84818 14.7213 -14.5234 -5.23829 0.75797 -0.309857
2221 1 17.6202 2.30875 18.5349 -3.02592 -0.0223959 -1.8863
2222 1 2.4424 7.71126 4.32583 2.73708 2.96009 0.150679
2223 1 -21.4572 16.7666 -21.2859 0.497041 -2.15085 3.00439
2224 1 -14.4231 16.3308 -4.89857 1.49964 0.751584 -1.46077
2225 1 1.1297 -18.8265 23.8125 -2.1261 0.104997 -0.582448
2226 1 19.8813 0.692771 13.5313 -1.92977 3.1662 -1.18066
2227 1 12.5824 0.451386 -2.75203 -7.16332 1.169 -3.95002
2228 1 -6.64965 -8.79529 -21.6007 5.42944 2.4131 -1.91706
2229 1 17.5628 3.16566 15.7802 -7.82383 -2.84948 -2.62681
2230 1 4.00677 17.2496 -2.54259 5.43019 -1.37113 -4.53931
2231 1 -15.1631 25.2016 10.6805 -2.2672 -3.35772 4.57934
2232 1 -21.7081 25.8 -14.2692 7.83981 -5.98824 -1.47293
2233 1 -12.2593 0.521569 -14.6578 -1.34949 0.753825 -1.12969
2234 1 -4.12038 1.83015 -4.24541 -0.62281 -4.43238 0.25273
2235 1 10.2956 -21.7094 12.2237 -2.61449 -2.61511 0.806053
2236 1 22.4669 5.80159 -19.2689 2.91678 -0.442017 0.257337
2237 1 0.263751 -23.4862 -22.5485 1.53673 0.424007 -0.0135392
2238 1 19.6264 13.67 -18.5992 2.15712 -4.15768 5.62072
2239 1 -14.2715 -11.6327 22.6483 2.56365 1.17008 -0.791385
2240 1 11.8656 19.1321 14.7339 -0.251681 2.93322 1.88449
2241 1 -22.6994 -3.43074 -18.3969 0.849757 -1.93785 3.0526
2242 1 -10.2414 -17.1835 18.1069 3.17027 0.0408972 1.08021
2243 1 11.785 24.4313 -11.176 1.47057 0.536262 -0.369759
2244 1 23.0451 22.5236 -14.4615 9.24993 1.7387 3.77122
2245 1 21.9667 -20.9989 6.72644 -0.188969 -1.50014 2.27085
2246 1 2.30649 16.7592 -16.8102 -3.22858 -4.32888 1.5807
2247 1 20.5104 -12.8122 9.16693 2.21341 2.25326 -1.65684
2248 1 1.78986 -7.89784 -11.0522 0.170667 3.41496 -7.64593
2249 1 -16.0157 14.1068 -18.0944 4.47499 -1.13711 -1.28646
2250 1 -2.34984 4.42524 13.0002 1.52688 3.44797 -2.78944
2251 1 -9.82227 -10.575 -11.8651 -0.898838 1.37487 0.151488
2252 1 -23.6964 -13.4028 -0.950141 0.0507727 4.21037 5.98385
2253 1 5.97913 -17.8905 -6.12456 5.00322 -0.660176 1.23354
2254 1 2.46738 19.9308 17.0528 1.64513 1.0109 2.01881
2255 1 -2.63376 -1.66246 -14.5606 2.73727 2.76788 1.55616
2256 1 14.6646 18.916 -20.1605 -3.64317 -0.699144 0.348196
2257 1 -1.24224 2.79647 -7.88572 2.75867 -3.10341 -0.0536996
2258 1 -10.9409 16.5377 -23.2608 -4.38806 -0.434778 2.8029
2259 1 -21.621 -10.4157 20.9983 -0.694872 2.56305 -4.39864
2260 1 19.3482 20.1246 -15.191 -0.107535 5.19392 0.917034
2261 1 14.4631 -4.26979 -15.0068 0.500931 -2.11566 -6.18815
2262 1 18.6768 44.6293 -2.95977 0.380812 -2.53979 2.28681
2263 1 4.36615 -15.4501 -2.99398 -2.82182 0.463298 1.44193
2264 1 -2.01902 19.6004 2.69074 1.27895 0.66326 4.28803
2265 1 -1.76843 3.42667 21.3196 -3.79653 -0.180944 -0.203339
2266 1 -21.9548 7.56189 13.9621 4.02787 3.03195 -3.31473
2267 1 -10.1976 -14.6544 0.893213 -0.447023 4.2097 4.33326
2268 1 13.502 -1.77875 -4.08601 -0.717153 0.0403533 -3.82328
2269 1 18.279 13.03 -22.8559 -1.4362 3.37069 -0.0689284
2270 1 -6.41169 20.5258 1.35488 -0.626545 -2.66485 0.770479
2271 1 -23.9227 -18.0987 -8.03308 -0.732364 2.25301 3.22439
2272 1 3.03653 13.708 11.3198 -0.682817 -2.17604 -6.097
2273 1 -21.9106 -20.6317 14.3861 -4.96097 0.621082 1.63867
2274 1 -6.55948 1.02285 22.486 3.83242 -1.46098 -2.22223
2275 1 -11.7609 27.2781 -14.9519 1.99848 -0.592699 8.19881
2276 1 3.01599 10.3405 4.47496 -4.09918 4.49657 0.206623
2277 1 -14.2068 3.15853 20.6546 1.0282 3.73728 3.1553
2278 1 -15.9787 -12.0965 -4.74549 3.15212 -3.29481 2.28772
2279 1 -9.67937 0.613113 5.8942 4.98052 -0.531123 4.28244
2280 1 14.4921 -10.299 -2.59636 5.27202 3.49096 -0.297603
2281 1 19.1477 14.8323 22.7602 2.14516 2.033 -3.26753
2282 1 -5.34813 24.7293 8.44501 2.36754 0.630893 1.59117
2283 1 -22.3795 -14.0298 8.16957 -1.35008 4.98319 -8.1063
2284 1 -20.3851 23.8739 -21.6971 -1.30052 -1.08826 -3.21053
2285 1 -21.0235 17.8204 1.30973 2.0673 -0.944284 -0.323958
2286 1 1.51297 -12.8297 4.95643 -4.5299 5.47906 -2.63976
2287 1 21.8926 17.9042 14.5845 -0.863174 -3.09391 2.0861
2288 1 18.8293 -8.32577 -5.88807 0.00796511 3.07778 -2.0673
2289 1 -2.17198 12.2093 -20.5981 -3.9867 4.56542 2.62076
2290 1 19.2046 -3.02218 18.7998 -0.665244 3.04504 -2.01713
2291 1 -0.714446 21.4253 20.7413 3.51858 -4.41188 0.367892
2292 1 -12.4336 -10.0197 0.651464 -0.511405 3.51042 1.17845
2293 1 3.46077 8.77128 9.71113 -5.00609 1.31503 -2.04579
2294 1 -18.3804 8.19614 -19.024 -1.42289 -3.52832 -0.388368
2295 1 -16.7917 13.448 23.2531 -4.80899 -1.00664 1.99586
2296 1 -20.1276 -9.6294 -17.5167 0.933443 -2.71469 -0.427582
2297 1 13.3315 6.62459 -22.3553 -4.03892 2.19661 -3.00298
2298 1 -2.75114 -20.5445 -5.4735 -1.6724 -2.11937 -2.48152
2299 1 8.43775 -12.2464 -3.31888 -4.23542 -3.45333 -1.69478
2300 1 7.68091 12.2224 0.279433 -0.129174 -3.37941 -1.32739
2301 1 6.34495 -22.8124 21.5915 -0.598783 1.13558 -5.2814
2302 1 13.48 9.64304 -15.4882 -5.87406 -0.401171 0.867371
2303 1 -12.2965 13.8014 -11.9943 -1.06356 -1.54414 -0.916041
2304 1 8.21914 16.5497 7.15406 1.23174 0.447261 0.252312
2305 1 -15.1018 20.5407 9.28021 -1.01222 4.71878 1.92135
2306 1 3.85012 -4.35206 21.4706 -0.169218 -3.48376 -0.949049
2307 1 -16.8069 16.3824 22.8813 0.244705 -5.23186 -2.33538
2308 1 4.62363 1.8736 -20.0402 -1.41087 5.7403 0.485728
2309 1 20.9325 18.4294 -23.307 5.0851 -1.07343 -1.47468
2310 1 6.27525 -18.045 9.49441 1.08583 -2.2786 2.03154
2311 1 5.25158 -0.533357 2.79798 0.501053 -1.27443 0.532017
2312 1 -19.8054 -20.6254 9.24483 -1.88653 0.722149 0.456571
2313 1 -9.74016 16.4012 -19.3971 -2.28306 3.97631 5.83414
2314 1 -17.7215 7.57206 9.84316 -3.03642 -0.157779 1.23874
2315 1 -13.5919 17.7583 19.1352 -0.381514 -2.05385 4.41888
2316 1 -17.8808 -14.1425 5.66506 -1.24407 0.978595 -0.586925
2317 1 -4.30238 -10.8117 -8.26359 1.3022 2.34986 -3.86023
2318 1 19.6448 -6.11221 -4.51615 3.08688 -0.883354 4.8668
2319 1 5.40067 -7.25667 9.81058 -0.530151 -4.07498 2.40447
2320 1 21.0124 1.2013 -19.2971 -3.26315 0.708123 0.789388
2321 1 -1.54128 25.4653 24.0341 2.98795 -5.91593 6.58834
2322 1 -5.39982 22.2701 19.5591 0.587218 -0.335977 1.44727
2323 1 3.32665 -3.72643 -2.40079 4.46871 -1.36656 1.66288
2324 1 9.04412 -22.8713 -20.1646 1.9807 -4.01481 1.12636
2325 1 17.5127 -21.2735 -16.4986 -2.33115 -2.01589 -3.85612
2326 1 21.0947 -10.1974 -11.764 -1.43669 -0.895665 -2.82366
2327 1 12.4671 1.71785 -17.1397 0.365687 0.726249 -1.35994
2328 1 -10.3811 -7.87179 -4.06829 -3.5193 1.79581 3.13477
2329 1 6.13538 7.22302 11.7861 6.28928 -5.59805 0.372975
2330 1 14.364 -23.6896 15.6123 1.75906 -2.95562 -3.73046
2331 1 -17.0559 -16.3671 12.0993 -2.85725 0.668421 -2.14392
2332 1 19.5911 -15.616 9.14697 4.82014 -0.589885 3.75879
2333 1 10.1806 -20.3912 -16.1265 -4.85466 0.566468 -0.920629
2334 1 -9.92014 22.2451 15.8253 6.36356 -2.18131 5.42701
2335 1 -5.83508 19.7455 22.776 1.69799 1.96095 -2.26838
2336 1 14.0683 -12.6394 -22.5176 -0.512223 4.27345 0.709481
2337 1 9.59063 0.0272503 -2.21317 -1.97919 -0.176175 7.46002
2338 1 -0.261897 -3.38533 -19.1184 -1.7145 0.76358 -2.98006
2339 1 7.56672 8.71389 -6.15131 6.81397 -0.186034 2.79421
2340 1 8.87122 7.33995 17.5061 -2.13059 4.27813 -0.869783
2341 1 2.65849 -16.8829 -20.2548 -0.664772 3.48565 -4.63266
2342 1 9.65559 -14.3394 -0.198836 -5.45881 2.0636 -1.34616
2343 1 8.61103 23.1386 2.49921 -2.15815 5.37531 1.27659
2344 1 13.3267 24.8131 3.64273 -1.58541 -1.50638 -0.357703
2345 1 6.53803 10.0738 -15.6675 0.741586 3.98217 -5.78223
2346 1 -3.46887 -19.403 9.94209 -4.24754 5.83871 -0.886078
2347 1 -14.4266 13.7358 -15.4017 -2.49434 -1.08216 -5.75245
2348 1 5.45198 -1.71337 5.37907 -1.62291 -0.485283 -2.88293
2349 1 -9.21964 25.6554 18.0083 1.13735 3.07599 -0.886669
2350 1 9.86903 3.69177 -14.5875 -0.511668 7.63331 -0.720861
2351 1 15.4619 13.0236 -14.013 4.99008 7.88038 1.21038
2352 1 -1.58997 23.1126 -19.9444 0.314296 -2.96748 3.3992
2353 1 13.5971 -1.30888 4.59334 1.43643 -0.713623 5.22881
2354 1 21.0746 -18.8344 21.2615 -2.99513 -2.25461 -2.04697
2355 1 -6.22762 1.92703 4.87491 -1.68105 3.69915 -4.13702
2356 1 15.7443 -23.4785 -10.5571 -2.121 -2.54473 -2.42789
2357 1 -3.73508 -0.0407474 0.532846 1.36786 0.674576 6.06155
2358 1 4.1781 -14.99 -9.52878 -3.88405 -1.06409 -3.05563
2359 1 9.11485 11.7087 7.07941 2.48853 2.02666 -0.864221
2360 1 10.9433 19.8446 5.48173 -1.47474 2.09838 -6.59222
2361 1 -21.6481 10.6692 -12.8827 3.28297 3.28181 0.176342
2362 1 -20.2307 12.4758 14.8563 -0.274129 -1.41641 3.1015
2363 1 18.504 -12.8416 -0.986383 -11.1799 -0.86259 1.86464
2364 1 3.76023 -3.40235 0.458174 -1.49974 -3.41994 -2.60229
2365 1 23.1888 -8.70622 -4.47862 -1.58653 -0.418417 -4.69715
2366 1 9.26676 1.9732 1.78594 -4.7231 -1.69985 2.92145
2367 1 2.79901 17.3016 13.4638 -1.99061 -2.57985 -0.499891
2368 1 -5.09473 -22.5803 -7.18849 -1.45153 2.61987 1.16861
2369 1 19.3969 3.53406 13.8245 0.792457 -0.0133178 0.700318
2370 1 -23.2501 -10.1678 -8.62354 -0.882224 -0.404197 -2.30817
2371 1 17.262 -21.1405 2.19453 5.8535 -0.544296 -1.03015
2372 1 -23.3982 4.62678 -0.528123 2.05172 0.808708 3.44002
2373 1 14.6689 12.0676 12.6119 -1.02629 -2.44827 0.649726
2374 1 -6.48592 6.81548 -2.00652 2.22059 -1.59551 3.72487
2375 1 7.24573 26.2283 12.4057 0.682265 0.00768099 -0.94541
2376 1 -15.6319 -1.82433 21.3367 -3.47395 2.93922 0.468185
2377 1 -6.6341 -7.14614 -4.94345 -3.10448 -2.72474 -2.42104
2378 1 9.17699 0.538325 20.2974 0.176751 0.995177 1.98734
2379 1 -22.415 13.2765 10.1824 -1.82901 2.34648 3.50888
2380 1 8.00658 -14.7219 20.7759 -0.450625 -5.01038 -4.65248
2381 1 15.711 -7.88618 -3.45018 0.031236 -3.26186 -1.04107
2382 1 -15.3044 17.7854 -16.3386 -0.2278 2.34949 -1.77312
2383 1 20.6979 -19.4965 2.8842 -2.32195 -4.08969 -2.79866
2384 1 4.04365 -13.1905 22.7549 -0.823091 -0.465799 2.73714
2385 1 -1.61751 7.19226 1.67389 0.0406535 0.656442 -2.18515
2386 1 2.06842 -4.14629 4.6945 -2.64078 2.95195 0.163463
2387 1 -11.297 -4.51745 15.3162 -2.94438 0.315333 0.569291
2388 1 8.18528 26.3254 20.6994 -5.30546 -4.95664 -1.18156
2389 1 7.03119 -13.2494 12.5806 6.8571 0.421792 3.11192
2390 1 -22.2301 -8.59674 -6.4349 -0.988569 3.37131 1.98265
2391 1 -7.81664 -1.29864 7.38405 -0.40522 1.40872 1.79419
2392 1 10.1427 -23.1371 -15.4954 4.33235 -0.800803 0.378413
2393 1 3.53168 -14.2015 19.2634 -0.614182 2.18529 1.44846
2394 1 15.4678 12.4976 -6.10962 -0.327161 -1.8622 0.606094
2395 1 3.7441 18.9403 20.7476 4.8976 -4.94528 -0.202475
2396 1 -16.1333 -22.6597 -3.457 -0.0803876 2.64755 -2.54592
2397 1 -14.9387 -5.64995 20.9025 0.416872 0.499567 1.99439
2398 1 -7.07457 -1.08977 15.1311 -2.36661 4.34588 -2.00912
2399 1 -14.266 -10.7306 11.6536 0.59575 1.16501 2.28698
2400 1 12.8539 -6.58664 16.953 4.53453 2.22878 -0.702526
2401 1 -17.2868 21.4772 -3.59208 3.39319 0.860283 -2.03455
2402 1 16.7311 16.9277 -19.4429 -4.47292 7.41106 0.0574019
2403 1 -12.3628 -0.0142788 -20.8102 1.3831 -0.764967 3.91664
2404 1 -19.4029 -10.073 23.1804 1.13134 7.79226 0.3627
2405 1 -2.10968 -10.3079 -20.286 0.0574635 4.23423 -0.108915
2406 1 -24.1094 10.2644 -11.502 0.313247 2.25034 1.0818
2407 1 -14.1936 -13.6367 14.4981 -5.72556 2.08127 -1.40215
2408 1 -20.6968 -3.41161 -10.7614 0.602341 -2.14539 4.80264
2409 1 5.08034 12.165 15.1399 0.0218697 -4.38817 4.07418
2410 1 9.49688 -20.5485 23.5439 -6.7055 -1.67794 -2.20526
2411 1 11.7335 11.4328 -20.7211 -3.27744 -0.0721039 2.60082
2412 1 8.15638 21.1613 14.7982 3.14139 0.739449 -1.93835
2413 1 -6.23261 20.7603 4.18913 0.350954 2.2225 1.66146
2414 1 12.9426 -4.74723 -6.59529 -1.57544 0.318143 4.29391
2415 1 22.474 -23.248 -23.5822 3.49168 2.19909 -0.559644
2416 1 6.61704 12.9569 10.2069 6.11877 -2.17642 1.52909
2417 1 -3.56992 -4.79334 0.251107 2.07415 -5.94601 -3.12277
2418 1 15.4637 2.42161 -10.8426 4.48846 3.91498 2.36135
2419 1 -24.1534 7.99631 -21.1627 1.00859 -1.39191 -2.37412
2420 1 -0.66564 -5.71575 -5.68336 -4.43428 -5.91131 0.0987409
2421 1 -22.9424 18.6886 -8.76515 -4.17921 -0.216071 3.51066
2422 1 -17.7644 5.83471 17.1627 3.10169 -5.60565 -1.39232
2423 1 14.1521 23.7497 8.55782 -2.95115 3.77981 1.98851
2424 1 -23.5221 17.1802 9.03211 -4.56828 -3.20747 -5.12327
2425 1 -16.918 9.82919 23.5177 1.06797 0.126784 0.594882
2426 1 -0.472967 19.0581 22.3092 -0.226219 -0.720444 -1.03193
2427 1 13.5756 4.29019 3.41153 -1.82104 -1.23117 1.3476
2428 1 13.9865 -16.4147 14.6405 0.361158 -4.64073 0.183069
2429 1 -7.96327 -8.35022 -14.1962 -1.0011 -1.30768 -0.00727265
2430 1 -13.2986 -6.31595 16.2864 -0.0209051 1.84422 -3.32084
2431 1 -20.041 18.9708 -9.49751 -4.14554 -0.764656 -4.50098
2432 1 19.4228 15.5039 -13.8512 -0.111556 0.192858 -0.964183
2433 1 17.8433 45.5863 19.3344 0.262952 0.63496 -3.87433
2434 1 0.558508 -21.0448 -2.33224 3.42635 2.18086 -1.26158
2435 1 -17.8252 24.8076 10.0897 -3.44776 0.349426 3.80174
2436 1 -7.27981 11.3485 17.8977 1.05548 2.79818 0.675119
2437 1 -14.1199 -5.00378 11.7847 2.45632 0.709556 2.41735
2438 1 -1.60192 45.7629 -21.4193 -7.9653 2.00263 -0.205441
2439 1 -13.9058 23.011 9.62885 1.00633 -1.71349 2.51743
2440 1 4.58182 -2.8286 -14.6851 -0.182634 -3.43234 -1.94798
2441 1 22.0409 14.7835 21.7667 -3.31022 -2.71974 2.81544
2442 1 -1.71632 -12.3084 -16.2824 -1.76051 -1.03256 -2.99676
2443 1 7.03969 9.29008 22.0131 2.69767 -2.06246 0.0882736
2444 1 12.201 22.9059 18.6179 0.736943 -5.64653 5.02744
2445 1 1.40104 3.49629 -23.5511 -1.2056 -6.08437 2.96016
2446 1 0.811552 -4.17721 14.6515 2.96171 3.11457 0.530047
2447 1 -3.29601 -15.7616 17.0794 3.21016 2.34003 0.311172
2448 1 -0.335193 -16.5164 -10.8513 3.4355 -4.43015 1.84475
2449 1 16.7006 45.6326 11.8367 -2.48767 2.55501 -3.62882
2450 1 5.79922 11.0886 19.3567 2.06736 -2.0901 2.42092
2451 1 9.23615 -22.9222 3.44599 0.0715188 4.18667 -0.809195
2452 1 12.4814 17.642 -16.2633 -0.150968 0.613413 1.78829
2453 1 0.84524 12.2485 12.8619 -4.6307 -4.19633 1.34562
2454 1 -6.87842 12.2793 -19.9764 3.74967 1.94716 -4.64435
2455 1 12.6737 10.7931 14.7284 -2.41238 -0.792658 -0.584045
2456 1 19.2521 20.0419 19.3925 1.9587 0.096433 -7.34694
2457 1 -4.0709 3.32265 10.9607 -0.0419657 -1.71504 -2.97956
2458 1 -23.6039 20.7079 -2.41352 0.341026 -0.751384 2.62552
2459 1 -18.5549 17.2868 -7.52814 -1.76404 1.84558 2.42982
2460 1 8.73285 8.68061 -17.2455 1.37333 1.41149 -1.65734
2461 1 -23.7889 20.2025 -5.11008 -3.12314 -0.734319 -3.01275
2462 1 -14.0115 25.273 2.53369 4.61499 -2.37413 6.17887
2463 1 -12.6932 -21.6517 23.7845 3.95122 -0.620858 -1.84879
2464 1 6.86576 15.2878 -13.4193 -3.59306 -1.31059 0.973856
2465 1 -5.35403 -14.276 -10.9913 -2.22376 6.15205 -3.67239
2466 1 2.51871 2.07146 -3.49021 -4.01269 3.29537 3.79333
2467 1 3.46575 -18.8551 8.9783 -7.29063 6.5898 -0.428111
2468 1 -19.0577 45.5403 -5.72774 0.117428 -0.835261 0.254628
2469 1 12.4657 46.36 23.6333 -3.37408 4.53418 4.37222
2470 1 14.3689 -20.1063 -11.5838 -3.44463 0.790344 4.43877
2471 1 -3.27065 26.4319 -21.8285 -3.46554 -3.59743 -1.34135
2472 1 -18.0713 3.78624 13.0614 3.00937 2.35457 -3.27675
2473 1 11.4045 10.0814 -8.20857 2.28229 -0.224928 -0.158512
2474 1 -5.06949 -8.63213 -17.7247 5.10994 -3.86284 -2.32591
2475 1 -17.8153 12.3577 10.7731 2.81874 -6.23237 6.8765
2476 1 -5.21925 -19.6825 -20.3935 -4.46182 -1.22487 1.78139
2477 1 13.2255 7.1398 -3.78692 0.628622 -1.13763 -0.363141
2478 1 -3.47539 -23.3595 -4.68559 0.532253 4.96654 2.61413
2479 1 -21.5844 -4.12003 2.61654 -0.22135 0.531769 0.0555331
2480 1 0.012009 18.6286 -6.25306 -5.1183 -1.33652 3.29431
2481 1 -14.1704 -9.09868 -9.24156 -4.00162 -4.34931 1.95045
2482 1 8.37321 -8.41137 1.55334 5.11438 0.179744 -1.86038
2483 1 -0.499871 11.8028 -11.1896 1.90438 3.198 5.68985
2484 1 2.00753 -16.8754 -9.34709 -0.610071 -3.16685 0.713839
2485 1 0.301317 -18.1642 4.18321 0.617523 3.96088 1.98613
2486 1 -3.90058 -19.4092 6.92165 2.45098 -7.17879 2.49786
2487 1 3.15762 18.7616 -0.0564525 1.38293 0.0601252 3.73371
2488 1 -8.80349 22.012 18.3272 4.56865 -2.10008 0.993328
2489 1 5.74342 20.699 -12.8621 -3.98257 0.719666 1.37071
2490 1 -10.8721 24.5828 21.6621 -0.669002 -3.06587 2.14213
2491 1 12.1835 -23.1298 -4.6495 -3.01255 0.931963 2.01143
2492 1 23.2033 14.3453 5.71452 1.06003 -5.17641 1.49517
2493 1 20.5402 22.1088 -20.1831 3.83455 5.3047 -1.608
2494 1 -10.8722 -15.5832 -20.8253 -2.94991 -0.0449445 -3.6291
2495 1 12.7546 -13.4305 -9.07078 -0.967024 3.36335 1.33466
2496 1 4.18607 0.785969 -22.4798 -1.37039 -1.52433 0.602744
2497 1 3.76332 7.31884 20.3433 -2.86759 -1.31501 2.42341
2498 1 -4.64857 7.83521 5.58216 -0.986695 0.443221 1.77957
2499 1 -23.999 -16.8635 7.95816 0.573925 -3.13545 -4.21811
2500 1 10.0358 22.2885 7.06017 0.815175 8.06768 3.27814
2501 1 5.06763 14.3773 8.05972 4.41324 -0.651086 1.32493
2502 1 -5.88482 -12.3183 12.0061 -1.44411 -2.0803 0.624113
2503 1 17.694 14.5743 -2.46477 -0.154096 0.55235 -0.639104
2504 1 8.90916 11.2274 9.83597 -0.228933 -2.29292 -0.684809
2505 1 -9.42347 18.9098 21.5348 6.65854 -0.203984 -1.27597
2506 1 22.2056 10.9944 -7.57185 1.99694 -0.472247 2.06476
2507 1 6.9555 -4.12145 -15.6809 -1.67793 0.337245 2.93686
2508 1 11.3976 23.7063 -6.43841 -0.0585851 1.37908 2.33431
2509 1 -4.21129 -6.16315 3.28573 -1.97101 5.72259 -5.49907
2510 1 -20.8291 5.19419 -2.03402 -0.317856 2.41112 0.180749
2511 1 2.31652 5.81642 18.076 0.904946 2.83239 1.699
2512 1 -8.84725 13.7925 14.7454 -4.06951 -4.19631 5.11669
2513 1 20.4245 6.10062 8.04065 4.10836 -4.69182 4.53095
2514 1 -23.0753 14.7696 22.8604 0.0573582 0.370544 2.6269
2515 1 1.48428 -18.1297 1.44337 1.54564 -0.501386 -3.31751
2516 1 7.00708 10.7057 -18.6037 0.0926043 -3.10018 -0.896892
2517 1 -11.3314 -13.5862 14.8227 -4.9582 1.94507 -1.45276
2518 1 -1.54626 -1.02959 -0.935121 1.01895 -4.68699 0.10055
2519 1 -23.5867 23.6437 14.8177 3.87805 2.27429 4.87573
2520 1 -23.3603 -0.312622 -7.08034 2.16014 0.431729 2.71258
2521 1 10.5589 6.92628 12.9671 1.45249 -1.49183 1.36812
2522 1 -0.23251 10.9339 2.47189 -2.30386 -0.22075 2.28802
2523 1 -15.4811 46.7328 -22.915 7.10182 1.928 3.94759
2524 1 11.7515 22.7615 -19.9359 2.3714 6.24336 3.3737
2525 1 -13.4699 -15.7591 -8.62651 1.15704 -3.88871 2.35286
2526 1 -11.3302 -3.19783 -14.3881 -0.604832 6.90848 -3.2038
2527 1 3.59421 6.6283 6.76886 -3.68278 -0.576308 1.70946
2528 1 -7.61416 14.6678 6.97925 -4.08059 0.107233 -3.76677
2529 1 -18.0183 -8.84776 -3.2067 -0.877899 5.48366 1.80729
2530 1 5.66672 -14.5089 -17.1008 -1.27586 1.72171 6.49139
2531 1 -18.2973 -10.0162 -15.2094 -2.16014 1.56697 -9.21633
2532 1 -16.2948 -13.0662 3.51074 -1.85272 -3.31792 2.32619
2533 1 -15.7377 23.2294 -1.76597 3.45471 -0.747181 5.14246
2534 1 -19.2035 -9.65332 -0.587154 -4.0738 0.343101 -2.38804
2535 1 15.8309 -4.71774 14.8181 3.91471 1.19286 0.631424
2536 1 -21.8754 -18.613 -21.7067 5.16049 0.708268 -4.97297
2537 1 -2.99205 -23.3516 14.7595 0.279969 0.975513 6.94985
2538 1 -4.64166 2.27535 -22.0308 -0.0574871 7.71298 -2.9013
2539 1 12.3794 -13.0541 20.702 4.68251 4.74386 -2.99281
2540 1 21.479 -9.35338 15.7846 0.948383 1.59279 0.24241
2541 1 7.25072 8.93746 15.6055 -3.28249 -0.31166 -0.00700503
2542 1 -10.7613 -7.59979 -21.2389 -1.13263 -2.11964 -2.08491
2543 1 -15.5185 -7.26713 -6.2922 -1.5965 0.0962112 3.671
2544 1 10.7435 3.59961 6.4001 -3.21127 1.24981 -1.88553
2545 1 -10.038 10.5347 -20.4015 -2.61249 1.39407 -3.71184
2546 1 -17.1912 8.03608 15.3699 2.1965 4.19576 4.22376
2547 1 -11.3145 -1.28436 4.15785 -7.14846 -3.11179 0.333382
2548 1 15.7278 -4.79757 -7.76495 -2.42874 3.78427 0.357941
2549 1 10.8798 10.7843 -15.2926 -0.0671633 -0.26384 -1.82718
2550 1 -21.6622 -18.8436 -18.6675 0.31725 -1.59752 -0.621083
2551 1 -6.75951 10.725 -14.6643 -1.25841 1.45161 -0.425803
2552 1 -1.22455 -15.2357 7.06163 1.73072 -4.39531 0.619663
2553 1 1.9499 24.8203 15.8557 -1.27219 -1.53646 -2.95623
2554 1 18.3921 24.1451 -4.90246 0.573807 -0.667563 1.37555
2555 1 5.08863 13.1223 -8.03676 2.95617 -5.93232 -0.0958162
2556 1 -8.01091 -13.7595 10.8692 -0.674739 -3.77938 1.64795
2557 1 17.3982 45.9587 -14.0025 1.409 -5.77253 0.898575
2558 1 -19.4992 9.57105 -21.3872 1.16978 0.180568 -0.336754
2559 1 -16.7472 7.40904 5.97491 -3.03481 3.0577 2.1034
2560 1 22.2328 -23.6198 8.00855 4.25486 0.385285 -4.19692
2561 1 -10.8865 -1.44654 12 0.0899165 5.65282 -2.34596
2562 1 -22.0629 -3.89438 -13.3417 -6.15248 -1.9916 -2.72665
2563 1 20.0716 -5.14915 -21.9857 -4.1438 0.555322 3.89953
2564 1 -9.87549 -14.6824 -9.78212 4.2737 -4.72452 -3.49899
2565 1 11.2538 17.3942 11.2993 2.72432 0.811386 -3.73683
2566 1 23.112 -11.5503 14.3066 -0.524173 1.64647 -2.13313
2567 1 -15.2431 -1.32744 -17.2105 -0.890529 2.09234 -2.06538
2568 1 20.4272 -10.9556 -19.7279 5.13238 -0.913915 -1.40175
2569 1 -22.5842 -20.5804 -15.1051 1.15522 0.913139 -6.95516
2570 1 -21.9238 17.1248 -15.7658 -5.75792 1.24011 -1.53249
2571 1 13.6715 -2.86476 21.7406 -3.57279 -3.39904 -3.24777
2572 1 -21.3824 -19.6341 -7.49364 -0.0836618 0.208492 3.20937
2573 1 20.7797 45.0919 -4.76711 -4.28611 2.61143 -0.382951
2574 1 -18.5113 44.6816 -10.1842 5.70103 1.73417 -1.79847
2575 1 2.96104 17.2336 2.30946 -5.96442 -0.908431 -3.67337
2576 1 21.1435 20.5573 13.5706 -1.67097 4.13053 -1.26406
2577 1 13.5399 19.7422 -4.00569 -2.16169 -1.40707 -2.39432
2578 1 -17.863 -15.6368 -2.49569 -2.5414 -2.56568 2.54611
2579 1 -7.80632 13.1853 2.61995 0.558687 3.73144 -6.4027
2580 1 -23.4112 13.6652 -19.5874 -1.48863 -1.37792 1.78889
2581 1 -7.76969 16.6976 21.5432 -1.00689 0.170117 0.879553
2582 1 11.1234 27.0789 10.0195 1.24984 -2.51981 -0.695504
2583 1 5.89692 19.8477 0.236302 1.31831 -4.31344 -1.0877
2584 1 -11.85 -21.8808 -12.1124 -1.57051 5.31518 2.57853
2585 1 16.2454 -15.7623 17.6079 -5.09545 0.85701 -0.896426
2586 1 -13.0077 15.995 15.0433 3.20812 -3.32169 -5.94603
2587 1 17.8743 -21.0882 6.90905 -0.255592 -3.94545 -1.82085
2588 1 16.2041 2.59575 -19.6817 1.89916 5.0332 5.11609
2589 1 -0.196319 -5.37083 9.64676 4.0883 -1.79451 0.806086
2590 1 12.0664 -0.668736 -12.0596 -5.74793 0.377144 -1.41231
2591 1 -5.97277 -23.6239 14.3688 1.25737 -2.7427 -0.419897
2592 1 -1.53405 -17.9296 6.42703 -0.360856 -4.58768 -3.62577
2593 1 -21.4677 -8.48978 -23.0379 5.26148 -0.161432 -1.3308
2594 1 -23.5004 -8.7976 16.3326 1.12266 5.20733 -0.151125
2595 1 -1.72137 -18.4716 -18.9699 0.444125 0.505865 -2.04679
2596 1 -13.8033 13.4567 -20.8093 -3.12296 -2.94063 4.3105
2597 1 -20.3439 -2.98195 -16.5675 -3.07906 0.413965 3.57141
2598 1 19.7347 -1.74374 -3.33277 1.78498 -4.06239 1.01122
2599 1 -6.15292 4.63694 8.18267 2.88219 1.27453 4.44605
2600 1 5.18815 21.405 2.68419 5.70955 -1.51278 0.138638
2601 1 -2.68392 8.92575 3.5065 -3.50913 -2.50932 3.00979
2602 1 -6.80756 -10.0748 -3.94553 -0.304927 -5.92351 0.22774
2603 1 21.3123 19.8232 -2.30459 -1.14387 0.481131 -0.740804
2604 1 12.0462 -12.6756 -0.628072 4.60711 1.71488 -3.29279
2605 1 -19.4847 8.45834 -3.58952 4.69373 -1.46091 2.43325
2606 1 15.2131 16.5088 19.6051 -0.12645 -0.590798 -6.24673
2607 1 12.7435 0.867463 -23.1496 -0.942597 3.03421 3.21271
2608 1 14.8301 -19.0555 22.4212 2.78158 -2.9926 -2.84628
2609 1 -13.9255 -7.04846 -18.3606 2.60417 0.432757 1.3017
2610 1 1.14266 4.19474 -18.662 4.20932 2.82732 -1.44293
2611 1 -22.4411 25.5329 -20.3016 -2.32691 2.62303 -0.401306
2612 1 -15.0003 -18.7265 17.2581 6.98281 -0.159114 -2.54663
2613 1 -23.1912 3.62191 13.2203 3.06126 -3.17677 1.08197
2614 1 -11.0219 13.2626 -20.253 5.58374 -2.07841 -0.504654
2615 1 -1.76981 0.545149 17.1275 -2.14212 -0.872732 5.21283
2616 1 22.9062 -5.34439 -8.54165 2.51511 -0.148046 2.17462
2617 1 -9.91494 16.6158 -15.1066 2.10848 1.08324 1.369
2618 1 -4.97043 -16.9045 -11.447 -3.78578 -0.135066 -1.73494
2619 1 0.950524 12.2322 -21.2811 1.56468 -0.858127 4.00641
2620 1 -9.43843 16.954 6.17774 -3.39666 0.565284 1.78511
2621 1 2.91742 -22.1024 3.02878 2.01156 -2.62677 0.277053
2622 1 -0.522984 -20.427 21.6221 -0.551786 1.0732 -0.442259
2623 1 -21.6087 19.4907 -22.3047 -4.45323 0.790579 1.55599
2624 1 -19.4353 19.0253 -5.56444 -1.96356 -1.28616 0.152406
2625 1 -6.37871 -0.809698 -19.9236 3.31975 -6.09597 3.58865
2626 1 -2.00259 6.32893 23.5264 -2.61745 1.71659 0.00458667
2627 1 15.0282 27.9383 8.16236 2.91207 -1.70405 1.18786
2628 1 14.2249 -6.25391 -21.6403 0.755977 -4.20004 -2.20034
2629 1 -22.4406 -4.55189 5.39192 -0.261226 -3.83532 2.21031
2630 1 -14.0984 -8.56114 21.0767 2.096 -0.41975 -2.85695
2631 1 17.5653 15.6376 2.06481 1.7402 2.41205 2.20524
2632 1 16.0742 0.13821 -17.7429 -4.21769 3.28544 -0.135351
2633 1 -5.40568 -16.886 -19.6917 -1.10239 -2.11151 -0.945546
2634 1 -4.71192 10.9802 -21.7622 0.143531 4.34093 0.396416
2635 1 -1.30332 12.6639 -23.288 2.17381 -0.997243 2.53695
2636 1 -15.1749 -19.7976 13.0965 1.8968 3.8777 2.74517
2637 1 11.0163 -17.6708 -19.8327 -2.50327 0.225327 4.70252
2638 1 16.9939 1.71971 -8.39208 -0.616335 -1.6267 0.0471091
2639 1 -2.29063 -7.73467 20.4162 4.77501 0.28115 0.154818
2640 1 4.95257 12.687 -17.9744 -2.00563 4.44627 -1.90189
2641 1 -23.8053 8.14836 -15.1752 2.31391 -4.79274 0.0451123
2642 1 -4.44224 -19.6222 4.03312 -2.54789 3.80714 -0.893233
2643 1 -1.58637 -15.7002 -22.8659 -2.38921 4.59559 1.47275
2644 1 20.4457 -20.0908 -14.0253 -0.227236 -5.39196 -4.00749
2645 1 7.69546 46.3653 14.5167 2.49657 3.06742 1.59902
2646 1 -5.04274 11.0156 -4.15588 0.83946 -1.4369 3.10717
2647 1 -8.13524 6.21219 1.94812 -5.93158 -1.47566 -0.903453
2648 1 20.1998 -0.87702 3.62871 1.54334 -1.33416 1.64104
2649 1 -17.7798 22.2623 -8.38116 4.86584 0.532738 -5.8167
2650 1 -1.49122 10.396 14.9912 2.15765 -1.62623 -2.86816
2651 1 -17.2657 -19.4286 15.0377 -0.684261 -1.20071 -1.99956
2652 1 -21.3072 -6.41561 -14.4958 -1.14968 5.72651 2.32613
2653 1 -9.39336 11.3213 -4.61253 -3.47782 -5.53118 5.13546
2654 1 17.7843 -7.42757 -1.22719 1.65775 -1.2333 2.16458
2655 1 -6.0767 -11.3 0.419579 4.08017 -0.231134 -0.586654
2656 1 -7.60573 7.98035 -19.3028 -4.97822 0.40663 -1.87398
2657 1 -11.8073 -8.06895 10.1017 0.280942 0.9014 1.94706
2658 1 -3.97322 1.07631 21.0649 0.191216 4.56748 -0.83312
2659 1 17.1357 -7.60711 22.1206 0.458202 3.12557 1.57423
2660 1 -11.6422 25.3549 13.4107 0.481679 1.29705 -1.33996
2661 1 6.66492 4.80893 20.3979 -1.73662 1.16962 7.09495
2662 1 -22.8768 -23.0031 12.7889 0.755005 -1.15265 -2.40175
2663 1 -6.7101 12.9054 22.9638 -1.43726 -2.65563 -2.77337
2664 1 -15.4387 20.1941 21.9849 -2.1656 -0.745844 -2.38751
2665 1 -20.4764 3.61898 2.0142 0.334933 3.49259 -0.252301
2666 1 20.5387 46.3101 1.18126 4.27374 1.32917 1.81248
2667 1 -9.50797 -3.76906 -4.34275 -0.0532572 4.45644 -1.73564
2668 1 -6.91753 -15.1531 -23.6594 4.96378 -0.979988 -5.73253
2669 1 -0.432851 -7.91528 17.9781 1.96292 0.78953 -3.78021
2670 1 -24.0906 25.1308 -15.6201 1.45915 -1.66612 2.47719
2671 1 10.3127 21.3683 20.2161 -0.206675 0.945454 1.13132
2672 1 6.53054 -4.74272 9.2313 -1.20972 -0.193447 2.34465
2673 1 -13.8953 -24.3396 -2.56929 0.235769 -2.98931 2.4851
2674 1 -8.02042 -20.6901 -2.75922 -0.925399 1.48248 6.36566
2675 1 17.7298 5.97001 -11.2221 -2.24948 -0.296115 0.394714
2676 1 22.0863 21.3421 -17.9583 -6.75172 0.805596 3.37296
2677 1 -0.172108 -20.2837 0.328873 3.33063 -1.21797 -3.70338
2678 1 6.28206 -20.0545 -16.5599 -2.52334 -3.81423 2.04825
2679 1 6.33513 -3.11404 1.75452 -0.97661 3.00026 -5.12227
2680 1 12.0387 -7.28016 -7.51041 0.669597 4.52127 0.0304207
2681 1 -16.1282 -8.25903 -15.4126 1.71303 -3.63775 3.89709
2682 1 -20.6504 4.47616 12.154 4.04715 -3.77659 1.30283
2683 1 -15.4966 6.54366 -17.0346 -5.50585 3.89008 2.018
2684 1 21.6842 -11.7572 3.18247 3.03453 -0.0921201 -2.3529
2685 1 -2.07403 -5.33012 7.43316 -3.44743 -1.47396 -1.55955
2686 1 6.26687 -22.107 -20.827 -0.883272 -1.82444 -3.38358
2687 1 19.1503 -16.4194 -16.8874 -0.964732 4.27286 1.67926
2688 1 -17.6995 -2.51999 -0.311541 -2.27841 -3.25625 3.99535
2689 1 -9.00809 -0.727531 -7.14504 1.88825 -0.531841 -0.247838
2690 1 -13.8273 -14.9402 -21.2886 3.5388 -2.39395 2.74157
2691 1 -18.5716 46.0203 19.8771 -1.36767 0.662112 5.58255
2692 1 4.44409 0.00712833 -15.5376 -0.930559 -2.45997 2.55173
2693 1 6.4093 17.1207 -17.054 -5.76967 3.01241 2.6489
2694 1 -6.82412 -7.12306 18.9727 -1.19138 -2.55574 3.55648
2695 1 14.4944 9.07092 10.9139 -6.93427 1.35737 0.873142
2696 1 -22.8838 -15.5583 22.4364 -1.7537 0.421957 2.48334
2697 1 6.4164 -4.15265 -4.19703 -2.76428 1.84502 1.29766
2698 1 14.8731 -16.2801 22.3197 3.68473 5.89814 -1.37152
2699 1 -15.8011 16.2313 -2.38123 3.59129 -0.0901078 -4.08723
2700 1 -8.45809 -20.7926 3.46648 -0.983679 -3.38837 -1.30167
2701 1 -21.0355 22.5857 -0.271829 0.569906 3.30547 3.94675
2702 1 -8.83813 19.2422 -18.9528 2.5218 -1.52363 -0.0136962
2703 1 9.45268 -6.88233 -13.3281 -0.594168 4.09301 -4.5024
2704 1 0.67079 -22.8322 1.09767 2.58577 -1.75206 1.91259
2705 1 -2.72784 -3.39446 9.44172 10.2178 1.2116 5.36702
2706 1 3.88722 -22.6153 20.022 4.83234 -5.93996 1.11276
2707 1 -10.528 -12.1269 2.212 2.45121 -1.14015 4.23543
2708 1 -14.1507 -0.067947 -23.0564 0.303254 1.80914 0.504928
2709 1 21.9323 -2.27146 17.7889 -0.905927 4.36257 -0.193541
2710 1 -3.72105 16.5447 18.1911 -4.07342 -1.05855 0.968709
2711 1 -13.4725 -6.60195 -21.9781 -6.69824 1.53326 -3.75755
2712 1 17.9049 14.1868 7.57342 2.2263 3.37894 -2.04483
2713 1 21.8999 3.95634 -7.83408 -1.70508 -0.449387 -2.71472
2714 1 -18.1479 4.46683 -9.07596 -0.873304 -0.952854 5.65376
2715 1 -13.0816 13.5553 20.5434 1.64657 3.36767 -0.116294
2716 1 17.6978 12.8396 1.72241 -0.558773 4.72386 -0.158218
2717 1 9.14282 21.9159 10.0142 -0.500336 2.26283 -1.74103
2718 1 10.3143 -12.0738 -21.0643 -7.7866 -3.39635 -3.11928
2719 1 19.3608 -12.6096 1.94658 -0.589375 2.24731 -0.230978
2720 1 -14.0725 -14.138 -18.4091 5.59811 -1.5206 1.53417
2721 1 5.10105 -11.2685 13.1607 -0.164994 0.479748 3.86896
2722 1 -7.76384 19.7331 -9.87247 0.195593 3.06464 -3.61207
2723 1 -5.32016 16.4685 13.7193 2.34685 3.39302 -5.16996
2724 1 -7.46352 6.77817 6.60933 2.34594 4.42736 5.13451
2725 1 -4.07967 9.37158 -18.2671 1.2859 -2.14386 4.27344
2726 1 -10.0436 -6.94846 -23.9169 -2.61737 2.45586 -0.946376
2727 1 -11.3411 -18.8462 -2.26995 -0.904945 2.01583 1.29262
2728 1 22.4907 -1.24693 10.3568 -3.7006 4.04827 -1.98602
2729 1 -2.61054 43.8924 -19.4164 -2.55629 1.33717 -1.38016
2730 1 -8.33445 -16.5243 10.6848 -4.14434 -4.40192 -2.10605
2731 1 22.3035 24.8468 -7.00225 -0.819692 0.487934 6.49156
2732 1 -0.575815 4.78514 4.9801 5.14617 0.0392047 -0.718437
2733 1 -8.35832 10.8105 -18.1853 -2.58546 -0.504132 1.22459
2734 1 16.7334 -8.82598 16.957 -2.44002 -1.83791 0.159773
2735 1 -4.65837 8.9343 -15.1313 -1.51122 -0.269862 3.85139
2736 1 16.1226 15.7496 22.6179 -3.81725 6.53065 3.74944
2737 1 -20.5816 -20.2062 -2.96217 6.34644 -0.695553 -1.68377
2738 1 -5.19089 11.375 13.2331 4.38085 2.01203 1.28888
2739 1 -10.2499 -6.0584 21.025 -4.69451 1.36329 -2.49313
2740 1 -11.3221 -16.3434 -17.9085 0.538247 -0.872138 2.01526
2741 1 -6.05129 10.1173 4.4934 -3.63665 -0.251459 -0.244127
2742 1 -12.7927 14.7613 5.86712 0.584183 -1.45245 0.542559
2743 1 3.32623 -21.1358 -9.99722 3.6573 1.38638 0.368604
2744 1 -14.8678 -18.27 -20.5403 3.95901 -4.55534 4.54094
2745 1 -12.0576 22.4802 0.817641 4.6905 1.7427 -0.372398
2746 1 4.14557 -13.0584 -4.74845 0.982391 -3.42107 0.76945
2747 1 1.78288 3.34109 16.5312 1.84535 -4.3909 2.82947
2748 1 -5.35367 -0.554843 -9.50445 3.65592 -0.245471 -3.58714
2749 1 -12.8263 -6.37626 22.7179 -5.05551 -1.34279 -0.0423818
2750 1 -14.2994 23.2102 -20.3788 -1.56453 0.223811 -1.97956
2751 1 10.2055 -22.2124 6.15325 -4.1379 4.03233 0.622127
2752 1 -6.46801 17.5828 -11.1533 0.581246 0.754116 -0.0921142
2753 1 -1.13834 -5.32564 12.5211 -2.05482 -2.54965 -4.62768
2754 1 -13.7548 24.597 -0.185074 -1.12983 -2.82183 2.03502
2755 1 0.671004 -13.472 14.4423 0.578844 -1.56621 -2.05468
2756 1 22.379 10.956 18.3582 1.67691 1.25333 3.26602
2757 1 15.8092 -17.7045 19.919 -2.791 -0.713952 -1.68074
2758 1 -20.3561 -14.8193 -9.80019 3.54081 0.635769 1.99936
2759 1 -18.1389 -15.5415 8.22829 1.68253 2.32265 -0.959656
2760 1 -2.33731 14.9541 -17.2797 -2.72287 1.8 1.17404
2761 1 -4.78897 -8.85286 19.9548 -5.12374 1.50828 -0.240931
2762 1 -10.5587 11.8477 9.47588 -0.0599042 -1.44032 2.72356
2763 1 -8.30172 -10.723 16.0951 2.13196 3.46071 -5.68866
2764 1 9.29486 18.7958 -13.4826 -2.21186 -0.596114 1.21844
2765 1 9.17026 -15.6154 -19.5551 2.3075 -0.246297 -4.28744
2766 1 9.05652 5.86775 15.1073 4.04359 1.3824 1.31102
2767 1 -12.5696 -17.6048 -22.2445 0.171607 -2.4303 -0.504236
2768 1 -7.70856 22.8542 0.60128 2.02362 1.48732 -1.48176
2769 1 -14.5904 18.3708 15.7033 1.70454 -0.262943 -0.588513
2770 1 -23.6326 11.8845 4.22915 0.748581 2.92561 0.460509
2771 1 -18.1649 -16.8716 -16.8631 0.315976 -0.870072 -3.73312
2772 1 -14.6193 20.4928 -17.7316 1.84332 -1.04773 1.52412
2773 1 9.68392 24.3376 4.78366 -1.00381 -5.01212 7.88711
2774 1 20.607 -1.27809 -18.0412 -5.25993 2.1506 -1.76163
2775 1 -3.10242 -18.8885 15.066 0.350223 2.51822 -7.48725
2776 1 12.2271 5.43833 -10.8087 -0.504596 0.35634 1.08194
2777 1 -12.3961 17.4195 6.4924 5.4383 1.6731 -1.55974
2778 1 -19.6503 19.7895 19.2288 3.79525 -2.82642 -2.68833
2779 1 18.2246 17.3218 19.1895 -4.88748 -1.90938 5.98621
2780 1 -10.9997 0.586475 -5.4801 -0.182669 -1.13641 5.61607
2781 1 10.0147 26.0253 12.468 -3.27826 1.68643 5.20493
2782 1 9.3408 -13.1632 14.4288 1.02201 -1.55439 2.80004
2783 1 11.8855 -9.95441 -12.8553 -2.41288 4.31103 6.53961
2784 1 -11.8007 3.33242 -0.652031 -4.05599 2.42867 3.91799
2785 1 22.0005 -6.40347 -15.5227 -0.42434 4.01344 -3.2255
2786 1 6.62468 -4.13889 4.47232 2.58384 -2.45003 2.07083
2787 1 -14.288 14.9752 -0.348939 1.66838 -2.70468 1.97668
2788 1 -21.2487 17.5931 12.7885 -3.65549 -3.04848 1.38165
2789 1 10.2146 -6.88169 -5.02052 3.97631 3.35502 -4.16418
2790 1 -8.64769 -6.06162 -16.05 -2.34223 4.25888 -2.97157
2791 1 23.1542 17.4186 -4.59497 -2.86147 2.31177 -5.26578
2792 1 -4.63374 -3.08683 5.46636 0.282286 1.73963 0.753932
2793 1 0.296358 2.97074 7.43449 -0.37521 -0.309201 1.65503
2794 1 6.1213 19.5542 -6.43186 -0.768709 4.29279 0.534268
2795 1 21.6011 15.1223 -15.8105 -0.88878 -1.57763 4.50706
2796 1 18.8012 -17.655 11.3551 2.3726 -0.226905 5.61781
2797 1 19.3906 -10.133 17.9296 0.357886 1.06315 -0.455492
2798 1 -21.0274 -0.109085 -4.93217 -0.804365 3.54733 0.91917
2799 1 1.79819 -19.1662 -8.03228 1.92023 4.676 1.42363
2800 1 -10.7563 -15.646 -15.0036 4.30373 -0.392281 2.56728
2801 1 3.95704 19.8601 7.93335 0.543892 0.627526 -0.393359
2802 1 8.70373 9.28165 -12.457 -0.179638 -1.10047 2.20718
2803 1 -24.085 -8.84458 -18.583 0.90684 -0.721901 1.2198
2804 1 -15.975 18.2754 -7.58816 7.27286 -3.98338 -1.76582
2805 1 -17.8202 7.20204 -11.7347 -1.31467 3.50242 -2.84572
2806 1 -3.92434 19.8714 -17.405 -2.944 2.79719 1.18875
2807 1 -21.4367 18.7883 -1.22131 2.14594 2.22175 -1.36663
2808 1 5.15476 45.8339 -13.7846 0.513263 3.03031 -0.542013
2809 1 -13.0737 20.0562 17.6489 -2.23435 -1.99479 0.0121883
2810 1 6.23436 24.5678 -15.0806 -7.78274 -1.20925 -0.638504
2811 1 -11.3713 12.881 4.06134 0.630036 -3.37502 2.11805
2812 1 -9.63117 -0.510514 -22.0028 0.816434 4.43007 1.55156
2813 1 1.15117 -12.0224 -15.9343 -1.80841 -0.336264 3.86804
2814 1 20.8411 -4.498 -6.39284 -1.57549 2.55233 0.274307
2815 1 23.1049 6.21608 4.09469 2.85528 4.10766 -1.69393
2816 1 -1.72088 -15.4091 19.4103 -0.884076 -2.36008 2.43168
2817 1 7.85888 -14.6185 -21.9737 -0.421462 -2.93537 -1.90332
2818 1 2.84522 -8.44564 3.71518 -0.780112 -1.88519 -2.06681
2819 1 17.4353 14.3458 15.8378 -5.38455 2.95125 -0.0134272
2820 1 -15.0345 26.6143 4.90421 0.738794 1.62676 1.02612
2821 1 11.7577 -6.49501 -11.7377 -4.15654 3.43967 0.380857
2822 1 -14.5166 -2.83105 5.71735 -2.73128 2.70499 0.9267
2823 1 11.891 -15.8895 4.09216 -3.71804 0.524188 3.91969
2824 1 8.1009 15.1891 17.0903 -0.048216 0.228351 3.22137
2825 1 13.9968 19.3271 -8.67841 7.0856 -0.352184 5.37055
2826 1 9.9472 -19.0373 -4.29151 -2.47882 -1.66145 6.82613
2827 1 5.09881 -9.11097 21.6091 -2.33178 0.633458 3.35755
2828 1 -0.897126 -7.82816 -17.1317 -0.409848 3.57345 3.10514
2829 1 18.0548 -23.859 8.16303 -2.46661 -2.58937 0.760945
2830 1 -23.1974 7.42368 -0.870394 -3.43786 -0.825554 2.31842
2831 1 19.8758 2.26065 -14.1435 -2.96944 -5.03219 -1.77459
2832 1 -20.5446 -22.6048 -11.0398 -0.746629 -3.83072 0.440361
2833 1 -21.1679 1.47907 3.65882 -3.00568 1.16332 0.63364
2834 1 -10.0077 -18.0579 22.9305 -1.3937 0.281177 -4.91881
2835 1 -3.27677 5.05753 2.27635 0.143551 2.42241 0.893323
2836 1 -12.77 20.8045 -5.46489 -2.08928 4.21429 -3.86597
2837 1 -16.6862 10.6249 -8.9497 -1.54918 -3.12888 -0.632267
2838 1 19.7566 -7.22923 16.7429 -2.18631 1.00543 -4.63318
2839 1 -20.3119 -2.65601 -23.4049 -0.846331 0.466799 5.44786
2840 1 2.96628 -19.6921 21.8046 -1.21665 4.60081 4.49991
2841 1 19.5201 -18.9455 -3.2921 -3.14882 0.10129 -1.91763
2842 1 -2.98859 -12.8546 -9.94516 -4.68036 -3.84869 -1.83081
2843 1 16.8898 8.3465 -23.4905 4.79147 -3.28235 -1.0902
2844 1 21.6551 16.2525 7.25446 -0.629914 4.72576 0.495664
2845 1 21.1312 4.16939 -22.835 6.91539 -3.56465 0.433578
2846 1 -20.59 -0.433464 1.78784 2.51639 -0.799689 0.466318
2847 1 6.34489 14.4693 -0.270944 1.10093 3.78694 1.45632
2848 1 -18.0409 -21.9248 -12.0591 5.37968 1.11948 -2.91169
2849 1 -21.4943 46.6961 14.7848 -5.65334 1.3644 0.132675
2850 1 2.40449 1.9364 -7.92497 -3.2271 -1.73859 -0.519617
2851 1 -4.95806 25.6525 20.4334 1.35353 -4.123 -1.39054
2852 1 2.65301 -7.33409 1.1058 2.25827 -2.41247 -0.861854
2853 1 -2.12295 25.1579 21.17 6.55742 -1.67708 1.03489
2854 1 4.75828 -9.01953 -6.96858 2.39253 1.80847 -3.64963
2855 1 -18.5616 -8.67138 -20.484 -0.874499 -1.42997 1.82186
2856 1 16.5268 -18.1038 -0.268342 3.8033 -4.14462 1.23038
2857 1 19.0201 8.03089 11.163 1.61778 -0.958219 -0.0303708
2858 1 10.7386 -2.51386 -22.0744 3.68787 3.55684 0.471831
2859 1 -21.7986 46.1139 -20.6703 -0.579761 0.856297 -4.92289
2860 1 -21.8784 6.48338 18.4167 1.18392 -1.71063 0.83738
2861 1 13.6078 13.2081 19.3699 3.00863 0.255813 -1.26685
2862 1 11.7732 -3.94014 -17.4666 2.18402 4.23245 0.446266
2863 1 21.4368 -19.5354 -19.426 1.25423 4.77089 1.50107
2864 1 -16.1653 13.5975 15.4723 -0.721446 4.44804 0.545618
2865 1 6.76096 9.93644 -0.876527 0.18216 1.75015 2.09572
2866 1 -19.931 25.5394 -7.39183 0.958061 4.93665 0.305801
2867 1 -19.6451 20.4034 -11.9061 3.58612 -4.83502 2.3936
2868 1 4.4273 -23.3466 17.3559 3.09573 2.7897 0.959665
2869 1 -22.1863 -18.8393 16.9307 -1.86168 -0.410623 -2.68696
2870 1 -10.2108 14.8283 -10.1323 -5.07958 2.74942 -2.44564
2871 1 -13.9453 21.5372 -23.8818 3.19993 -0.444431 -0.315316
2872 1 7.82079 8.77072 9.83037 -2.86637 2.25606 -2.29801
2873 1 -10.2811 2.4664 3.66801 -6.8598 -2.02281 -4.48036
2874 1 1.01409 -14.326 -13.7732 0.547349 -1.79214 -1.09259
2875 1 18.7638 -7.44204 -9.63067 -0.18282 1.00043 -0.746737
2876 1 19.7547 -22.6407 -22.9698 3.08711 -2.82415 -5.41346
2877 1 8.06178 -7.59861 5.85349 -4.14563 0.276618 -1.45588
2878 1 -17.7545 23.0254 -11.2807 0.841948 4.50871 -2.61726
2879 1 2.5576 17.7159 6.37323 1.27027 -1.65576 -4.17504
2880 1 -0.905447 0.542928 21.1166 0.325298 -1.1613 -2.60941
2881 1 -17.7108 17.2111 -20.8604 -0.352877 -0.147361 -4.69072
2882 1 -18.7283 -16.4119 19.5547 -2.34327 -1.57415 4.74755
2883 1 12.421 -15.4918 -0.761719 2.62052 1.19049 -4.33532
2884 1 7.39871 -6.09577 -21.6966 5.54176 0.745478 6.40357
2885 1 -9.25489 4.18153 -5.19684 -4.40997 -2.58856 -4.80126
2886 1 12.8642 24.5309 0.863655 -0.664432 0.823421 -0.514683
2887 1 22.2848 17.582 20.4525 -2.41046 -0.351856 2.06805
2888 1 -12.6334 6.55809 -22.6583 5.53615 -0.448722 -1.13621
2889 1 4.24509 -3.15415 9.57147 -1.48876 2.78221 3.46199
2890 1 -3.75977 -3.82591 -22.949 -0.247028 5.5633 1.47939
2891 1 8.49007 -3.11878 17.5274 -0.571288 -6.20634 4.43341
2892 1 21.7682 18.8352 -8.58533 2.77558 -4.93916 -3.34466
2893 1 -11.18 -15.6195 23.8498 3.27111 2.24116 1.6126
2894 1 -9.87923 7.34905 16.1418 -1.09451 2.93443 -3.55756
2895 1 -18.2269 23.4105 18.9018 1.95975 1.34677 -0.211301
2896 1 -12.5562 4.68542 17.6235 1.79849 1.21646 0.878562
2897 1 -2.98895 16.2537 -2.62188 3.15759 4.84601 -2.16333
2898 1 -9.15977 -10.2353 -21.3635 -2.316 -0.144688 1.69276
2899 1 -4.70175 -23.0009 20.2126 -1.66592 0.0822119 -0.238955
2900 1 17.0698 3.41292 22.3271 -0.610124 1.38522 -2.13174
2901 1 -9.68435 -18.9105 -17.5488 6.0018 0.436263 -2.0687
2902 1 23.3662 -0.116776 -20.6215 0.33411 1.00821 -1.20146
2903 1 -13.6638 -14.4974 6.85709 0.373234 -2.12353 1.80738
2904 1 -4.547 14.4828 -0.708597 -2.42174 -3.58559 0.44004
2905 1 -16.0295 23.8969 20.5114 4.60791 -3.44669 1.62267
2906 1 12.8066 1.40948 13.6909 5.9938 -1.94518 0.685045
2907 1 -17.0023 24.5259 -6.90038 1.09447 2.72067 1.70016
2908 1 -0.905304 11.415 20.4393 4.31427 5.42121 1.93553
2909 1 -10.0213 -4.97677 -20.7287 0.625687 -0.67785 -0.268084
2910 1 -12.7251 8.78914 21.7103 -5.17488 3.1527 -0.884378
2911 1 1.68219 5.54825 -21.4282 6.78768 -1.99505 -0.710985
2912 1 11.2955 -14.3523 -6.39688 -2.35041 -0.572647 -0.913421
2913 1 16.9384 4.1119 -3.13103 -0.461877 -1.3979 0.896826
2914 1 -0.908001 1.36231 14.1482 -6.54525 4.79172 2.86347
2915 1 -12.846 -14.1948 21.6719 -1.46424 1.10154 -1.36255
2916 1 17.5213 16.9288 -4.46734 -1.58271 4.13754 1.37708
2917 1 -5.27113 9.61711 7.99876 0.154448 -1.72525 -4.24582
2918 1 15.8417 6.1861 -4.66734 -0.215637 4.56928 -1.1818
2919 1 -23.7272 -16.9494 -1.30066 0.899425 4.01555 1.33348
2920 1 22.8205 13.6482 8.59799 -3.18631 -0.981745 -3.64406
2921 1 -16.6612 20.3312 6.92978 -2.29019 1.32511 3.27386
2922 1 -14.9817 -20.141 22.9606 0.297068 0.630132 -0.649104
2923 1 -16.0985 0.868442 20.9575 -0.436379 0.951844 -1.59484
2924 1 -4.79501 -16.6622 21.1117 -1.5925 0.64792 4.76523
2925 1 17.72 -9.412 13.1905 1.94264 -1.88809 -0.869583
2926 1 -7.68776 8.86956 -12.9394 2.0926 -1.56086 0.297722
2927 1 10.3649 3.26532 -0.408497 2.79384 -1.50395 -5.08326
2928 1 22.251 44.6255 -11.748 -3.21054 -1.33688 1.4775
2929 1 6.29339 -12.2299 2.90326 -2.33979 2.40351 2.0027
2930 1 -18.7189 8.57534 -0.515407 2.696 -3.24745 2.71243
2931 1 1.26417 -10.2426 17.9848 -0.108732 -3.52802 -7.51212
2932 1 6.82083 18.9621 17.6894 1.46745 -1.53139 1.27771
2933 1 21.0748 -7.12895 10.3715 -5.52496 4.47868 0.25246
2934 1 11.4711 1.90529 -20.7136 5.21388 -2.2058 -3.42858
2935 1 6.13538 23.6525 1.28835 0.746001 3.47938 1.77185
2936 1 -22.3839 6.49857 -8.91955 -2.02747 0.391022 0.951306
2937 1 -18.2022 4.17174 -12.4145 3.07805 -0.215809 -4.66145
2938 1 -9.75794 -3.5463 -1.51476 6.52691 -1.59366 -0.426319
2939 1 -12.9558 19.3179 4.44432 0.497848 4.65683 0.810414
2940 1 16.0727 15.2988 -0.241098 -1.01362 -3.35613 3.25197
2941 1 -6.5444 4.44038 -10.3807 5.59245 -3.99422 0.388543
2942 1 -21.1624 14.4922 20.3645 -3.39272 -3.65841 1.06796
2943 1 -23.9019 6.30098 12.0746 3.23372 -5.967 -0.493829
2944 1 9.57414 -22.4895 14.948 -2.78553 -6.07617 -3.22601
2945 1 -7.10244 11.7803 -8.24193 -0.75888 0.467203 2.73219
2946 1 11.0507 0.573426 10.3626 4.48509 0.889568 -3.61168
2947 1 18.8954 -15.7447 -22.3727 -1.20736 -2.63186 -1.27115
2948 1 3.05039 -19.6168 -2.55944 -2.8094 4.64606 2.34115
2949 1 -5.47763 -20.8664 -23.1185 -3.56538 1.29639 3.17793
2950 1 -18.7465 16.653 4.85791 0.392242 1.40917 3.09763
2951 1 13.7445 -17.6988 -13.0569 -2.49878 -0.985847 1.67439
2952 1 -11.423 22.9436 -19.9606 1.42879 -1.52163 -1.09875
2953 1 16.3912 4.55313 -0.306596 3.55525 6.46569 -2.14984
2954 1 -17.8932 -0.61723 8.35573 -3.65755 -5.79153 1.13
2955 1 14.012 -10.6334 14.7829 1.66397 -0.112656 0.270983
2956 1 -13.777 21.2061 -1.31319 -0.133841 -3.73354 3.68537
2957 1 2.47394 -18.226 13.4639 1.72724 -1.80033 2.02123
2958 1 5.67633 -7.29571 -10.3483 1.43381 0.38973 -1.71857
2959 1 -17.7193 19.9556 -21.1211 0.0731759 -2.93985 -1.73995
2960 1 -13.6503 -2.36013 -19.9975 0.687174 1.17268 -5.40354
2961 1 -12.9513 -12.0181 -21.198 -2.53833 -1.97755 -1.4807
2962 1 -9.35445 -0.718452 -14.4081 6.17053 -3.5826 -0.308929
2963 1 -23.7616 13.0031 -4.63315 4.03873 3.56087 0.257948
2964 1 -0.72434 -20.5952 -22.4643 -0.471489 -1.40088 4.59539
2965 1 16.8676 -0.328859 -15.1062 -2.60082 0.623672 -3.33408
2966 1 -3.12889 -22.6642 17.7013 5.27665 0.565107 -2.92952
2967 1 1.5821 12.3038 9.08322 -3.28283 3.6666 1.69017
2968 1 -4.72978 -16.6269 0.0168034 -2.01982 2.30273 0.394999
2969 1 -2.01905 -1.41706 18.9172 -7.1885 0.590826 -1.39815
2970 1 20.9405 -12.8751 -13.0712 3.20381 -2.61686 -3.76676
2971 1 -4.77448 20.1079 10.6536 0.186768 -0.844115 -1.44199
2972 1 -9.94695 10.2067 -11.6145 0.312541 -2.01654 2.10182
2973 1 -12.2501 17.8742 21.6393 3.92621 -0.0433247 1.94097
2974 1 22.9927 -0.426082 19.8101 5.32321 -1.35046 5.81351
2975 1 15.142 10.8871 -1.756 -2.20373 2.75175 2.89492
2976 1 -17.8184 21.8416 -13.9208 0.690179 -1.06611 -3.6665
2977 1 2.98378 -10.387 1.37518 2.18552 1.10354 -1.93703
2978 1 12.0797 19.7532 -14.4995 -2.40871 -0.0720101 -1.23492
2979 1 6.26961 3.02725 17.1059 0.224191 -5.24753 2.15764
2980 1 -3.13588 13.1184 -3.08975 -0.986692 1.07191 -1.0962
2981 1 -13.7952 9.4146 18.825 7.71955 -1.83711 8.32373
2982 1 -12.8289 -6.43589 8.1146 7.18755 3.19738 1.12308
2983 1 -9.20267 14.7106 -21.8212 -0.634402 -3.36694 -5.68056
2984 1 1.82931 -0.614987 -21.5431 -0.319937 -2.93276 -1.86139
2985 1 -14.6201 -13.5891 11.8212 2.0998 -0.938299 2.59646
2986 1 -6.191 21.9576 -21.7653 1.85702 3.87311 -0.213534
2987 1 -20.2117 45.0991 -8.17607 0.52171 -1.93383 0.227341
2988 1 1.51441 -22.9968 -6.03694 1.87412 1.36837 -1.79474
2989 1 20.538 20.5341 -10.331 -4.35601 -2.02401 -1.92107
2990 1 11.4981 -20.2834 16.0315 -6.37965 -2.56317 -0.572638
2991 1 4.03538 1.9926 12.8644 0.921631 -2.74491 1.80793
2992 1 22.4677 13.1139 -11.5479 4.40665 -4.51099 -0.380286
2993 1 -23.0148 17.9098 17.8066 -1.57025 0.100556 2.51717
2994 1 19.9054 -0.818585 11.0132 -0.969135 2.72083 -1.14036
2995 1 -2.59632 10.4728 -6.01052 -1.96439 3.35898 -1.86001
2996 1 11.5752 6.19472 4.97474 2.574 -4.24463 -1.18442
2997 1 -6.06148 -17.9937 7.34319 1.61328 -1.54833 4.82321
2998 1 4.44121 -17.6275 15.6414 -2.81705 -0.645823 2.4098
2999 1 14.351 -19.1049 -4.44318 -0.203261 -5.46688 -3.37771
3000 1 -0.84072 15.2528 14.6001 -1.50655 3.24995 -0.120681
3001 1 11.0523 13.8483 7.40762 -2.51727 8.12581 0.405965
3002 1 -19.2689 15.6849 18.1429 -0.171858 -2.38997 -3.99782
3003 1 14.9773 14.867 11.7554 -3.2525 -1.85967 3.6719
3004 1 16.6587 19.7053 -15.8866 -4.12362 4.72891 1.1315
3005 1 2.31577 4.80682 -4.62159 -2.13985 0.168523 -1.51789
3006 1 19.8555 5.61847 -20.6123 0.645735 -3.7198 -3.8707
3007 1 -7.44351 -22.4059 20.6741 8.07218 -0.860803 0.940426
3008 1 -3.3746 -20.8136 21.3735 0.0877533 2.08925 -1.12934
3009 1 -15.1506 -22.1238 9.24784 -5.73672 4.00549 7.3313
3010 1 -16.2048 -20.9422 -15.8966 5.48346 3.77316 -1.93331
3011 1 -7.31953 -1.46084 -12.2698 -4.29828 -1.41485 4.3019
3012 1 2.04178 -23.2435 -20.5155 -5.85309 -2.8963 0.278008
3013 1 9.71063 -16.676 21.8748 -2.01114 -6.38209 0.984411
3014 1 21.3127 13.5516 19.3646 0.461996 -1.50295 4.17551
3015 1 -1.10572 13.49 8.79091 -3.01732 0.0278089 0.589425
3016 1 16.4272 -14.3189 -23.2877 -2.35569 -2.48309 0.715411
3017 1 -12.498 9.46175 -21.6692 3.26228 -9.07299 3.96617
3018 1 -23.4754 0.45602 -13.5331 -1.75375 -1.56333 0.525045
3019 1 -18.7512 -22.5292 11.2667 -0.852627 -1.20173 2.9551
3020 1 -13.5068 -10.0159 9.03903 -2.75042 2.68992 -3.28669
3021 1 -18.7639 25.731 -3.38611 -1.92344 2.99652 1.23227
3022 1 14.7757 -13.4627 -0.459784 -1.5984 1.5604 -2.71724
3023 1 5.41422 19.6886 -3.49943 1.02307 -2.97676 1.20666
3024 1 -22.577 8.37587 1.76388 -0.281919 -2.82263 2.21846
3025 1 4.76473 45.9256 10.2959 -1.74241 4.66746 1.56898
3026 1 0.619042 -22.0378 7.37191 -5.77134 0.87191 -1.08328
3027 1 13.2913 4.82633 10.0989 2.14808 -3.29794 -0.500443
3028 1 -18.7187 13.5357 21.135 4.00402 1.99603 -2.46456
3029 1 6.54296 5.27417 13.9743 2.42528 -0.97559 0.209202
3030 1 -18.3331 17.8176 -12.4517 -0.0277653 -0.429181 -1.09758
3031 1 23.1976 -11.4105 -19.8816 -2.88829 -4.28321 -0.590724
3032 1 17.7466 -11.9016 -8.12709 -0.187096 -1.67323 2.70331
3033 1 -10.9768 4.40608 5.49793 -2.75264 2.41269 -0.493468
3034 1 -11.9528 -7.32476 -16.406 6.27751 -0.251645 4.71696
3035 1 19.1864 16.2872 5.89578 -5.14383 -0.0496849 2.38719
3036 1 13.228 19.7129 22.6009 -6.32488 0.375057 2.24695
3037 1 -4.25675 -9.30846 5.81545 3.70648 0.372113 1.43145
3038 1 -16.3201 45.9973 -18.2625 -3.61256 -1.98538 2.46026
3039 1 18.3858 45.0257 16.4978 0.167235 1.24395 1.98278
3040 1 7.88351 -18.3353 14.7302 -2.11454 1.95072 3.85552
3041 1 -19.5245 20.9481 -1.99056 2.58522 3.20955 2.77071
3042 1 -6.11655 22.5778 13.6894 1.30405 1.95184 -0.578746
3043 1 6.75382 -11.8783 -16.8128 -0.072175 -1.28729 4.90991
3044 1 -6.68909 17.6289 -4.89667 -6.91402 8.87493 0.763661
3045 1 1.19945 -3.40446 1.93851 -2.79048 2.21693 1.33815
3046 1 18.8645 -12.324 -16.5083 0.392939 -1.70874 0.747445
3047 1 7.8282 20.4321 3.72789 1.9704 -2.76995 -1.46732
3048 1 7.00055 -10.4546 19.7385 -0.0213868 1.41493 -0.533562
3049 1 -9.62536 -23.5552 -16.3612 -3.0314 3.20961 4.59513
3050 1 1.57088 -23.3691 16.5671 -4.72964 1.77478 -0.862136
3051 1 -18.9519 -0.355473 -13.132 -0.396475 -0.854673 -3.69669
3052 1 -21.7132 14.5346 -14.6034 -1.75554 2.87488 3.57679
3053 1 20.7496 -23.0422 -0.920948 4.44394 1.97572 1.90991
3054 1 21.5943 -2.27647 21.5969 1.82173 -0.997507 6.21354
3055 1 19.2195 3.3863 4.94056 -1.83121 0.616095 -3.22997
3056 1 -22.4801 14.2064 13.9692 0.773179 4.87917 1.36048
3057 1 19.0229 9.99014 -22.8171 -2.47136 5.6975 -1.47687
3058 1 10.0414 -6.05595 10.8989 -1.59991 -2.42252 -8.335
3059 1 -12.2869 -20.4029 -5.50799 1.59352 1.19761 0.135774
3060 1 -23.5163 24.7708 -3.98966 3.13645 3.56324 -0.388067
3061 1 -9.84782 25.5289 -16.0394 -0.263661 -0.656347 -1.46942
3062 1 -12.1053 15.2276 -16.3284 -1.53346 -0.168858 -1.57552
3063 1 8.61386 22.8326 -12.6349 -0.329632 1.84656 -0.709849
3064 1 -0.205969 10.6381 -19.0073 1.70691 1.50716 -1.02758
3065 1 8.27372 -11.7411 -11.3351 0.607273 1.46027 0.548663
3066 1 22.3778 -3.22538 1.21161 -0.194108 -2.67984 -2.81543
3067 1 17.1037 21.1382 -12.0454 -4.09884 1.55423 -3.68792
3068 1 19.9558 16.317 -2.41659 -3.46245 -4.53675 -1.40647
3069 1 7.33682 -7.10962 -4.11996 -1.95174 1.9049 6.01436
3070 1 21.7645 -8.16944 -0.972554 -2.72825 0.890988 -4.02458
3071 1 -4.48132 -1.06621 -4.27927 4.13655 5.27721 -4.66304
3072 1 -0.200059 10.2434 23.161 -1.4734 0.934025 -1.06459
3073 1 2.92081 21.527 0.821727 0.15583 3.81966 3.78546
3074 1 -8.89295 -7.62333 9.36318 -0.465438 -1.54348 1.88191
3075 1 19.3667 11.0006 -20.0467 -0.220896 -2.45539 0.986099
3076 1 -11.9537 21.6213 11.0805 0.611453 2.18994 -3.53917
3077 1 -13.1165 45.6091 -10.0837 -0.309216 -3.19654 1.81161
3078 1 -19.0794 4.12854 -15.1922 2.41117 -2.94834 -0.217035
3079 1 13.2319 -3.2893 -1.39986 1.26982 -2.40349 -4.42018
3080 1 -19.6705 11.6817 -6.19906 -4.12954 1.8089 2.18375
3081 1 -18.4871 9.02474 7.38546 -0.153889 -0.202957 3.651
3082 1 -3.50554 3.82633 23.641 0.283903 0.151352 0.35704
3083 1 9.62054 -13.1732 -9.14077 6.09769 -4.40204 2.43157
3084 1 -15.5022 -21.2736 6.76073 5.13268 -2.93213 1.74747
3085 1 -15.8632 -3.23841 -6.75841 3.41468 -3.02668 0.119778
3086 1 13.9276 19.4076 6.23006 2.38092 -5.96091 -0.521789
3087 1 -11.2694 -19.6184 10.8634 -0.390057 -1.01237 0.298113
3088 1 9.1645 3.22037 16.6103 0.0719176 -0.0062476 3.98833
3089 1 10.2397 -19.0195 13.3353 1.21666 3.18387 1.76014
3090 1 17.2699 -2.53008 -6.33345 0.878959 -6.74406 2.22451
3091 1 -5.95863 3.84638 22.104 1.31262 -1.02319 0.519453
3092 1 -7.9704 -4.3648 22.198 -2.22644 -0.714264 -0.825058
3093 1 -12.825 3.05231 -20.2831 -2.67922 2.37842 -4.20999
3094 1 15.6472 3.94683 19.909 0.107797 0.491094 -2.52188
3095 1 -15.9642 -13.4584 0.566995 0.327922 2.33578 -4.59047
3096 1 8.37427 4.93917 -23.5146 2.24462 1.50015 0.664982
3097 1 -6.3985 -12.5105 -19.7335 0.736641 1.2938 2.38917
3098 1 -9.29631 -18.9598 5.08819 0.677433 -0.221815 4.67552
3099 1 -20.8633 10.295 23.8425 1.56086 -4.92021 4.47743
3100 1 20.0888 -10.0843 -22.4348 2.04438 1.70552 3.0441
3101 1 22.3035 -14.0088 -20.9272 4.36971 -0.282409 0.855175
3102 1 4.65107 3.54585 -23.7632 4.41406 2.13997 -3.76143
3103 1 -6.79578 -10.5047 23.7745 0.690941 -0.686608 -0.426681
3104 1 -19.843 -6.94421 8.37233 0.830305 3.09237 1.61799
3105 1 -22.743 -4.70136 20.2551 -4.07925 -4.95275 -1.56549
3106 1 3.10038 -12.3595 -8.56339 8.39048 5.41271 0.0446138
3107 1 18.766 -12.103 21.9826 -0.409512 4.56444 3.56368
3108 1 9.85884 -16.6794 -8.0444 -0.289615 -3.20593 4.94959
3109 1 0.850771 -0.485178 2.25085 -0.127168 1.13469 1.65819
3110 1 8.3494 5.65946 -0.26737 4.93758 1.35138 -0.680407
3111 1 10.1244 -20.1997 -19.2069 0.658946 -1.1947 -4.22951
3112 1 -1.07316 -12.8562 -21.5849 4.46897 3.06839 -8.62567
3113 1 9.63291 -11.8922 -16.8105 -7.16045 -2.98435 -3.12726
3114 1 5.41123 2.84958 -17.3821 2.08277 -2.55663 -4.63351
3115 1 -20.7392 20.7463 -14.7456 0.0269975 -1.64231 0.0891386
3116 1 -11.1185 16.7368 -2.11833 1.83753 3.00994 -2.34174
3117 1 17.4421 -11.7157 -5.12589 -1.70485 1.77879 -0.529986
3118 1 4.80969 5.99367 3.9827 -1.03107 2.81463 -1.52068
3119 1 -6.2895 -7.44332 4.94591 0.105239 1.5973 0.683392
3120 1 -13.7331 -9.65722 -16.8103 3.59744 -1.456 -2.35065
3121 1 1.542 -20.5385 15.2507 2.21614 -0.0590015 0.605015
3122 1 -11.5273 26.1014 19.4622 1.18416 1.236 3.59749
3123 1 13.7234 17.0067 13.1144 0.936817 1.8442 2.65424
3124 1 -14.2178 13.2625 -9.7595 -5.54866 6.28363 -3.69535
3125 1 -1.38338 -13.9239 -5.77794 2.28879 -4.20914 -2.48726
3126 1 1.04649 7.10628 -8.59943 -1.68443 -1.72887 -0.270873
3127 1 16.8814 6.73044 0.996072 3.3285 2.03865 3.16922
3128 1 4.09067 7.40388 -15.6383 -1.80506 3.47625 -1.72359
3129 1 -3.94285 -12.0158 10.1727 -2.8904 0.0518184 -1.63693
3130 1 21.3965 -10.0698 10.0835 -2.62106 1.27612 2.26573
3131 1 -9.12685 13.1739 -0.037057 5.02627 5.26737 -2.83255
3132 1 4.57111 11.613 2.61858 1.00583 -2.88094 -2.02757
3133 1 -0.948592 13.8726 -14.8699 0.816938 0.871857 -3.78695
3134 1 19.3627 5.34376 -2.41885 3.10118 0.27106 -3.35875
3135 1 -16.7708 -12.9618 -2.2311 -0.971343 -1.38646 -1.2757
3136 1 -17.0855 -23.9562 5.09261 -5.79474 -4.39329 -0.778134
3137 1 1.64192 -7.22433 -15.7979 0.765893 1.06782 3.12429
3138 1 17.5184 -3.44017 21.294 3.36417 1.84178 -2.35177
3139 1 5.72526 8.55056 -13.4035 0.35728 2.55533 -2.86412
3140 1 2.5282 17.5402 -19.6713 0.351638 -0.963972 2.88951
3141 1 8.76667 -4.5822 -6.13018 2.15242 3.45611 2.74847
3142 1 1.69975 24.6824 -18.3309 -4.41002 4.12457 -3.80007
3143 1 23.42 22.4498 -20.134 4.51423 -2.57966 -1.87457
3144 1 0.937436 12.3747 4.85327 -1.43914 -3.26049 1.51823
3145 1 19.8365 -19.3976 8.02681 -2.50671 -4.32731 -4.24652
3146 1 -0.093914 6.84388 -11.1406 2.69995 -3.29007 -0.393254
3147 1 -4.41914 -19.8707 -2.84452 1.21296 2.71529 -2.94269
3148 1 7.93262 -10.6104 5.96722 -1.91965 1.14364 -3.14958
3149 1 12.126 4.90691 -15.9554 3.98323 -0.318354 2.73392
3150 1 -20.8244 14.2776 4.82848 -2.25663 -1.12919 -0.751708
3151 1 -10.8443 44.0792 -17.609 2.18615 0.525743 -1.64229
3152 1 -12.9591 19.4522 -22.1979 -1.13663 -0.428293 3.68656
3153 1 17.2412 6.92803 -20.9246 1.64683 1.66531 -5.10283
3154 1 10.2579 19.1461 2.63687 -1.89696 0.949878 -3.00211
3155 1 -6.41181 -12.4365 2.99092 -1.64079 4.24047 -1.60523
3156 1 18.417 -3.57089 8.56998 3.80032 4.05274 -1.11548
3157 1 11.3308 2.2797 3.71081 5.09286 -0.346315 1.20413
3158 1 21.54 -19.524 -7.46821 -2.66209 3.08261 1.81457
3159 1 17.8045 1.76341 -5.01772 -2.97615 -2.40179 -2.86887
3160 1 -10.2266 45.8958 22.6271 0.0272712 0.847294 0.484789
3161 1 -8.90556 -17.6446 -2.57227 -0.343308 -2.41339 0.729652
3162 1 -13.7523 -15.0174 -13.2134 -0.860487 1.27315 -2.38186
3163 1 22.9195 1.06142 14.2058 -1.10061 1.31667 4.16826
3164 1 -20.6169 3.77586 19.3186 -1.83134 -1.46248 -0.862216
3165 1 -6.06558 21.4236 -16.13 -4.90967 0.0163017 -3.47678
3166 1 14.8655 -11.0902 17.6456 -0.679187 2.78713 2.54816
3167 1 19.8987 -15.4184 -19.6761 3.77057 4.21809 0.710538
3168 1 -16.806 -20.9224 17.5826 -1.69043 1.11326 -0.729547
3169 1 13.7874 -23.3587 -19.36 0.409783 -5.09171 2.02393
3170 1 5.72313 22.9487 23.616 -4.98488 0.989435 0.0496467
3171 1 -7.16349 15.6682 -23.7762 1.34723 1.63443 -2.92867
3172 1 -7.671 2.33933 7.40252 -1.17749 -0.640113 -1.12821
3173 1 9.02118 19.2178 11.0917 -3.00135 4.586 2.93162
3174 1 -23.7282 12.0876 -9.22512 -3.096 -2.4374 -0.35269
3175 1 20.2629 2.92241 -5.69358 0.569896 -0.663758 0.468954
3176 1 16.1444 -1.77786 14.9384 2.76934 -2.73641 0.812605
3177 1 -0.411055 -8.83756 -22.2809 -1.24478 -4.47444 0.288332
3178 1 14.3284 21.3592 11.477 -0.705686 -4.04229 0.639717
3179 1 1.63488 0.622805 23.5717 -4.94969 4.22709 -2.71568
3180 1 1.29419 14.7514 3.14987 -4.03296 -2.36742 0.751751
3181 1 -21.9583 -20.1495 21.162 -1.35569 4.04163 3.15784
3182 1 -16.473 46.0465 22.1922 2.37802 -1.20249 -4.13831
3183 1 -22.0618 17.9272 -6.20397 -1.34026 3.92771 2.82649
3184 1 14.2081 -3.63752 2.83991 -1.19068 -0.528706 -3.89993
3185 1 -14.9435 20.7325 -20.4589 2.30606 2.03594 3.28177
3186 1 -7.11123 21.1414 6.91261 -0.713009 4.76603 2.45309
3187 1 -19.3566 -18.8495 -0.707562 2.74475 -0.0629265 1.52322
3188 1 -19.4905 13.8077 -8.54382 1.6529 3.91748 3.38719
3189 1 14.0698 10.9752 7.68563 2.5522 3.64107 -2.76249
3190 1 -21.9967 23.1873 -13.2584 0.199461 1.75975 0.849554
3191 1 6.68209 -6.86984 -6.8975 -0.701056 -0.546475 -1.37029
3192 1 -23.953 11.606 -0.256761 0.490001 0.0521908 3.72962
3193 1 -18.9898 24.6155 -0.843916 -2.97117 0.453701 -1.482
3194 1 -16.4109 -4.19964 1.93618 0.982708 -0.643774 -1.62086
3195 1 -16.4234 3.56853 2.98301 -0.213641 1.69501 -1.41221
3196 1 0.0688188 0.521365 -2.50012 2.18948 0.85458 5.53862
3197 1 -3.07996 11.606 2.04642 -0.563496 0.519393 -3.40404
3198 1 7.64043 6.1497 -17.8462 -0.478866 1.73085 1.45798
3199 1 14.2363 -23.6868 4.42815 1.18357 1.50834 1.91304
3200 1 -24.3325 -4.67128 -4.9615 -2.67466 -1.89126 -1.00328
3201 1 -13.1154 -3.19423 20.5307 -0.149676 -1.43188 -0.868355
3202 1 -16.0901 -12.6558 -8.7072 -3.09223 -0.3921 0.768205
3203 1 16.0768 8.75182 19.7108 -0.285242 0.622095 -1.23905
3204 1 -16.1394 -8.42249 12.1115 0.0383598 2.75006 0.125622
3205 1 -13.7649 3.12681 -3.18455 -0.762102 3.85255 2.45798
3206 1 15.0129 9.63011 -5.73319 -0.771828 1.78414 -1.24186
3207 1 -2.64449 -9.94828 -17.5709 1.29497 5.91321 -4.70546
3208 1 5.24989 -7.42111 6.70973 -5.01981 -4.24628 -0.995544
3209 1 9.67359 -12.9148 -23.553 -0.917884 -1.94444 -2.27854
3210 1 -13.5441 11.7625 -3.05561 -3.71678 -0.276581 -2.97221
3211 1 -3.76436 21.2586 13.0175 4.60939 -3.82627 -0.353682
3212 1 -14.2443 8.81522 -17.523 4.7123 2.84713 -0.0299874
3213 1 -3.81751 2.46197 -13.4043 -0.855258 0.45833 -0.365023
3214 1 -1.17087 15.9253 17.5176 1.16314 2.78899 -4.46487
3215 1 9.47891 2.93348 11.4567 3.37679 6.44622 2.55298
3216 1 22.8857 -2.2415 7.54632 3.52688 -0.428955 1.04549
3217 1 9.69614 1.0642 7.772 2.34797 -3.06845 -0.931647
3218 1 -3.52364 24.7367 -9.4055 -2.59954 -1.49966 -0.345639
3219 1 -6.02735 -20.6277 -17.87 -2.95369 0.287706 0.715727
3220 1 -5.34727 -7.41874 16.3612 3.59403 -4.67141 0.278929
3221 1 -6.41873 -6.13692 -2.15044 1.21783 1.48573 -4.87355
3222 1 -14.345 -18.7314 -2.50962 -0.504346 1.73447 -7.89089
3223 1 22.6604 8.19294 18.3269 -4.2988 3.69207 5.33387
3224 1 -6.91166 -6.27046 2.00494 0.459206 -2.34887 -0.297715
3225 1 -8.6634 -5.95651 15.9172 1.294 1.98938 3.57106
3226 1 -21.7819 25.4139 -9.53337 -4.46878 -3.30423 6.03068
3227 1 7.2578 21.2189 -1.76252 -1.00211 2.01858 1.62849
3228 1 -10.9266 12.0935 -13.7603 -0.188328 -3.50829 -1.85273
3229 1 -10.701 2.65154 -3.36612 0.412344 -0.978894 -2.11723
3230 1 -23.481 14.8448 -22.0519 -2.67187 -2.30068 0.403264
3231 1 -17.3758 -17.1135 -0.215647 2.9546 -2.72858 -1.5671
3232 1 -22.5081 16.1769 6.36317 -1.83752 2.03257 1.50263
3233 1 -0.246135 17.4067 5.90434 -1.78971 0.415782 1.08281
3234 1 7.16945 -5.63301 -12.2604 -4.4885 1.74383 -2.95544
3235 1 -6.13532 12.0418 -12.2121 -1.06512 0.321095 -4.16514
3236 1 18.2961 20.3696 8.19913 0.33277 1.85516 0.171538
3237 1 -3.73087 -11.2529 -23.5134 -3.53057 -2.84968 3.74245
3238 1 19.0333 21.4117 -1.55726 -3.29816 -5.67594 3.04194
3239 1 -11.2621 -14.8875 7.95168 -0.965194 1.67497 4.84503
3240 1 -12.0871 -23.2895 -17.5808 -0.0981638 4.33487 1.49593
3241 1 3.01365 -21.1835 12.6557 2.42974 -4.84636 3.33767
3242 1 -24.1627 -12.9618 -17.5754 -0.0424937 -4.4107 3.11124
3243 1 7.32336 17.621 22.5532 2.92925 1.59664 1.37938
3244 1 18.4283 14.3688 -11.3458 -0.559734 -4.67273 -0.947087
3245 1 -7.73695 22.6955 11.3158 1.87987 -2.34468 2.19829
3246 1 20.2757 6.00043 5.07005 -2.10828 -2.23239 0.592655
3247 1 -6.5215 9.93613 -10.3524 1.5783 -0.846059 -1.30642
3248 1 8.95176 -3.01796 0.471017 -2.26783 3.77746 -3.06423
3249 1 8.02331 -3.63123 13.5018 -1.7017 3.5662 1.91703
3250 1 15.1701 4.90909 -20.8583 1.9601 -1.11179 2.92632
3251 1 -0.679734 19.5907 14.4396 1.89666 -5.55153 -2.96173
3252 1 19.571 45.83 12.3376 -6.2082 -4.68367 0.50751
3253 1 8.1845 14.9719 3.57227 -1.20313 4.54252 2.23489
3254 1 19.6601 5.55216 -5.51414 4.63013 -2.64261 -2.76589
3255 1 -17.6687 13.1521 -20.4292 -3.81233 -0.201609 -3.11218
3256 1 -2.97686 18.8762 -10.8267 4.56741 3.4016 -2.73636
3257 1 -14.8669 6.39413 18.331 -3.3582 -3.65075 4.96793
3258 1 -19.8248 -8.19711 19.6613 4.67679 5.39366 1.56984
3259 1 18.9577 19.1512 5.48796 -0.118948 1.90279 -3.15664
3260 1 20.1212 46.0113 -7.28844 2.25415 6.84494 -0.581558
3261 1 -15.0301 -4.02447 -15.7124 3.18098 0.833653 1.55691
3262 1 8.28423 8.84428 12.8133 0.149657 -6.09058 0.402479
3263 1 20.9579 1.07722 18.8144 -1.03655 -3.2946 -1.21362
3264 1 9.91307 8.39365 22.0377 -2.87836 -1.76676 -3.27735
3265 1 3.03508 -3.43588 -12.1945 -4.7961 0.111341 -1.09213
3266 1 10.3209 -0.280238 23.549 -9.88133 -0.156554 2.13511
3267 1 -15.4873 10.9028 1.83394 -4.16294 4.77332 -4.59097
3268 1 8.00285 -20.9087 10.4537 -2.01505 1.92043 0.780396
3269 1 6.91066 16.5029 -2.43059 -1.89263 -1.87635 -4.75472
3270 1 17.31 -18.2884 15.4843 3.24739 2.75331 5.517
3271 1 8.11123 -12.0276 21.8504 3.25625 -0.565199 1.01047
3272 1 3.26278 11.7466 -9.70245 1.89758 -1.4876 0.313628
3273 1 -15.52 7.90794 -14.4027 -7.52472 0.821466 3.97664
3274 1 13.6468 -19.7553 4.72092 -0.0391965 -1.82642 1.23294
3275 1 21.1168 7.42175 13.1042 5.62373 -2.99002 -6.58239
3276 1 10.0372 1.62251 14.1393 -4.7498 -3.81892 1.33369
3277 1 0.00800292 -14.1104 1.02205 -0.74982 -4.45689 -2.46218
3278 1 -2.45492 -5.26317 -20.5159 1.90428 4.49516 -2.98811
3279 1 6.33958 -1.56867 16.675 -2.24061 0.688285 1.03526
3280 1 8.40015 15.6461 12.5521 4.85074 -2.92637 1.9859
3281 1 -4.55529 -16.1439 12.6396 -4.01893 -5.00012 -1.4326
3282 1 -0.504972 -3.47528 -15.7466 1.86377 -0.177029 -0.853438
3283 1 -3.60851 -0.236418 14.7673 3.91968 8.20053 -2.0867
3284 1 13.7621 24.7531 -19.6331 2.62256 -0.434281 0.424994
3285 1 3.77514 17.6296 -12.8849 -0.0275603 0.0234006 -6.45485
3286 1 -17.3638 25.0508 5.13007 4.55854 4.65032 -4.60195
3287 1 -2.95622 -12.9385 17.1874 5.69806 -0.80317 0.97048
3288 1 -2.89852 6.46125 -18.835 2.87464 -0.00158705 -0.020666
3289 1 -17.607 46.0974 12.1783 3.25339 6.31227 4.44353
3290 1 -13.4691 23.0907 16.7379 -3.49473 -0.249509 -2.6152
3291 1 21.7161 23.8448 -10.9418 -4.18925 0.995361 1.70736
3292 1 -22.2405 21.4885 2.21911 -2.87168 1.12993 3.35456
3293 1 -10.2068 12.8078 23.9298 -0.467538 4.24433 4.73525
3294 1 -23.3975 -1.17852 -16.8584 2.97318 0.650306 1.86922
3295 1 4.36091 -22.3019 0.561229 -3.48351 2.26658 -3.33004
3296 1 -18.086 -12.6528 15.233 0.684209 3.89073 2.60884
3297 1 -16.7234 24.7764 23.059 1.11358 0.1227 -1.56816
3298 1 4.19717 -6.87658 -17.0623 1.7595 2.82815 -0.721913
3299 1 -13.5572 24.441 -5.0449 -5.45076 -0.236559 3.03379
3300 1 -1.36458 5.77047 -7.3598 -3.32937 0.447178 -7.68496
3301 1 -20.9295 11.3157 -8.89283 2.26396 1.67109 2.00274
3302 1 -19.4443 -11.9142 17.862 -0.42537 -0.563914 -2.74648
3303 1 -23.0939 46.5059 -15.6373 1.57329 -0.882439 -2.4179
3304 1 -2.36414 16.6144 12.7415 -1.42554 1.1058 -7.03716
3305 1 3.00914 5.66138 -7.24895 -0.173881 2.10656 1.51431
3306 1 -8.12558 11.3047 -22.4777 3.32171 3.66897 -0.978205
3307 1 -21.5524 11.5288 19.6131 3.11446 -1.00033 -5.78318
3308 1 -15.7218 19.4471 -2.11986 -0.270762 0.942756 2.60273
3309 1 1.88993 0.895988 14.6866 -0.278669 2.18944 -1.20769
3310 1 16.3439 25.5023 8.1408 5.11581 -1.53388 2.04277
3311 1 12.6785 1.63409 -10.2315 2.21615 4.2033 0.477005
3312 1 -22.5762 8.61904 16.6105 -1.8754 2.25409 4.62403
3313 1 13.4687 11.6759 10.129 1.42148 4.96826 -1.4584
3314 1 1.98636 -1.75548 11.3049 2.34651 -2.54275 2.6453
3315 1 21.2062 -11.8358 23.2967 4.92816 0.336864 1.01375
3316 1 2.58469 -7.70571 -3.60397 -1.29818 -4.901 -2.89903
3317 1 1.89743 1.18137 11.1295 -3.62802 -2.44311 0.855108
3318 1 -9.17761 2.12803 22.5712 2.60667 4.47429 -2.4699
3319 1 0.714431 4.00851 -14.2914 2.94472 -0.828453 -7.42585
3320 1 3.826 4.90115 -11.5102 -0.458882 0.798173 -0.66167
3321 1 -8.18556 -16.0194 19.7072 -0.689639 -1.69039 -2.731
3322 1 14.1039 -9.99884 -23.059 -3.42044 3.15792 0.473735
3323 1 -3.23668 18.8579 14.3165 2.22251 4.98102 0.218991
3324 1 14.8061 -15.46 -11.6425 -1.80417 3.08784 1.0501
3325 1 -10.1734 15.5051 3.6193 0.582135 -2.75282 3.41946
3326 1 -22.1564 6.00702 -21.7151 4.28012 4.37653 -3.58513
3327 1 4.92148 -23.5252 -9.83909 -1.16871 0.952024 5.13343
3328 1 3.71273 -18.2672 -11.02 2.73554 2.5603 -0.702653
3329 1 15.2901 2.81097 -16.9874 0.184003 -1.1578 1.81635
3330 1 -7.84448 19.8671 -14.0134 0.426666 0.741307 0.428874
3331 1 -18.9474 -4.65043 -1.17732 0.71004 4.19339 -7.70272
3332 1 -4.64522 9.616 21.0744 -0.961303 -1.08563 4.04036
3333 1 6.66871 -6.96967 22.499 0.78464 -2.23822 -0.765104
3334 1 -24.0288 20.6321 17.0093 2.68295 2.26842 2.98967
3335 1 22.4406 -0.333265 -2.7426 2.17084 3.86891 -0.00646837
3336 1 14.2767 -16.9513 1.04767 -4.13253 -1.4819 -1.71916
3337 1 -14.9061 12.4377 10.1229 -2.30565 -0.420493 -0.408927
3338 1 10.139 23.7338 16.8007 -0.312981 6.4722 5.95406
3339 1 11.524 21.192 -22.3634 4.12353 1.89926 1.00494
3340 1 17.8748 -1.51975 -19.2289 5.39117 0.687634 -1.40057
3341 1 20.5893 22.4805 -15.8237 3.3123 -1.56447 -5.56084
3342 1 -2.0087 -0.872712 2.58426 -0.715418 -1.43261 -1.45356
3343 1 -23.1014 -6.68641 -16.7059 -0.240078 3.91737 1.80124
3344 1 17.108 -21.0673 16.9502 -3.39814 -1.89055 4.56892
3345 1 13.8202 23.8836 23.5054 4.51965 -2.93551 1.77823
3346 1 8.69422 -22.737 -0.886522 3.67214 0.999269 -1.06361
3347 1 23.3662 13.5459 -14.286 -0.398505 -5.84884 -2.28751
3348 1 -11.2409 -19.3288 0.46288 -0.303465 -0.728832 -1.61661
3349 1 14.8324 19.8277 -13.2613 -5.09328 0.801786 -1.09478
3350 1 -5.92837 -5.20794 14.8089 -2.12283 4.53217 -1.42793
3351 1 -21.3366 -10.7604 15.852 -5.1734 4.25869 2.79129
3352 1 6.3347 15.2861 5.65406 3.24511 -3.14533 -0.379589
3353 1 -23.0239 5.3108 15.9179 0.971544 -3.37824 2.18609
3354 1 -16.2688 9.64592 -0.680738 -3.44013 3.24737 -5.28488
3355 1 -17.3242 -21.1236 -7.69072 -7.81151 -0.147618 -3.59962
3356 1 -9.06005 23.2637 6.48625 0.324496 0.422893 7.77636
3357 1 7.02256 -6.35057 19.6152 -1.631 -0.570304 2.57524
3358 1 -1.95565 23.1687 13.6631 -3.80121 0.230228 -0.943829
3359 1 -5.75685 25.3666 14.484 -1.3602 -0.438575 -2.05278
3360 1 -6.52578 -14.6509 16.2848 1.29123 1.26741 -1.83148
3361 1 -3.69947 25.9877 10.3179 -0.990037 -1.95061 0.895434
3362 1 -8.77451 5.59176 -14.9786 -1.77462 0.774941 0.624004
3363 1 11.5507 -0.592229 -15.6463 -1.12304 1.55706 1.0274
3364 1 -19.5806 -7.45073 2.91277 -1.20085 1.22769 7.71125
3365 1 -1.42148 -8.15001 11.9608 -1.99485 0.718161 -1.88469
3366 1 -19.1784 46.7269 -21.4652 0.993873 0.74543 -5.66056
3367 1 3.16919 -19.3119 -21.6834 -1.10667 3.10021 0.235546
3368 1 20.6423 -20.9244 17.0096 0.732048 0.147912 1.95634
3369 1 -1.85327 -3.49647 -7.37122 6.94262 -1.11445 -2.03675
3370 1 -19.0213 -14.719 -15.5011 -4.92631 3.15682 -1.38996
3371 1 -10.4211 4.6173 15.5363 2.46261 4.51401 0.948947
3372 1 4.76978 -4.436 -6.72212 3.01462 -0.0959547 -2.20374
3373 1 15.7119 -6.3473 18.2736 -0.863156 -3.29164 -0.491846
3374 1 21.4383 -14.6223 -23.5626 -1.34611 -2.9332 -4.44596
3375 1 20.3339 -10.793 -1.89271 6.31546 -0.434962 0.631667
3376 1 -16.0287 10.8117 15.1149 -3.24764 -2.69258 2.52155
3377 1 4.78423 -14.7907 13.0918 2.2165 1.3516 -4.47048
3378 1 -6.05876 -17.5164 -2.06793 -7.12896 -2.51203 -4.10676
3379 1 9.75157 -9.40978 7.7066 -1.96065 -1.40389 4.256
3380 1 1.59811 17.8206 -23.7719 -1.57132 -1.38867 0.780125
3381 1 -4.39703 -15.4946 -21.8817 0.198066 0.786969 1.71471
3382 1 -19.7126 15.5846 14.0311 1.16156 0.126337 0.178202
3383 1 -19.6685 25.3933 -16.5707 -4.65716 -1.90799 -4.65771
3384 1 17.9587 -19.5208 -12.8967 1.6857 1.29106 0.305797
3385 1 -1.01802 -18.7891 -7.07916 4.54425 -4.46905 0.546066
3386 1 7.00885 -8.61542 -22.9194 -0.465953 -1.76738 -3.91967
3387 1 -18.946 -2.82048 2.58903 2.23598 -0.141146 -2.20363
3388 1 -18.6738 -0.537874 14.8531 5.83646 -1.62066 -2.40369
3389 1 -13.5035 -11.5516 -12.3052 -4.28336 -0.180511 -0.922399
3390 1 22.3399 -23.1812 14.2689 2.50579 -1.44171 1.11506
3391 1 -8.59143 -16.1746 4.64744 2.13246 3.1006 2.73962
3392 1 -9.10947 3.12603 -16.9616 3.5043 1.2369 3.37122
3393 1 -15.3189 16.6189 -18.9574 7.55644 -4.04194 -0.991389
3394 1 -9.73759 -0.1437 14.5615 0.665719 -2.34955 1.548
3395 1 16.0093 -16.569 10.4508 -1.24927 2.65545 2.97793
3396 1 -20.5717 8.61625 -8.19228 -1.17055 1.50535 -2.17913
3397 1 -4.03967 4.92083 20.2503 -1.87228 0.150987 -3.11128
3398 1 -5.98018 -20.4851 -5.20085 -1.17634 1.43581 2.67232
3399 1 0.331795 -6.89426 4.02523 -2.82964 -2.75367 0.244823
3400 1 15.8994 46.1237 -21.1092 -3.267 -0.695176 2.72558
3401 1 -18.1903 46.1666 -13.8776 -3.4866 1.07026 0.484914
3402 1 15.0843 -19.3446 -16.8663 1.01193 3.14228 0.595103
3403 1 -15.698 46.3879 -0.389903 -1.7622 -2.47536 3.26493
3404 1 -17.5526 -8.84643 1.51997 2.75928 2.57684 -0.726887
3405 1 15.4163 4.85136 12.1825 -3.62392 0.622302 -0.234372
3406 1 4.38243 -5.97572 4.36371 -1.20604 -2.83501 -3.30489
3407 1 14.3371 -2.44534 -12.7787 2.5098 1.01332 -0.164445
3408 1 -18.9871 16.2041 -23.2126 2.04391 2.40277 2.28614
3409 1 -1.80341 -18.5226 17.6937 1.38932 3.05664 -3.09097
3410 1 -19.1891 -5.64492 14.3574 -0.931287 1.18451 1.2313
3411 1 -4.52665 -2.45944 21.375 3.93947 1.31365 -1.89185
3412 1 6.17908 -2.84543 -10.0492 6.54426 -3.9621 -3.08061
3413 1 -1.29224 -23.3886 -19.3538 -0.607225 3.61507 -4.04671
3414 1 -18.9918 4.32818 -5.88786 -2.53804 4.39647 -3.70949
3415 1 -19.4478 0.643833 -16.0754 1.21932 -0.0961873 0.815752
3416 1 21.66 -22.5666 -7.55459 -2.60052 -3.65265 4.02012
3417 1 -22.1664 -10.3374 9.79653 -0.912087 -1.98209 -1.46336
3418 1 18.0606 19.9255 11.9115 -4.41243 -0.967129 1.48196
3419 1 -10.0508 -8.79105 2.21777 -3.55584 3.96344 -0.872581
3420 1 -19.5268 10.728 9.38158 -3.46284 -3.57775 -0.702077
3421 1 8.71727 13.3899 -16.3076 -2.17884 2.47906 -3.87937
3422 1 6.99711 -16.6502 -3.67158 4.46154 1.54998 -1.01736
3423 1 -14.3341 3.67493 0.80958 2.05737 0.663093 0.820674
3424 1 -2.02036 -11.0782 3.27925 1.35112 -0.448887 -1.6705
3425 1 -24.047 -10.2463 18.8225 0.191258 -0.39337 -2.81926
3426 1 -20.3676 -6.51928 5.59614 -0.797371 -3.43925 4.10154
3427 1 -21.9973 11.7446 -15.6313 -0.701543 -4.63344 2.62739
3428 1 -3.65159 12.2477 17.3188 -4.08411 2.75353 3.4104
3429 1 6.78203 -18.189 17.3128 -2.63765 5.13847 3.25544
3430 1 -12.647 -15.6449 18.0347 -1.26207 -0.0104122 -2.21942
3431 1 -9.03001 -3.22909 1.40036 3.5528 4.02738 -1.28441
3432 1 -1.51528 10.4789 8.27493 4.31376 -0.71728 -5.38655
3433 1 -9.47643 -1.7786 -17.165 -1.2553 0.973317 -4.29556
3434 1 13.0435 16.1804 -11.2266 2.65197 4.38318 -2.62779
3435 1 -1.95539 20.949 -15.5873 -0.376465 0.803282 -0.771365
3436 1 -3.15658 9.49785 17.37 -0.753462 0.223004 -0.445527
3437 1 12.2637 16.3565 -6.07727 2.18541 -1.49517 3.35866
3438 1 -17.5785 11.5142 3.68608 -4.06816 0.0753045 -4.29765
3439 1 2.70204 -12.9397 12.2859 -0.721703 -3.35403 -3.44806
3440 1 4.92536 22.864 -8.81564 -4.31811 0.402207 -1.39311
3441 1 7.96721 -14.3642 -7.0107 -2.19411 3.9709 2.30993
3442 1 -3.96144 2.39254 8.19189 3.00928 -5.73112 -2.22966
3443 1 -22.5701 1.82991 -1.56856 -0.22464 7.7488 0.835509
3444 1 -18.0219 14.184 3.51031 2.69003 0.204303 -3.22776
3445 1 -12.7922 4.16596 -8.11531 0.387116 1.2192 0.802919
3446 1 -4.19533 -22.845 -18.8108 1.13617 2.71425 1.84805
3447 1 -6.61382 4.42186 -6.16112 -1.0994 -4.23332 -3.67975
3448 1 -19.3701 6.39537 13.9987 4.73493 0.986443 -2.30289
3449 1 8.84464 24.7797 -15.9025 2.00287 -3.57159 -2.5832
3450 1 -1.80097 -14.3867 -14.1567 -2.85497 4.66385 1.05795
3451 1 6.21819 -10.1409 -19.1943 0.398353 1.43672 5.08446
3452 1 -12.6267 -1.45387 -12.2722 -1.10966 -3.26032 -0.50169
3453 1 17.1311 9.17548 -19.257 -5.49785 -1.4389 1.1083
3454 1 -23.8369 21.2713 13.1978 -1.23796 -2.06938 -1.61995
3455 1 -17.3125 16.0229 20.069 3.42048 -2.94195 -0.545936
3456 1 10.494 24.7433 -13.7897 4.08058 -1.72799 1.70594
3457 1 -23.0473 17.6973 22.06 -1.96425 -1.58807 3.40017
3458 1 15.5485 10.2642 22.1158 -2.12609 -0.379597 -4.88676
3459 1 -3.78535 19.3396 17.0512 0.126995 -0.187288 0.0722369
3460 1 -1.60608 20.6918 18.2563 -1.70149 -1.03776 2.90602
3461 1 -14.2905 46.6416 17.8494 -0.024935 -2.23821 -5.21067
3462 1 -12.8666 22.9682 -7.31755 1.53267 1.43307 -3.62394
3463 1 23.099 9.3832 -23.7853 0.964416 -1.49916 1.73279
3464 1 -18.643 -18.9514 12.2801 -2.46679 -1.56303 1.14857
3465 1 1.64225 -4.61541 11.9088 -0.988389 3.92015 0.0622698
3466 1 -11.2767 6.51632 -7.74674 -1.8611 2.58673 -1.0278
3467 1 11.3169 14.9451 13.2893 -3.10506 -2.33158 0.213613
3468 1 -7.41251 -6.70484 -23.6024 1.49882 -6.06316 -1.01017
3469 1 -3.1521 -10.8519 0.651727 -4.93106 -1.62603 0.403651
3470 1 -17.7232 -19.939 -10.141 -3.69689 -0.972319 -1.57655
3471 1 -15.6807 -18.1449 -15.9765 2.40318 -6.54858 -0.444532
3472 1 -14.535 11.6293 -18.6607 -0.605895 -1.40021 1.12137
3473 1 -23.01 24.0673 -18.0662 -0.417527 0.738461 -2.95367
3474 1 15.9133 -4.70238 11.9673 0.245989 -0.617174 -5.18088
3475 1 -20.4363 -14.9747 17.7479 1.87749 6.48876 2.89675
3476 1 3.10691 13.528 16.4627 1.19048 -0.387512 2.34926
3477 1 -21.5142 -1.10411 -14.7745 1.35187 -2.19458 -2.79007
3478 1 10.227 -14.2804 2.63781 0.057087 -6.53869 2.76742
3479 1 13.2433 -5.68777 12.346 -0.64934 0.460879 6.5765
3480 1 22.0291 26.213 -4.50624 -5.97778 4.35847 1.55123
3481 1 2.90935 -22.4229 22.9257 -2.64569 -0.809859 -4.49144
3482 1 13.5923 18.1132 1.43191 1.81195 -0.781355 1.15126
3483 1 9.61016 20.1409 -0.231703 0.298828 5.60217 -1.54316
3484 1 3.48131 10.9663 7.42915 -1.81256 3.14581 5.82311
3485 1 0.438975 6.54352 -3.1368 -2.78984 -1.176 2.02214
3486 1 15.8588 24.6103 16.2722 0.204852 0.578799 2.33312
3487 1 9.51313 -9.09787 -11.4063 -0.427051 0.556879 2.01153
3488 1 15.0557 16.9845 -12.958 2.53204 0.35228 -2.95412
3489 1 19.0602 1.15878 -10.3508 -0.825443 -2.5555 -4.137
3490 1 -20.8644 6.70776 3.90669 -4.29918 1.38784 2.19514
3491 1 -8.71424 8.30552 -22.128 1.1799 1.6016 4.19398
3492 1 18.0352 -3.89912 5.37149 1.47406 -0.898258 1.86516
3493 1 7.04177 11.2381 16.9267 -3.89668 -4.1914 4.12587
3494 1 -17.0929 2.43234 23.1932 -6.6191 6.77416 0.704512
3495 1 23.3088 -4.32184 15.2192 -1.42609 4.29686 0.957491
3496 1 -9.66748 7.57917 -17.1129 0.711216 -2.81207 -0.117057
3497 1 -17.036 11.9917 19.442 -1.34705 1.84648 3.06571
3498 1 -16.8674 14.43 6.74026 -3.69783 -0.656325 -0.685312
3499 1 -20.2275 21.1048 -20.4286 0.324694 0.199189 -2.38082
3500 1 18.6954 14.4574 -8.50093 -2.43116 -0.736177 4.88399
3501 1 -17.1097 20.5155 -6.26098 2.75352 1.19648 6.82673
3502 1 -7.52189 22.5224 -4.18251 3.10358 4.6172 1.67684
3503 1 18.7467 -23.4324 2.98628 1.84373 -2.78269 -1.15193
3504 1 17.4348 -0.0278817 2.61725 -0.209914 5.26685 -0.43805
3505 1 -1.05509 -15.4514 3.35773 -4.68847 -1.38524 2.63929
3506 1 -20.8912 23.2375 -5.75154 1.7063 -2.38434 -3.40068
3507 1 9.4366 4.97361 -11.2216 -2.86296 1.14348 -2.87422
3508 1 -3.93819 -12.8603 -20.9642 -1.85353 -4.33912 -1.11142
3509 1 -19.2348 -19.7096 -21.0715 1.62786 1.72623 -3.28419
3510 1 -10.3677 4.59276 12.6837 -2.92126 -0.11371 3.02618
3511 1 17.5724 9.59242 -2.81895 -1.10006 5.42934 -1.16915
3512 1 -18.2124 5.22089 1.69729 -0.376014 3.46134 -2.52881
3513 1 -19.1043 -22.4052 -19.7085 0.0574812 -2.59261 1.56365
3514 1 -0.812114 16.9331 -11.6683 -1.34629 -0.63504 4.71569
3515 1 14.9412 -18.4421 8.55082 2.33448 1.58146 2.54095
3516 1 -21.2935 5.01889 -18.6921 2.49058 0.139966 0.999796
3517 1 -6.65364 19.0214 18.3349 -0.231397 4.62832 -3.44939
3518 1 2.04392 0.365158 -0.346802 -1.44472 -0.628156 1.91892
3519 1 -4.76998 4.6754 17.1871 3.4368 1.15706 -2.35423
3520 1 -6.78216 -11.2074 20.7246 1.0951 -2.25509 1.54327
3521 1 3.93205 10.0277 -16.8162 0.347608 0.74659 -1.65914
3522 1 21.867 16.2155 -21.6499 0.628019 -1.47949 1.22154
3523 1 -14.3135 -18.6743 6.32887 -0.474744 1.65003 -0.764208
3524 1 -1.16381 23.6951 -0.954384 -3.19744 -3.95736 -0.320056
3525 1 -15.9917 14.9881 -22.096 -0.25124 -1.86711 1.29794
3526 1 10.2336 21.5111 -8.11302 -2.86498 0.326707 1.33716
3527 1 -1.70234 13.2802 5.91647 0.347802 1.65059 -4.02318
3528 1 -22.7075 45.6492 0.638201 -0.0592826 1.4137 3.34413
3529 1 -19.9714 8.06587 20.5817 -2.49143 -3.06986 3.60916
3530 1 -12.1016 11.9682 6.84185 0.0248383 -0.205818 0.706897
3531 1 5.02498 6.0276 22.5207 1.46641 5.28857 -1.06419
3532 1 -5.89159 14.1696 -9.15128 -0.50464 0.724132 3.11613
3533 1 15.3449 11.6407 3.45106 -2.52308 -1.60974 -0.562276
3534 1 7.40598 -1.82803 20.0655 -1.51844 -1.49506 -4.18379
3535 1 12.5607 -21.2296 -17.6517 6.63468 0.432648 0.591902
3536 1 21.1416 -19.1793 10.5438 1.26583 1.61216 -2.05082
3537 1 19.4372 25.6206 16.8114 2.50747 -3.156 -1.44711
3538 1 4.90173 -8.38383 13.9686 -4.30023 -2.52213 -2.41136
3539 1 14.3886 24.7459 -12.3834 0.810072 -0.867323 -0.10015
3540 1 -0.595712 13.1968 -4.56471 -1.23208 -7.30394 0.626553
3541 1 14.1019 -2.62099 -19.0626 2.90032 2.97798 6.6354
3542 1 18.6098 -0.98557 5.9278 -0.219938 1.69841 -4.12294
3543 1 -16.7169 15.1543 -6.26934 -2.42917 0.204715 -0.506755
3544 1 -9.3345 20.8654 -2.73692 -4.87443 -2.79773 0.445754
3545 1 2.58137 21.3488 12.4745 1.86057 -0.78111 0.572018
3546 1 15.8028 13.2916 -10.9525 -5.44904 -0.0029873 -7.00201
3547 1 9.91339 -15.7508 -10.807 -1.32657 0.584319 2.85143
3548 1 10.1503 -9.9628 -19.0628 6.32613 -4.79297 -2.56658
3549 1 -12.2013 9.29056 5.55712 -0.942232 0.393076 4.34307
3550 1 -12.9883 18.6045 8.96038 4.60762 3.22993 -4.78152
3551 1 13.5322 0.177409 -19.4724 -3.08079 -3.4092 -1.7963
3552 1 15.3223 20.8604 8.52169 2.48797 2.75848 2.88272
3553 1 -10.1768 19.823 -5.50202 0.361405 3.51108 -1.28483
3554 1 11.6892 13.678 -15.6401 1.64372 0.960221 -3.01715
3555 1 -17.4708 -20.9454 0.342968 4.83042 1.50902 2.90101
3556 1 -8.67657 -13.1295 17.6755 -1.93819 -4.48159 1.44671
3557 1 12.4541 7.33186 -19.5742 0.949767 3.76568 -1.60933
3558 1 -21.1976 -14.1674 0.292002 -1.74794 0.00978857 -4.24457
3559 1 8.29851 -3.6852 10.8401 -0.478633 0.466259 -0.221954
3560 1 -19.5643 18.5216 -16.8964 -1.68321 -1.25439 -3.19926
3561 1 -19.0545 22.8325 4.20578 1.71153 0.425241 2.24627
3562 1 19.5205 11.7262 3.66676 2.51542 -2.30169 -1.74258
3563 1 4.11001 -22.5529 -5.39177 0.448248 0.772619 -2.4371
3564 1 18.1711 12.8058 -14.6213 -1.69305 3.74631 5.11826
3565 1 17.1929 -20.2401 -4.7334 2.20922 1.95872 1.1028
3566 1 -11.9602 -13.0137 4.58665 -0.267032 -0.103624 2.16036
3567 1 1.68692 -9.0623 6.00162 -0.877545 1.23358 1.85109
3568 1 18.3664 -3.15956 11.4452 -0.598798 1.14069 1.40268
3569 1 -4.61883 5.09821 -12.3202 -1.52288 1.16789 -3.01804
3570 1 11.7191 22.333 22.5845 -0.517337 -0.443147 -2.02826
3571 1 1.96175 21.9254 8.88055 -2.10563 0.172132 -1.76753
3572 1 -14.1134 -16.9518 -18.1005 1.57374 2.68927 3.90984
3573 1 21.2146 -3.49109 -1.65184 -0.383502 1.29563 2.27145
3574 1 -15.9938 -4.60357 -10.701 -1.17773 -0.357574 -0.284441
3575 1 -10.033 -13.2727 -12.2997 -2.97171 2.82076 -0.72335
3576 1 14.6862 3.09539 14.7285 -0.661347 -1.39779 2.71507
3577 1 -7.06973 9.9446 -6.03501 -6.64912 -5.92237 1.72864
3578 1 21.7106 8.44907 21.3959 4.81978 2.82815 2.66788
3579 1 -19.5668 -9.6397 -7.43455 -7.16462 -2.88291 -2.01819
3580 1 -2.11635 -8.1373 8.0234 4.48464 -0.124051 1.12648
3581 1 -10.8791 9.17498 2.91316 1.33245 1.13779 6.3114
3582 1 -15.0551 46.6494 13.327 0.877596 -3.09752 1.33819
3583 1 -17.6932 17.4856 7.60823 -1.46251 -0.32383 1.98264
3584 1 13.9174 5.79769 20.9855 1.34304 -2.90299 0.616353
3585 1 9.86494 -1.97279 9.2594 -1.14542 3.23417 1.27856
3586 1 15.3371 -0.699607 -7.79957 1.50566 -2.63333 0.953359
3587 1 23.3856 -17.7761 -18.5096 0.258879 -2.94929 -2.94181
3588 1 -22.2027 -8.38579 -10.4165 -2.40385 2.85961 -2.42833
3589 1 -13.3878 0.594499 -7.28002 -1.20675 3.70217 -1.229
3590 1 12.5836 -0.237589 -0.11524 0.744348 -5.19959 3.145
3591 1 -9.53547 -9.62983 23.4557 6.04013 -3.75598 -3.00597
3592 1 -8.78295 -16.9451 -5.4207 3.30597 0.439368 5.84532
3593 1 15.479 -12.9531 -13.3936 1.44862 -0.558984 -0.19602
3594 1 16.1463 0.0732495 5.17999 -0.326496 2.28836 -0.881323
3595 1 -3.63215 -14.8785 8.84955 2.69561 2.7935 1.19051
3596 1 -8.74637 -7.32284 -9.70651 -1.98664 5.56399 4.62276
3597 1 -4.54412 12.3299 4.44599 -1.7479 3.04156 -1.23453
3598 1 -12.9461 -11.6268 -5.03302 -4.65596 -5.42024 0.0629166
3599 1 12.8275 13.4942 -6.44482 0.858084 -2.37092 1.01298
3600 1 -20.4206 21.619 -8.18885 -2.30833 -0.644802 -3.57424
3601 1 -21.8919 -12.5805 -3.34961 2.3861 4.80352 -3.06084
3602 1 3.33286 26.2865 22.4411 0.33522 -2.23471 -3.453
3603 1 -4.61239 0.436697 11.2187 -1.08081 3.79415 -2.41658
3604 1 8.99039 12.2544 -23.8512 -1.84512 -0.145241 -3.52201
3605 1 13.6713 21.5937 14.5125 1.39618 -8.38923 0.18856
3606 1 1.17959 6.5317 -15.4915 -0.993881 4.14252 -1.59049
3607 1 -20.2343 4.93884 16.4989 1.61237 -4.65193 -1.80256
3608 1 19.3218 24.8615 -16.9318 2.71703 -0.856889 -0.977494
3609 1 10.9654 -13.4499 7.55349 -0.0482773 4.23634 5.82819
3610 1 14.9796 10.6057 -22.8431 -1.46974 2.43814 -3.7976
3611 1 -17.6591 24.5573 -14.4849 -2.10121 -3.86351 -4.86581
3612 1 -3.17033 17.1251 -8.44274 0.187468 -9.05967 -0.119616
3613 1 1.17879 25.6723 11.92 0.230308 -6.19665 -4.64521
3614 1 -0.694799 -4.79585 -1.7183 -1.545 -2.38049 2.21545
3615 1 3.75849 19.3682 3.95449 -2.93492 -0.417947 -3.00521
3616 1 -11.2459 -12.3429 20.1946 2.03846 2.63579 2.44193
3617 1 15.1884 0.751294 -21.724 4.07615 -2.51353 -2.91085
3618 1 0.634519 -10.8449 -7.71907 0.00690303 -2.65328 1.29043
3619 1 -2.12758 19.6993 9.70288 2.35744 -3.91213 -2.31177
3620 1 -2.11725 14.1918 -12.0804 6.50211 -0.629956 -1.49705
3621 1 -7.74157 15.0287 12.4859 -1.73738 -4.45685 -6.56834
3622 1 6.20814 -13.6485 7.83944 1.95906 -1.75474 1.79497
3623 1 10.976 -1.97416 17.9679 2.81551 -1.56212 -0.228887
3624 1 23.2352 -9.48745 6.74211 0.625829 -3.22512 -0.708231
3625 1 5.29042 -15.2667 21.4846 -3.72524 -1.01131 -2.77054
3626 1 -14.7036 3.26018 -6.21736 2.47644 -1.11307 0.882233
3627 1 -2.19532 18.9997 6.95722 -2.00916 2.03807 -3.20655
3628 1 7.50589 -0.202061 9.37261 5.22706 0.106786 2.85574
3629 1 -0.768298 -4.46766 5.08073 -5.64318 4.90377 2.93967
3630 1 3.13551 -13.8094 -0.838702 3.33658 2.39676 0.206469
3631 1 6.56438 8.31374 19.4544 -6.75384 0.614482 -2.16659
3632 1 -15.9434 -15.7609 14.993 3.50557 -1.19888 0.30723
3633 1 12.0364 4.17764 -4.94794 -0.278621 -1.9475 1.77501
3634 1 -2.26579 5.68694 10.2356 1.11794 2.81845 -6.33376
3635 1 -0.224946 -17.0273 -20.6411 1.76031 -1.62699 -2.04318
3636 1 3.56345 -19.8721 -15.4459 1.07206 -1.64079 7.64384
3637 1 -4.52529 15.6868 -22.6624 -1.49576 4.06723 1.32284
3638 1 -22.7988 -7.7304 20.0779 -0.0840975 2.56901 0.0562399
3639 1 5.90049 -18.5238 3.2724 1.64983 4.36184 -0.611524
3640 1 19.153 -16.9925 -11.9025 -0.120516 1.17424 -0.245839
3641 1 1.74077 12.5489 20.7299 1.01627 -1.68796 -1.90477
3642 1 -3.69021 -16.9425 3.81198 -5.57866 4.62468 1.60248
3643 1 0.50263 4.5636 9.83734 1.13202 2.18335 0.783381
3644 1 18.0571 20.0463 0.624044 -0.592939 -2.4482 1.06309
3645 1 -16.1383 -14.6816 -6.31842 1.2711 3.30053 -1.31734
3646 1 18.8556 3.12203 -19.6456 -1.20568 -5.29453 -2.09368
3647 1 19.6934 -21.4465 4.78536 2.90886 1.73557 -0.935651
3648 1 -22.0498 -21.6992 0.700099 4.17836 -6.10255 -1.45504
3649 1 -18.8034 -1.145 -18.1138 -3.96334 4.13104 -1.79886
3650 1 4.18188 -8.03539 -12.8054 3.6725 0.976453 -1.25696
3651 1 -9.34086 9.07603 13.9692 0.563458 8.23272 2.95234
3652 1 20.5745 -13.4688 12.9536 -3.96478 2.71896 0.218065
3653 1 -0.274272 16.175 -2.13391 -3.25327 -5.64989 -0.661461
3654 1 -20.4358 23.8998 13.083 1.58877 -1.32658 3.50542
3655 1 -9.95897 24.4972 -13.508 -0.0426605 -0.349702 3.1854
3656 1 -13.166 -19.2983 19.3304 2.59917 0.538207 2.59708
3657 1 23.1839 25.7365 -9.51809 -2.91339 5.7534 -1.96251
3658 1 21.3405 15.3253 15.6952 -0.0317435 0.887531 -0.957703
3659 1 -23.6936 8.17476 -18.3322 -0.409104 8.18475 1.92827
3660 1 16.9012 10.959 10.9479 -1.49194 -2.90724 -3.52519
3661 1 21.9266 10.2243 -18.8404 -2.25166 2.99992 -2.25486
3662 1 -0.552907 0.411769 -20.3765 -0.529959 2.02796 2.7773
3663 1 -20.1399 -14.6564 -12.875 -2.71982 -1.02986 0.772809
3664 1 5.87044 19.5291 13.6653 1.51961 -1.99876 -2.81717
3665 1 10.8596 -9.27732 -15.5987 0.0450877 3.7212 -0.850641
3666 1 5.79312 -16.2105 -23.1206 -2.80746 -0.587837 -2.78314
3667 1 15.9578 15.4875 -16.9372 0.519789 -3.32918 -1.49718
3668 1 -12.5238 -2.69343 23.3599 2.94265 -2.968 0.97321
3669 1 -0.698939 22.1683 4.134 0.706929 -0.265501 3.51534
3670 1 14.3817 6.83895 -9.57966 -1.07155 -5.04159 0.0267022
3671 1 -3.39247 11.3957 -11.8509 2.51803 1.57154 -0.728987
3672 1 -12.3937 12.636 11.4427 -1.51821 0.0957367 1.36753
3673 1 -3.25152 44.7166 19.8986 3.87201 0.096424 -2.07719
3674 1 0.086294 -1.20085 -4.73421 -1.34244 1.07339 -2.94584
3675 1 -12.881 21.3718 -9.86262 3.71042 1.10314 4.86215
3676 1 13.732 15.3189 -14.8062 1.54551 0.661811 1.21323
3677 1 -5.49488 15.5658 16.2465 2.61479 3.4935 -0.124419
3678 1 -17.9504 8.41806 12.6669 4.59807 -2.13941 -3.29026
3679 1 10.7774 -20.5343 -6.97429 -2.38755 -1.90804 -2.86282
3680 1 15.1012 6.17095 23.4411 0.240551 1.19367 -0.24782
3681 1 -5.81208 0.851335 16.7339 -0.114102 3.85906 -2.46323
3682 1 -23.3707 -22.2309 16.402 -4.57567 -4.30167 0.774545
3683 1 6.39348 12.4626 4.56437 -0.331278 -1.01492 -0.354414
3684 1 15.6092 15.1947 -21.4225 -0.819275 0.258979 -2.35508
3685 1 5.14078 -5.62669 1.56521 -1.2044 -3.23154 2.05213
3686 1 -22.0136 12.3612 1.86258 -3.95166 -6.3026 -0.430824
3687 1 9.17465 -18.3438 10.5236 2.396 3.13776 -1.38527
3688 1 -11.4783 -23.3247 -1.63793 -2.73711 0.705059 1.31492
3689 1 21.4684 17.3714 -12.8398 4.01536 -6.35606 -2.46136
3690 1 -8.05206 8.14707 -8.72961 0.573344 -2.23309 -0.307553
3691 1 21.9206 44.6218 -9.00764 0.728163 -0.106924 -0.695583
3692 1 7.23073 -3.59551 -18.4415 -1.01867 -1.46885 0.611336
3693 1 2.0376 22.2858 -1.65147 -0.0487118 -2.03853 -1.82629
3694 1 -22.8963 2.68448 -7.42995 -0.968515 3.04161 1.57241
3695 1 -6.20389 -3.50528 1.28002 -3.88777 1.0985 1.63815
3696 1 9.5484 -1.08301 -17.7127 -5.03034 -5.61196 -4.45871
3697 1 8.23354 5.08209 6.94585 0.562949 -0.310809 3.34113
3698 1 -21.9156 1.24897 14.3826 -3.63481 -2.58914 -3.23796
3699 1 -9.44238 -3.51692 17.6232 1.31392 2.33048 -0.542061
3700 1 -4.08966 -21.6077 -15.9086 -4.04038 -2.29889 3.0531
3701 1 11.9372 -3.699 10.4923 -0.424456 -2.77504 -7.37644
3702 1 -9.14521 2.08672 -14.4783 2.42699 4.30189 2.08441
3703 1 19.4205 14.9545 -21.186 0.778405 1.1833 2.54992
3704 1 15.6719 -4.6795 8.89977 -0.993794 -2.33797 -4.64926
3705 1 2.8724 -1.13096 4.18902 -5.88129 -1.05251 5.28776
3706 1 -13.9497 4.39234 -15.762 2.38262 3.56287 -0.74205
3707 1 19.1733 7.70456 -13.1211 3.17224 3.82335 2.81356
3708 1 5.1044 3.29156 9.24488 0.650309 2.2658 -1.84439
3709 1 -20.7012 17.6458 8.65199 1.25774 0.999268 6.84443
3710 1 -7.34699 -2.84285 19.6678 -0.691737 5.98649 -6.02388
3711 1 -13.0648 11.289 15.3651 -1.95002 -4.48018 3.4253
3712 1 15.7676 25.0613 -5.37287 0.80303 4.52413 2.14201
3713 1 0.641333 19.5935 4.03461 5.53413 -4.44473 -2.80445
3714 1 -12.9533 1.65312 22.6776 -1.47061 1.96543 2.65616
3715 1 18.5756 20.6834 16.8156 -1.6152 2.70889 0.332733
3716 1 5.61855 4.69314 -0.692304 -0.449296 -0.376833 0.499154
3717 1 -6.45106 19.2583 -20.4448 -1.24364 2.15101 0.326296
3718 1 -15.8937 8.12314 3.19181 1.97448 -1.3084 -1.05969
3719 1 0.185557 15.9319 -4.97669 -2.9658 5.58753 7.11572
3720 1 16.6741 18.8791 16.1798 -5.11038 -0.318505 -0.409334
3721 1 0.39666 14.8421 -7.70753 -0.0196739 1.5744 -2.51405
3722 1 16.7022 -8.76504 8.63281 3.83559 3.69303 1.79107
3723 1 6.62096 6.10898 -14.9484 0.168639 0.682379 1.29007
3724 1 -5.58309 -1.14993 -1.63957 0.00570379 -3.34187 -3.98819
3725 1 -12.4495 22.5289 -3.22534 -3.84801 2.00784 1.08404
3726 1 -7.53159 -12.834 -15.6408 2.43826 1.14637 -4.94382
3727 1 3.7507 -5.78217 -20.7788 -0.323077 3.72059 -2.34523
3728 1 17.6568 -11.5719 -23.1572 -5.00574 4.24309 -1.13854
3729 1 -22.5852 -8.60648 -13.3398 -2.45884 0.536341 -1.2473
3730 1 10.0065 -4.66128 15.2098 -2.89192 -3.80539 1.16907
3731 1 3.29759 -14.9813 -22.5331 -6.43448 -1.07778 0.969916
3732 1 23.2682 18.4269 5.76269 3.33805 3.78818 6.97423
3733 1 6.44464 -16.18 -0.664868 -3.3096 3.748 0.0949822
3734 1 13.3793 13.827 -9.31623 -4.0038 -1.18425 3.08208
3735 1 -8.34102 18.5833 1.33023 3.25138 -4.63085 1.09837
3736 1 -23.3969 16.7917 -10.8523 -2.34423 -3.17068 2.37939
3737 1 1.95539 5.94157 0.658521 3.83474 -1.475 -0.930717
3738 1 -5.90635 -2.97107 16.8956 1.3738 4.35057 -3.21915
3739 1 1.94215 -4.23763 7.68913 -4.71555 -2.44447 -4.82761
3740 1 7.05614 0.665267 -19.9385 4.58685 -2.33969 -0.258012
3741 1 -20.8677 13.5279 -4.4297 1.02179 5.17902 0.360181
3742 1 -1.98331 -19.5422 -16.4093 -0.341096 2.40273 1.54249
3743 1 9.5018 -11.753 17.1213 -1.47351 -4.59519 -1.81764
3744 1 -15.2347 17.9218 5.63484 1.91838 1.51976 3.39479
3745 1 4.63826 -9.99396 10.5405 -2.52898 0.74861 -3.93567
3746 1 8.28648 -21.5514 -4.64839 -0.653421 0.0662842 3.23011
3747 1 -19.2799 25.9317 -19.5552 -4.56053 -4.20222 -1.22507
3748 1 -16.7038 -2.40568 -19.5565 4.26537 0.342037 3.55117
3749 1 -19.4717 1.05996 12.5508 3.22902 3.11885 4.50309
3750 1 13.0872 24.3899 -14.9665 -1.49025 2.16853 -0.301076
3751 1 -6.0008 -0.750626 1.9802 0.463375 -3.5695 3.91647
3752 1 -18.884 14.3762 -15.071 -4.01667 1.50681 0.655761
3753 1 2.46531 -4.58453 -18.2734 -1.30406 0.131064 0.972426
3754 1 -10.4939 9.05267 9.26468 -0.830569 -3.71858 1.68966
3755 1 18.1374 6.31234 -7.60872 0.629163 4.06706 -6.58576
3756 1 -10.9538 45.7096 -22.0845 2.26307 0.447077 1.12557
3757 1 1.96829 22.7888 3.29318 -6.05758 2.82169 -2.09533
3758 1 22.5964 -7.68027 -12.6482 -4.33026 -0.976946 -2.6895
3759 1 -11.7915 8.51628 -19.0023 1.16172 -1.2695 -0.0380655
3760 1 16.3425 21.0125 3.99712 -2.62907 2.71106 1.18432
3761 1 18.7382 -13.1428 -19.2487 2.90456 -1.3671 2.72714
3762 1 7.99626 -13.614 9.83535 0.13585 -4.30836 3.35012
3763 1 11.8086 10.4249 6.00621 -0.267209 -4.52372 -1.08488
3764 1 17.1973 -14.5855 21.5051 -3.59935 1.18849 -2.46563
3765 1 -22.9475 46.3074 -1.91627 0.515898 -5.87017 3.62214
3766 1 -11.4845 19.9781 15.2627 1.07511 0.571132 3.95441
3767 1 -12.043 -21.9028 0.705482 -1.37109 0.789848 1.68676
3768 1 -0.103859 6.66823 -18.1094 1.66578 -2.18086 -1.20415
3769 1 -20.9733 -16.7724 8.16675 9.54601 0.878171 2.28098
3770 1 -9.33931 -3.88905 9.61911 -0.793488 1.54746 0.152301
3771 1 -17.1014 20.7186 18.1571 -1.21464 -1.62928 -3.02707
3772 1 16.2536 -15.6219 -2.09215 -3.46114 -3.62642 2.50437
3773 1 2.29834 -1.86036 14.0965 -4.44025 -1.53049 -1.22017
3774 1 -6.12101 14.6193 4.68483 0.808922 -1.02118 -0.631392
3775 1 0.88719 -1.77436 -12.1751 0.654265 0.988367 -0.0822434
3776 1 5.66514 -3.97873 19.3914 -3.82101 -3.20201 -0.711218
3777 1 10.5842 -9.09699 -0.298982 -0.168057 -3.63436 -2.97319
3778 1 6.09766 15.4339 -9.2654 2.25827 2.93503 -3.14176
3779 1 -9.69164 1.6069 9.64905 0.659981 -2.83509 -0.407979
3780 1 22.8533 17.9295 -15.3023 -1.36049 -0.373241 0.597328
3781 1 -0.531496 -1.57718 10.018 0.911245 -0.280639 -4.1386
3782 1 -0.112362 -14.3727 -18.9829 -3.95659 4.78846 -5.04261
3783 1 20.7164 20.4283 3.62387 -0.029001 -6.86948 0.620323
3784 1 17.1023 2.58673 2.03139 2.91946 2.9009 0.867013
3785 1 -2.40473 -24.2429 21.8487 3.03426 -3.19802 -2.81464
3786 1 19.7902 4.23687 17.3454 -5.9956 3.90563 -3.76824
3787 1 8.03524 20.8061 -14.7161 -5.33694 -3.98698 2.48486
3788 1 6.35717 14.7267 14.9101 0.993627 3.05998 0.075628
3789 1 19.9817 23.9893 -13.2607 2.59776 1.76348 -4.05643
3790 1 1.71594 -16.9206 -2.67821 1.42798 -0.365473 3.32757
3791 1 -12.0453 16.6785 -11.6513 1.46831 -4.77336 7.30813
3792 1 -13.2344 -7.92805 12.4748 3.06909 -1.33768 4.97435
3793 1 -14.1225 21.2814 2.5136 -0.156248 -2.60167 2.74391
3794 1 -2.05738 -20.7176 -11.1529 2.87008 -1.27702 1.43046
3795 1 13.8715 23.8361 20.7315 1.17105 -2.09767 1.89751
3796 1 -13.0262 -8.71402 -6.33394 -4.30319 -1.10007 3.09844
3797 1 -15.7789 -13.0599 7.68112 3.02601 3.44264 0.0338845
3798 1 5.46369 2.0177 0.23811 1.42595 0.527109 -1.32906
3799 1 17.4158 20.875 -6.54809 -4.02729 -1.51142 -1.60009
3800 1 15.48 0.315933 -2.08948 -0.492321 -1.64565 1.65388
3801 1 1.41475 13.6927 -10.0101 -2.85773 4.62496 1.93651
3802 1 7.87856 0.200485 -22.8003 4.49542 -5.49994 -0.524416
3803 1 -19.8467 -5.05056 22.7694 -1.44927 3.50558 -0.791865
3804 1 13.0198 19.2878 9.63404 -4.68476 -2.67381 2.48287
3805 1 -4.88769 16.8208 -19.6973 1.46417 -1.25139 -2.22283
3806 1 -1.40032 2.70673 -3.74976 0.994411 -0.0383449 1.33631
3807 1 -8.34643 21.7512 -17.6472 -2.71263 2.79092 -3.62704
3808 1 6.43368 -12.3133 -21.3471 3.74262 -6.75963 0.855762
3809 1 3.87525 -22.2076 -22.2796 2.41039 1.85844 -4.17591
3810 1 -17.2397 -2.12054 12.854 -1.56137 -2.47379 -0.789434
3811 1 14.6412 -16.5728 -22.3958 -1.44885 -3.62616 0.120709
3812 1 -3.97574 -19.2586 1.16696 -1.06639 -2.08686 1.40419
3813 1 18.414 0.797446 -2.00633 -4.58391 -2.11472 0.664058
3814 1 6.17272 11.6888 7.34918 1.60872 -1.01414 -2.64336
3815 1 -1.5002 19.688 -22.8648 -4.84711 -2.54752 0.353951
3816 1 -15.1353 -7.15448 1.84363 -4.5779 0.937709 -3.91447
3817 1 10.4893 6.69373 -4.63747 2.60978 -0.619109 1.81496
3818 1 12.5421 16.2924 -21.7729 0.252953 2.62312 -5.15741
3819 1 2.57502 26.8785 14.0239 -0.870695 0.118728 0.924321
3820 1 22.8463 14.9798 -6.23628 0.241652 -0.0520612 1.09166
3821 1 10.8902 -10.6361 14.7814 0.630125 -0.353562 -1.41169
3822 1 9.62901 6.66741 8.66762 2.62633 1.54021 3.70491
3823 1 -6.9302 -21.029 -8.9257 -5.64521 -1.46361 -1.73273
3824 1 -6.79172 46.2536 -7.57431 2.85348 -3.36839 -1.35628
3825 1 18.6182 -12.7098 11.2495 0.646359 -2.39077 -4.23369
3826 1 -1.11555 18.1065 -14.4727 -0.0446742 2.6528 2.13745
3827 1 1.10016 8.35706 21.4341 0.590782 -1.89986 5.61128
3828 1 -17.2383 20.3094 -16.4883 -1.96416 0.643902 -1.50506
3829 1 -14.0923 -20.9917 -7.72221 -3.57293 -0.634832 -0.251403
3830 1 18.1033 -12.5877 -12.1672 -4.16042 0.00411584 2.16584
3831 1 -3.73465 20.97 0.628402 4.85308 -0.104995 4.43634
3832 1 21.0401 -3.61728 3.49717 -4.87916 0.361775 0.349161
3833 1 22.6217 -4.60289 -12.8154 -2.02115 -0.203587 2.23142
3834 1 7.14898 5.29475 2.52125 -4.45825 0.188535 1.62666
3835 1 22.2889 -24.3092 -2.9772 5.05861 -1.05902 -3.12253
3836 1 22.1285 12.0513 2.10666 -5.31747 3.52572 2.15378
3837 1 11.5438 12.5588 2.75288 -1.34562 -0.656022 -1.0236
3838 1 -5.62361 3.51155 -2.73113 0.33333 -0.922345 3.61236
3839 1 21.6901 5.51369 1.61598 -1.44875 -1.221 4.2818
3840 1 -10.3899 -23.088 13.1189 -0.541331 -7.24114 -1.71059
3841 1 21.7163 2.53455 9.84022 -1.44237 -0.76996 -4.28646
3842 1 22.7121 4.30679 21.066 -5.9049 -0.786359 2.21176
3843 1 -1.34114 -20.9382 14.3344 -3.852 -1.14763 2.46369
3844 1 -22.1566 -13.489 4.50625 -3.23044 2.3445 -0.28152
3845 1 -4.13725 1.75805 -19.0052 0.816532 1.51826 -0.235649
3846 1 -20.5599 22.2855 20.1725 -0.468763 0.128272 4.16736
3847 1 -14.1749 -17.7119 -13.7142 2.20817 2.78222 -5.31763
3848 1 5.48045 -16.1429 7.26094 -2.2518 0.447042 -3.68972
3849 1 16.8705 12.5429 -20.2433 -1.93148 -4.48091 -4.89185
3850 1 20.1814 -23.848 19.8205 -2.09488 -0.0698218 -2.13464
3851 1 -3.04586 7.1431 -0.851611 0.887281 1.11053 3.69189
3852 1 -7.28201 20.9219 15.9244 3.59215 6.28076 -1.28525
3853 1 18.6323 -14.857 5.0748 -3.12148 -1.5218 -0.631113
3854 1 19.2136 12.4327 -2.51976 -3.79258 -3.84042 -0.128518
3855 1 -2.28669 -5.76791 22.6491 -0.142661 6.95158 -2.77102
3856 1 13.7759 -20.1092 -6.89553 5.02538 -1.88492 4.37588
3857 1 -11.6657 46.3799 -12.2872 -3.55247 -9.3625 -2.79004
3858 1 15.9146 7.02552 4.9356 -4.98988 -3.82672 -4.94694
3859 1 21.6881 22.8433 9.95072 6.22415 -0.98629 0.560325
3860 1 12.9005 -19.6576 -15.1137 -4.74209 -0.484139 0.535296
3861 1 -17.8441 -11.3349 20.0447 -11.1736 -5.5081 -7.40665
3862 1 -6.93206 -2.08117 -15.7157 0.363762 -0.24177 0.935005
3863 1 -13.3321 -2.52375 16.2536 4.02351 -2.57758 2.27391
3864 1 -4.9012 -3.00518 -13.6183 1.87834 -1.58704 0.41732
3865 1 -0.663981 46.4367 15.3987 0.663549 -3.78414 2.81824
3866 1 9.88361 -15.9724 6.18753 -0.975645 3.1462 2.26124
3867 1 -23.6551 0.111379 3.99137 -2.21705 -3.24584 1.0093
3868 1 6.73095 4.16463 -4.8962 0.647837 0.713852 -4.24914
3869 1 -9.14396 5.83982 10.2026 1.98525 3.51694 2.79826
3870 1 17.225 -20.9349 -10.4174 -2.6792 4.10504 -3.4198
3871 1 17.9306 0.803916 21.0076 -3.46089 2.07853 1.7758
3872 1 23.1663 -24.0269 -9.30571 -2.47653 0.888231 2.76221
3873 1 -3.64261 7.23539 15.796 3.15979 5.14908 -4.13769
3874 1 -18.5914 45.1754 -16.7378 -2.35924 4.02577 0.971128
3875 1 -21.6073 2.92264 6.09865 -2.55312 4.52287 -3.25107
3876 1 -22.1252 -12.677 19.0136 -2.16682 -0.283132 7.73083
3877 1 -22.7234 2.12083 -4.39772 4.44208 -0.053026 0.222535
3878 1 7.18432 -16.9853 5.22481 1.52403 -0.774867 3.76264
3879 1 19.2003 -15.7412 20.0808 3.57082 0.119957 6.5756
3880 1 -7.43587 18.3851 -22.812 1.19191 -0.263661 0.478264
3881 1 -15.4254 3.51879 -13.5233 0.689609 -1.86828 2.66222
3882 1 -23.9352 17.0169 -1.89468 -4.55819 1.2855 2.68172
3883 1 21.9056 15.5935 -10.6618 -0.887622 -5.0087 -1.01926
3884 1 11.9873 -18.2951 -8.62732 1.43918 0.415894 3.48411
3885 1 11.2651 25.6554 14.8282 -3.31019 1.00141 1.31549
3886 1 -13.584 -15.3979 -4.32709 -1.9251 -2.99309 6.39017
3887 1 1.84631 -11.8111 -18.7261 -0.731537 -2.02852 -2.5068
3888 1 -6.65956 3.19514 -18.7846 5.78803 4.0095 -4.04924
3889 1 -16.2326 17.7603 18.0012 -0.072072 -0.470147 -1.33165
3890 1 -0.224849 21.9697 15.8214 -0.887374 1.26558 -3.05627
3891 1 6.17055 -15.3536 18.2768 3.72098 -1.05508 -0.313364
3892 1 -13.3357 26.4939 7.06505 4.52158 1.65984 5.34276
3893 1 -6.27367 12.8448 11.0124 3.01341 -1.48525 6.89526
3894 1 11.1134 7.90935 -15.2438 6.84832 -0.0964048 -3.98731
3895 1 12.4161 -7.23496 4.05913 -1.5004 -0.942113 0.536249
3896 1 -8.4593 -8.23565 -1.99597 -1.98705 -0.488238 0.436633
3897 1 5.14791 13.1084 -23.6605 -4.70875 1.59724 0.706508
3898 1 18.6026 -3.36051 14.4048 5.3194 2.23185 1.96711
3899 1 2.94206 10.2379 19.6776 -2.8656 -0.49554 2.96108
3900 1 11.2267 -16.6801 -13.0473 -0.48779 1.37179 -1.44256
3901 1 -16.3493 15.0379 -11.0482 -2.20396 -3.52667 -2.57
3902 1 11.3663 11.1175 -5.36362 -3.05282 1.17931 -1.66837
3903 1 -18.8502 -15.9836 3.85786 -1.6927 -3.12383 0.718488
3904 1 12.1178 -8.8776 -3.84731 2.79991 -7.75407 -4.5076
3905 1 -0.972288 -10.2935 6.21182 -0.571514 1.85059 -5.19542
3906 1 -17.6696 10.1857 -4.79349 2.87507 0.900321 -0.621567
3907 1 -20.3983 0.5426 7.82816 -1.83571 -0.715599 -2.89779
3908 1 22.4087 -17.3408 12.2531 0.156325 -2.78131 0.831451
3909 1 -0.209473 -12.7572 18.6533 -4.26397 -7.04498 -1.98698
3910 1 -6.24173 16.8961 -8.48978 -0.820804 -7.25688 3.06117
3911 1 19.4097 17.3189 0.329212 -1.72875 3.01331 -6.30424
3912 1 -7.47084 -8.82514 1.0014 -1.8142 7.26092 3.43929
3913 1 -5.60557 6.05284 0.658426 0.397413 -2.27164 3.19858
3914 1 14.668 -11.3826 -5.40955 -0.590418 -1.16156 4.26421
3915 1 4.8973 -0.827743 8.06232 0.746826 0.374406 2.2363
3916 1 23.2641 -14.4706 19.9684 3.78029 3.41261 0.94234
3917 1 -0.626642 -4.59493 -9.62848 2.25917 4.0703 0.240437
3918 1 14.3904 10.8646 -19.9522 -0.675042 3.46576 -0.350133
3919 1 9.06327 -14.5604 18.1395 -0.419942 -2.60413 -0.511452
3920 1 -12.2947 11.8135 18.3909 2.87521 0.567118 -0.459369
3921 1 16.6575 8.07494 -14.6146 0.265222 0.739679 -0.258597
3922 1 -16.8093 -14.659 -21.5403 -0.556748 4.69726 -4.99338
3923 1 -22.0276 3.83532 -9.95248 5.15572 0.961874 4.00942
3924 1 -11.8252 -3.75442 12.6955 1.35229 1.30218 -1.93461
3925 1 -23.0142 5.28325 2.05266 0.259304 -3.4676 -0.425017
3926 1 6.55529 -3.98267 22.9661 1.1288 -2.74724 -2.44007
3927 1 13.2495 16.2922 -1.12347 1.48724 -3.46767 0.57378
3928 1 -17.996 20.4761 23.8609 2.54162 4.24963 -0.813208
3929 1 -1.52326 10.5105 -8.78893 3.60154 -2.70048 -1.97754
3930 1 12.569 20.8264 2.37659 0.608646 -0.377739 1.87041
3931 1 0.856132 8.25275 1.87977 3.61714 -0.618493 -5.01522
3932 1 22.0691 4.94759 14.4995 -0.219401 -2.72758 2.45483
3933 1 -5.22172 -8.37194 22.6263 -2.33832 -5.05206 1.81508
3934 1 22.2014 5.57419 -11.7597 -2.28807 -1.58735 -1.91721
3935 1 12.5465 -13.5232 -20.1725 -2.39186 -0.824025 5.03126
3936 1 1.14548 -23.8501 19.514 1.69639 -3.26927 -1.07476
3937 1 16.7533 -17.0231 -18.0833 -1.25473 7.03403 -1.80571
3938 1 19.2842 14.9901 17.8678 -1.41488 -3.85351 -1.24261
3939 1 23.5268 -3.1519 12.5114 1.94192 4.43109 -0.503815
3940 1 0.0698249 23.1312 -6.58595 1.27666 2.78398 4.56622
3941 1 -19.8999 3.0121 23.1983 4.59387 -2.25288 0.289224
3942 1 11.8608 -22.9871 16.5322 1.35445 3.87136 -0.127351
3943 1 -18.9849 -20.5885 2.89899 1.46689 -2.52264 -4.14686
3944 1 -13.2339 -8.50301 -11.8593 -1.28063 -1.15507 -2.0992
3945 1 -22.6085 -14.7738 -14.0825 2.80176 0.00691417 1.38321
3946 1 -4.3913 17.5639 7.9391 2.19072 -1.40983 -1.85828
3947 1 -23.0035 12.0451 -23.1886 3.27843 -0.756342 -4.66146
3948 1 10.3299 15.9391 -16.8153 -0.727773 0.673737 1.53455
3949 1 4.95473 -13.5432 -12.2717 -3.1304 2.71239 -1.5233
3950 1 -4.82608 -3.41646 -19.6355 0.868711 0.872166 -2.46764
3951 1 5.43546 3.85014 -13.6039 1.67592 -0.904075 2.51731
3952 1 -4.18661 -5.96422 -13.0432 -0.522919 -2.31011 -3.58758
3953 1 20.1077 -18.0226 13.9729 0.393471 -0.695875 -2.04101
3954 1 7.20089 0.563879 -16.9602 -2.59248 2.8332 0.618216
3955 1 -7.81604 19.8723 11.4411 2.19855 4.90382 -3.83707
3956 1 -12.568 14.2849 -3.49121 -5.79528 1.38406 -4.32938
3957 1 19.9033 -23.8119 -18.4011 -0.464825 -0.807278 1.11325
3958 1 -4.26069 8.3554 -5.42442 -2.09938 -0.0888938 5.09187
3959 1 -18.9516 -6.96215 -22.749 -1.40921 -0.126095 1.48817
3960 1 22.2828 -13.4525 -8.86555 0.419463 -4.18535 0.591694
3961 1 0.370969 -20.5204 -5.06546 2.45016 -0.540734 -2.52512
3962 1 4.01204 -14.185 3.94495 0.852653 -4.26996 -3.02275
3963 1 -15.1345 -20.3884 -4.88822 2.23706 -0.341875 -2.24308
3964 1 10.4035 9.19446 19.3771 -3.10228 1.66793 6.17329
3965 1 -3.49652 2.46417 5.33689 -3.69765 -3.05447 -2.68028
3966 1 -20.9836 20.043 7.24408 -3.27052 -3.55785 -0.280852
3967 1 -0.120239 -8.0963 -4.19683 -0.635068 -1.07189 3.59748
3968 1 -2.06428 8.15788 -3.43954 -1.44105 -4.61931 -2.20915
3969 1 16.2704 -24.316 21.5807 5.7153 -3.20627 -1.36418
3970 1 -8.4996 23.225 21.9222 -2.0322 2.86526 -3.52
3971 1 -2.98098 -0.0145934 -22.6019 -3.72627 2.334 -1.13091
3972 1 -5.98016 -9.01097 -9.80816 -0.136225 -2.24461 -3.74387
3973 1 -10.8638 -22.2029 -9.38076 -1.95232 1.59522 3.74148
3974 1 5.33397 27.5057 14.1728 -2.67249 -2.17095 1.90409
3975 1 -0.0903829 2.58578 -16.6091 0.831468 -2.84935 0.70024
3976 1 -1.29351 15.4888 4.1484 -1.25434 0.133315 -2.74609
3977 1 -8.08662 -19.6736 -21.5626 -0.616041 -0.941495 4.61711
3978 1 0.00869959 17.4208 -9.08719 -5.14779 0.840613 -3.17361
3979 1 -10.4331 -22.7675 2.9538 3.17862 2.73354 -6.1472
3980 1 -21.1467 -18.3006 -14.7455 -0.265361 -3.40539 2.33964
3981 1 11.5797 -9.57748 5.49403 3.23503 -2.32875 -1.65117
3982 1 8.89595 -7.03972 -1.7537 3.88642 -2.25172 3.22433
3983 1 -22.2956 10.896 8.77074 3.01976 0.520164 -4.27494
3984 1 -7.11514 15.0259 -19.9921 -0.825019 5.40975 -1.74937
3985 1 -13.143 23.3604 6.96076 -0.63285 -2.16578 -1.37532
3986 1 15.9191 22.1362 -17.1033 -1.02217 2.28897 5.45467
3987 1 12.0421 17.668 16.9879 -0.292112 2.93814 1.54191
3988 1 22.3184 20.2805 19.6997 0.907375 0.998497 1.59705
3989 1 -15.8539 -10.9116 -10.8073 -1.98132 4.52638 2.48568
3990 1 10.9512 4.55451 -22.2666 3.18407 4.27544 -3.55423
3991 1 -17.451 7.08151 22.8392 0.718536 -0.509289 3.69463
3992 1 21.8647 9.22562 -3.95077 -0.452228 -0.77006 1.9577
3993 1 -7.66137 -8.73906 -7.32033 -0.407039 2.48297 -0.668722
3994 1 -15.2035 -21.0714 -20.14 0.457079 -2.91438 -2.42535
3995 1 6.72465 -24.1081 4.19381 -6.0093 -1.98736 3.60385
3996 1 2.55455 -15.2043 1.74152 -2.14961 -4.96987 -0.525795
3997 1 19.4928 46.188 -12.1858 -2.20545 3.90262 -0.309862
3998 1 -12.9354 -5.32256 1.92306 2.84258 -1.83889 8.15769
3999 1 -8.19664 15.7507 9.77108 1.84294 -2.99432 -0.57329
4000 1 -19.1196 10.6718 21.4381 2.11269 1.95668 -1.5672
4001 1 -11.2919 25.7542 -4.13194 -8.1625 -0.912401 -2.1887
4002 1 -10.8625 28.2029 -5.05802 -2.30857 -1.55341 -3.89576
4003 1 -8.1934 27.9743 -4.30679 2.49357 1.14766 3.57904
4004 1 -6.88908 26.0475 -5.96124 2.56711 1.8286 -3.99244
4005 1 -11.9721 25.5722 -9.75104 1.80417 0.151572 -0.587721
4006 1 -13.2668 28.3547 -10.0449 3.50839 1.35294 4.30001
4007 1 -9.86507 27.4019 -9.57404 3.41738 1.10243 3.28806
4008 1 -7.3247 26.7722 -8.56927 -0.224223 -3.32014 2.09892
4009 1 -11.156 25.4142 3.42792 3.4535 0.784201 1.11395
4010 1 -9.90169 27.5726 2.39144 0.0609895 1.33287 5.0078
4011 1 -7.19017 27.7896 2.92517 -1.36529 6.72368 5.97809
4012 1 -6.26411 25.3245 1.95178 0.337657 -2.60773 -1.44451
4013 1 -11.3837 25.5211 -1.32991 -5.88155 -1.1618 4.04698
4014 1 -10.3587 28.0728 -0.352959 2.43263 5.36328 2.57546
4015 1 -7.68601 27.5008 -1.46187 -0.0231562 2.11434 -1.85257
4016 1 -6.11559 25.0962 -0.895427 -0.372767 4.17645 -2.22547
4017 1 -11.1914 27.1824 11.3272 -2.18354 0.821049 3.25847
4018 1 -8.93341 26.6661 9.53106 1.0977 -1.54017 -3.43292
4019 1 -7.27168 28.5154 10.7848 3.11102 3.34513 0.698902
4020 1 -5.66363 27.064 12.4154 -0.597223 -0.910634 3.27494
4021 1 -10.9239 25.3435 6.19746 3.41689 -4.02675 6.01496
4022 1 -9.98163 27.6713 7.12238 0.217808 -2.67505 5.25391
4023 1 -7.44523 27.9321 5.7043 2.0804 -2.55921 1.89861
4024 1 -5.88799 25.6409 5.68718 -1.64489 -2.06803 0.352028
4025 1 -11.9234 30.3141 -3.81812 -0.817404 -2.80288 2.51329
4026 1 -10.3573 32.3904 -5.16175 -4.19968 3.97691 -2.15303
4027 1 -7.61986 32.135 -4.55187 -4.66506 2.60192 -1.84862
4028 1 -6.40794 29.9163 -5.23498 -1.17804 1.68446 2.70963
4029 1 -11.39 29.2154 -7.90787 -2.29431 -0.748216 1.70545
4030 1 -10.5862 31.8876 -7.86611 2.38117 -0.505215 -2.81309
4031 1 -7.92795 31.8931 -8.89379 -2.74772 -0.39526 3.36215
4032 1 -6.55344 29.4748 -8.07475 2.02603 -1.93093 -3.20309
4033 1 -11.1442 30.0422 3.15937 3.39726 -1.37591 -2.57889
4034 1 -9.97682 32.294 2.26405 3.65629 1.28083 -1.90907
4035 1 -7.49293 32.4837 3.10538 -0.390026 0.567181 2.9206
4036 1 -6.32729 30.3207 1.97567 4.98184 -0.25199 0.788682
4037 1 -11.5222 30.295 -1.17102 0.400771 -1.40074 6.2079
4038 1 -9.94522 32.5224 -0.513855 -0.879072 2.1182 -1.72297
4039 1 -7.5672 32.0157 -1.67447 1.62773 2.49643 -2.08247
4040 1 -6.29724 29.8518 -0.803544 -0.827769 4.19419 0.680781
4041 1 -9.64336 29.6815 11.5198 -3.03461 0.195426 1.18175
4042 1 -9.97605 32.2697 9.8593 0.79556 -0.408612 -0.757492
4043 1 -7.15376 32.556 9.07622 2.78864 -2.97976 0.60763
4044 1 -5.79022 30.3135 9.20517 -3.95947 1.94657 1.0644
4045 1 -10.909 30.0115 6.13482 -4.39134 1.25832 4.39996
4046 1 -10.2943 32.4558 7.03 -3.12512 -1.46491 3.49166
4047 1 -7.51792 32.6988 6.0964 2.90488 0.372671 1.33269
4048 1 -6.17216 30.2328 6.3334 -1.18327 -2.17482 2.97826
4049 1 -11.2647 34.8824 -4.24276 -2.34122 4.43906 0.782647
4050 1 -9.8385 36.9787 -5.2904 1.97795 0.184096 2.59229
4051 1 -7.1892 36.5155 -4.23374 0.325443 -2.82583 1.80117
4052 1 -6.14612 34.4422 -5.51931 0.428741 1.9605 4.22757
4053 1 -12.121 34.2568 -8.19965 2.90648 -2.64429 -4.0609
4054 1 -10.3748 36.5389 -7.85513 3.27881 -1.69954 0.278335
4055 1 -7.8372 36.7248 -8.52576 2.65341 -2.92644 1.46055
4056 1 -6.73896 34.2454 -8.36594 0.403217 -5.49982 -0.263849
4057 1 -10.9169 34.7564 3.19534 -1.51133 -4.57519 -1.85834
4058 1 -9.89934 36.9235 2.02754 3.39991 0.847721 1.0834
4059 1 -7.15233 36.8194 3.01983 0.470152 -4.79306 1.25047
4060 1 -5.77682 34.6942 2.07375 -2.03675 -0.0572852 -4.16666
4061 1 -11.4212 34.7983 -1.57478 -2.15837 0.487375 1.40979
4062 1 -10.1073 36.9213 -0.727367 0.998365 2.37912 -1.98071
4063 1 -7.54168 36.3423 -1.32582 -1.00716 4.69951 -4.98392
4064 1 -5.87944 34.2391 -0.714424 -1.81813 -0.677141 -0.0387824
4065 1 -10.1891 34.7227 11.0799 3.67297 1.33724 1.59349
4066 1 -9.15306 37.1401 9.7483 -5.9141 2.7098 -0.793434
4067 1 -6.42754 37.1628 10.2929 1.89994 -1.10426 0.128056
4068 1 -5.30675 34.6966 9.29767 2.89418 -1.39852 3.29033
4069 1 -10.7885 35.031 5.83891 2.27028 3.56802 1.02434
4070 1 -9.2957 37.1748 6.84222 -0.133241 -0.644935 -5.33986
4071 1 -6.76991 36.9192 5.63035 4.51654 0.563002 -2.86929
4072 1 -5.5538 34.59 6.46801 1.12417 -0.433007 -0.742146
4073 1 -10.7607 39.4719 -4.35468 -2.34764 -1.01276 -3.20631
4074 1 -9.85004 41.7778 -5.58749 -1.49149 1.74658 -3.02044
4075 1 -7.33099 41.1579 -4.42889 -4.32303 1.50927 0.113503
4076 1 -5.88104 38.8709 -5.37263 1.48353 2.31509 -2.11931
4077 1 -11.6443 39.0738 -8.50707 -2.44258 -4.74827 1.32272
4078 1 -10.2984 41.5317 -8.48291 0.486321 -2.96967 7.38635
4079 1 -7.676 41.0651 -8.92179 3.23208 0.783161 1.17749
4080 1 -6.1631 38.8621 -8.11533 0.565835 -1.33264 2.10389
4081 1 -10.831 39.2901 3.53076 -1.42272 3.92245 1.85576
4082 1 -9.4514 41.3527 2.0062 -2.62949 -2.35716 -0.826866
4083 1 -6.79879 41.1491 2.87696 0.269617 6.42938 -0.368672
4084 1 -5.6377 38.8153 1.99631 -3.32223 2.44893 0.148934
4085 1 -11.1631 39.3716 -1.64211 -0.226606 -0.18811 -1.85333
4086 1 -9.75672 41.5185 -0.71561 -3.02682 -0.619369 -0.929075
4087 1 -7.18886 41.1162 -1.70122 2.55104 0.442715 1.15398
4088 1 -6.201 38.7416 -0.773104 1.20567 -0.949157 0.519911
4089 1 -8.15514 39.4137 11.2583 -1.58641 2.0422 -3.51094
4090 1 -8.34575 41.6686 9.68842 3.90372 -0.310946 -0.407008
4091 1 -5.72487 41.7236 9.98126 3.49943 -2.84075 0.21724
4092 1 -4.80295 39.1656 9.3523 0.16005 -1.17715 -0.524148
4093 1 -10.9431 39.4022 6.41631 3.69597 2.9248 1.24728
4094 1 -9.09516 41.5091 6.98824 -1.98766 -0.0996738 1.27046
4095 1 -6.75963 41.354 5.58792 2.83908 -1.12603 -5.53738
4096 1 -5.23293 39.3085 6.3842 2.76118 -0.301295 0.391188
4097 1 -9.82213 44.2655 -4.55551 0.860157 -0.156185 2.30069
4098 1 -11.8735 45.3323 -6.1759 -3.18642 4.69955 -1.43185
4099 1 -7.39922 45.9333 -4.4593 2.10747 -1.55799 -3.51898
4100 1 -6.05506 43.5365 -5.33578 1.20342 -1.3703 -0.823218
4101 1 -10.9648 44.3534 -8.58245 0.530193 1.387 3.73511
4102 1 -8.54454 44.4065 -9.99554 0.126468 1.21046 -2.57394
4103 1 -7.61948 -23.4167 -12.5788 5.6319 1.85376 -5.08923
4104 1 -6.28661 43.4496 -8.1273 1.99512 0.335362 5.18435
4105 1 -10.462 43.7047 3.23784 1.02779 -1.11379 -4.4766
4106 1 -9.43754 46.0653 2.16588 -0.972349 5.22583 1.72367
4107 1 -6.88701 45.6857 2.77804 2.22108 2.60162 1.4233
4108 1 -5.63231 43.5413 1.75877 2.72843 -0.428056 -1.3446
4109 1 -10.4987 43.9921 -1.78566 0.281156 -2.0977 2.86907
4110 1 -9.6332 46.2667 -0.508873 -0.99065 1.57871 -1.10397
4111 1 -7.07549 46.0112 -1.56241 -0.266845 -1.61333 -0.223852
4112 1 -5.92649 43.403 -0.990937 1.05814 -0.0698483 0.312399
4113 1 -9.03553 44.3907 10.031 -7.48941 2.72376 1.74246
4114 1 -6.71279 46.1494 9.55339 -2.68737 6.28606 -0.743769
4115 1 -2.24785 45.0893 10.1354 -0.419896 -0.942706 0.924824
4116 1 -4.66463 44.1274 9.09906 1.82129 -1.2554 -1.21047
4117 1 -9.77652 43.9929 5.97332 -3.84363 -1.75085 -1.85104
4118 1 -10.7972 45.4203 8.13628 -1.08088 -1.70025 0.302002
4119 1 -7.19988 45.3234 5.50588 -1.55573 1.97944 -1.53356
4120 1 -5.30817 43.522 6.37217 3.24355 -5.94192 3.57789
4121 1 -4.09011 25.4329 -5.16734 2.23327 2.26508 0.257895
4122 1 -2.33726 27.3925 -5.777 3.93278 -3.4713 1.09277
4123 1 0.418374 27.3054 -5.0832 0.681816 1.79883 7.00491
4124 1 1.80985 25.3697 -6.62827 -0.346534 0.0609942 -0.458251
4125 1 -2.73121 23.801 -6.94699 1.3118 -5.41329 0.669565
4126 1 -2.1297 27.3114 -8.72762 0.715528 -2.8052 2.9969
4127 1 0.7981 26.5232 -9.21013 2.09428 -4.96156 4.98024
4128 1 0.381715 24.0097 -10.6639 1.18802 -0.577076 -0.822119
4129 1 -3.615 25.5195 2.62975 -3.31289 -0.576666 2.46419
4130 1 -2.05401 27.7426 1.61845 -1.18724 -1.89146 4.49887
4131 1 0.523379 27.6245 2.26424 2.11395 2.10641 -2.98079
4132 1 1.96871 25.2135 1.64272 -0.381958 -0.383286 -0.417299
4133 1 -3.31817 25.1465 -2.29856 2.3964 2.00937 1.17681
4134 1 -2.17206 27.3142 -1.20356 -0.618591 -0.321111 0.21746
4135 1 0.479571 27.3605 -2.20117 0.458821 1.81652 -1.44968
4136 1 1.4235 25.1324 -1.15333 0.0240041 0.747488 0.182713
4137 1 -1.60071 22.464 8.94342 0.943414 1.03057 3.77152
4138 1 -2.10554 27.8237 9.13849 1.69731 -3.76576 -0.0145914
4139 1 0.829606 27.2911 9.55439 1.20775 -2.42835 -2.86832
4140 1 3.94371 24.8678 8.25403 -0.763691 -3.43734 2.63177
4141 1 -3.20042 25.6033 5.37609 6.77845 1.11176 0.418118
4142 1 -2.12293 27.8086 6.35586 2.87934 5.22436 4.5927
4143 1 0.342367 27.3015 5.11153 -1.51089 1.94777 -3.10398
4144 1 1.13781 25.5994 7.33497 -1.82543 0.403517 1.87125
4145 1 -3.7127 29.6138 -4.67412 -3.02137 -3.35259 -5.30453
4146 1 -2.16185 31.7888 -5.75193 -1.33733 1.76245 -1.69185
4147 1 0.392283 31.8386 -5.00859 0.957127 1.20974 2.64826
4148 1 1.36462 29.6695 -6.34342 6.06046 -1.99636 5.34686
4149 1 -4.02014 29.5593 -9.11829 -0.282169 -4.89963 -2.12229
4150 1 -2.43622 31.8345 -8.46493 -0.14261 -0.671615 -3.77109
4151 1 0.0783928 31.67 -9.71699 1.31088 -0.927643 -0.331158
4152 1 1.58695 29.0898 -9.13432 -1.64103 2.55943 3.60648
4153 1 -3.45965 29.9647 2.68945 -0.975745 6.14163 0.181644
4154 1 -2.16931 32.2231 1.52625 4.00797 1.58349 2.81763
4155 1 0.49567 32.1484 2.35401 -1.97918 2.76604 -2.74247
4156 1 1.60289 29.9208 1.08291 0.712999 4.21165 6.10977
4157 1 -3.67274 29.526 -1.82112 0.796241 2.72389 5.75314
4158 1 -2.09231 31.7556 -1.22437 -3.54931 -1.03546 -0.721452
4159 1 0.500152 32.009 -2.32029 1.7075 -3.09504 -1.85035
4160 1 1.97265 29.6536 -1.67359 0.0620727 0.0837435 -2.55252
4161 1 -3.13408 30.3697 9.75514 -2.36076 3.48924 4.2283
4162 1 -1.5839 32.4751 8.9205 -1.01487 -4.21028 3.36196
4163 1 0.941592 31.9789 9.51223 -0.0375787 -6.05996 -1.93448
4164 1 2.14924 29.5938 8.78769 2.52002 3.35225 6.5658
4165 1 -3.55882 30.1149 5.48389 1.25844 1.99605 -5.43406
4166 1 -1.96396 32.2118 6.23622 1.35821 1.86034 -5.80901
4167 1 0.662956 32.0353 5.02235 1.90475 -4.52627 0.720051
4168 1 1.83466 29.6632 5.93985 -5.69158 -2.66535 -2.3505
4169 1 -3.44298 34.0041 -4.80054 -1.02185 2.77489 -1.37451
4170 1 -2.03658 36.3894 -5.51133 -1.34693 -3.53033 -2.43602
4171 1 0.664742 36.4581 -5.05177 -3.73835 -0.0565302 0.920797
4172 1 1.73988 33.9551 -6.18121 3.1407 1.92725 -2.9302
4173 1 -3.90056 34.0709 -8.98965 0.210055 -0.444208 -0.367579
4174 1 -2.38108 36.224 -8.23095 -0.333427 4.22036 2.12373
4175 1 0.451402 36.3602 -9.05409 0.460223 -7.98842 5.15592
4176 1 1.76385 34.0083 -9.05289 -0.760395 -5.36175 -2.42894
4177 1 -3.25474 34.4847 2.66808 -2.14609 3.13576 -4.29307
4178 1 -1.63633 36.4076 1.74035 0.608696 3.3027 0.178768
4179 1 1.05406 36.7276 2.42308 0.0235309 -1.59683 0.606631
4180 1 2.15651 34.3306 1.58379 7.88162 -1.76813 -0.764805
4181 1 -3.38856 34.2504 -2.08657 -2.6013 -1.78432 -1.9233
4182 1 -1.73178 36.4571 -1.0396 5.29642 3.08972 -2.72461
4183 1 0.696981 36.4808 -2.25795 -1.66537 -0.0655304 -2.19076
4184 1 1.95749 34.1626 -1.30538 4.15478 -0.304504 -3.01802
4185 1 -2.66169 34.7155 10.0363 1.19542 -3.74886 0.147536
4186 1 -1.06743 36.6631 9.00761 -2.76908 -2.91652 -5.49754
4187 1 1.46609 36.4719 9.8412 1.91876 4.79479 -1.27416
4188 1 2.61279 34.1399 8.90687 -0.950786 -2.78113 -3.79707
4189 1 -3.00845 34.5728 5.33869 2.05339 2.28645 -3.35426
4190 1 -1.48152 36.6224 6.40059 6.17134 0.354064 1.42187
4191 1 1.06325 36.3051 5.08401 -1.0468 -0.220657 -6.38387
4192 1 2.26822 34.0666 6.28029 -3.44553 2.6034 -2.79123
4193 1 -3.19141 38.6599 -4.41251 2.81692 -2.12263 -6.78796
4194 1 -2.03384 41.0886 -5.47944 -2.23996 -0.90132 1.73959
4195 1 0.588997 41.424 -4.71562 1.8538 0.241486 2.87917
4196 1 1.57423 39.0044 -6.11189 -5.09469 6.1429 0.183349
4197 1 -3.42591 38.7885 -8.64998 -1.96794 -0.0306645 2.70162
4198 1 -2.19572 41.2701 -8.21937 1.13978 -2.19871 0.649829
4199 1 0.0404324 40.9172 -9.71436 3.87298 1.52498 -1.47002
4200 1 1.71077 38.8166 -8.72483 6.47032 0.614137 -5.18854
4201 1 -3.00329 38.8722 2.26101 2.11615 4.27436 -0.127021
4202 1 -1.64562 41.2359 1.65661 -3.10416 0.463881 3.51531
4203 1 1.04732 41.2568 2.37822 2.013 0.348909 -5.36032
4204 1 2.07727 38.9394 1.33466 -1.72631 2.62941 -2.85833
4205 1 -3.44662 38.6838 -1.74865 -0.582119 1.07408 -0.069162
4206 1 -1.99884 41.0864 -1.21332 0.114052 0.89109 1.40189
4207 1 0.697631 41.3079 -1.97024 2.3952 -0.162402 2.11227
4208 1 1.97416 38.8608 -1.50676 -5.00401 -1.39213 -2.57378
4209 1 -2.00967 39.0933 9.59764 -5.12824 0.856949 1.18381
4210 1 -0.915093 41.4464 8.81759 2.79367 4.00723 -12.4323
4211 1 1.50394 40.8657 9.96002 -1.6354 0.230772 4.48184
4212 1 2.66651 38.5939 8.7157 0.540278 5.46633 1.11382
4213 1 -3.07333 38.9223 5.04922 -6.58822 -2.40171 -3.54249
4214 1 -1.7807 41.2407 6.16056 1.4756 1.56382 -3.00781
4215 1 1.272 41.0267 5.2435 -0.102286 -6.73715 -1.23298
4216 1 2.52463 38.3861 5.90901 1.1976 -1.64613 0.875841
4217 1 -3.28155 43.5398 -4.79206 -4.2193 2.26647 0.521708
4218 1 -2.07105 45.936 -6.01078 -1.28481 -1.3286 -5.11971
4219 1 0.456903 45.81 -4.96497 2.87089 -3.30376 1.8247
4220 1 1.57994 43.5377 -6.20983 -1.24928 0.241106 2.18595
4221 1 -3.08019 43.9016 -7.80011 1.58344 -1.0291 0.416128
4222 1 -1.91249 45.8179 -9.86833 8.10338 1.45876 4.24522
4223 1 0.856475 45.7374 -10.1873 -1.70345 1.29246 6.17364
4224 1 1.70906 43.3725 -8.92115 -1.76531 1.99779 1.30162
4225 1 -3.0433 43.2888 2.49758 -0.902521 6.83226 -5.07953
4226 1 -1.65015 45.6587 1.79707 -3.72389 -1.84659 -1.37861
4227 1 1.03044 45.715 2.51884 5.91159 1.84696 -0.0894126
4228 1 2.39873 43.5778 1.64794 -1.85233 -2.49062 1.61264
4229 1 -3.31244 43.4009 -2.00677 0.904077 -0.991431 4.04603
4230 1 -1.73904 45.8301 -1.01848 -0.593514 -2.84147 1.64704
4231 1 0.975854 46.0567 -2.06845 -4.54208 4.41765 0.640391
4232 1 1.99197 43.6404 -1.35483 -1.51618 1.61163 4.59279
4233 1 -0.251957 44.099 8.75749 -3.60122 2.8267 -1.43093
4234 1 0.55889 46.0012 12.9763 1.38382 -2.13087 1.97557
4235 1 1.84583 45.2958 10.3964 1.6754 1.92593 2.09524
4236 1 3.25023 42.9676 9.20533 -1.3488 4.16584 -3.12423
4237 1 -2.64087 43.6339 5.26454 -0.576247 0.346123 2.65234
4238 1 -1.02458 45.5601 6.57224 -3.7873 -0.313943 2.58549
4239 1 1.47231 45.4861 5.37664 0.669289 -6.89834 -2.42335
4240 1 2.8788 43.1064 6.34878 -3.58719 0.261492 -3.56951
4241 1 4.1354 25.5875 -5.03657 1.50057 6.87265 0.310475
4242 1 5.34622 27.4346 -6.48014 -2.09655 3.20219 1.65256
4243 1 7.94279 27.4857 -5.63602 0.234208 4.16162 -1.30688
4244 1 8.96591 25.2401 -7.04787 -0.742961 -0.0364322 0.026358
4245 1 4.2455 25.1619 -10.4021 -1.32115 -0.260671 -3.58525
4246 1 5.66337 27.2838 -9.26849 1.40299 3.60721 1.20495
4247 1 8.08367 27.6624 -10.1851 2.28445 1.82069 -6.13157
4248 1 9.48451 25.5126 -10.0035 -0.937317 -2.27249 0.935682
4249 1 4.55609 25.606 2.70133 0.174864 2.1221 2.06174
4250 1 5.73858 27.6797 1.0764 2.51026 -1.83684 3.49611
4251 1 8.55955 27.2307 1.60567 -1.74766 1.22835 3.92493
4252 1 9.88359 25.0488 0.575065 1.01188 -3.44007 -1.38964
4253 1 4.10794 25.412 -2.15808 3.33866 4.78846 2.04642
4254 1 5.70687 27.5469 -1.63204 -2.42612 2.20689 1.64236
4255 1 8.27495 27.6504 -2.85346 2.61734 3.02677 -0.21584
4256 1 9.02806 25.0414 -2.08747 8.40108 0.915064 -1.47104
4257 1 5.16728 22.5468 7.22178 5.74418 -0.0473863 -6.5429
4258 1 5.7841 26.7564 7.62016 -1.76425 -0.548117 0.715595
4259 1 7.14365 27.6897 10.0047 -3.16361 0.938792 0.47022
4260 1 12.3632 28.7264 7.43755 -2.91956 -1.8519 0.970907
4261 1 6.8502 24.639 5.74117 -2.40703 0.235131 -2.13866
4262 1 5.73127 27.2069 4.87599 -1.8252 1.70191 4.59878
4263 1 8.88719 27.0185 4.51066 -3.86251 -0.000763006 1.14722
4264 1 11.6711 26.5371 5.43906 -2.7715 -2.13706 1.21238
4265 1 4.11788 29.9271 -5.69042 -2.81557 -1.57924 1.55177
4266 1 5.84356 32.1817 -6.20119 -4.3237 3.02336 6.67078
4267 1 8.38279 32.21 -5.48185 -2.72132 -1.98235 -1.59819
4268 1 9.392 29.7931 -6.27343 1.00807 0.219039 1.49504
4269 1 4.39652 29.6083 -9.87691 -1.9343 -0.725534 0.219873
4270 1 5.73389 31.9154 -9.06314 -0.709353 -2.28726 -2.54079
4271 1 8.63451 32.0835 -9.75164 10.1012 -5.00953 2.12988
4272 1 9.63447 29.5966 -8.96106 0.130965 -2.95175 -3.03487
4273 1 4.33543 29.8503 2.08018 2.37382 2.74324 -1.95778
4274 1 5.75152 31.9329 1.05795 3.46892 0.159378 -1.65813
4275 1 8.24797 31.7109 2.38704 0.456983 3.18312 -1.61127
4276 1 9.67553 29.6152 0.99829 2.44749 1.33722 1.62324
4277 1 4.41613 29.6903 -3.0434 6.90331 0.18998 -1.75573
4278 1 5.77887 31.9775 -1.80392 -1.81016 0.251651 -1.74014
4279 1 8.44939 31.6978 -2.66689 -0.300149 -3.07754 2.3266
4280 1 10.1594 29.6446 -1.78237 -3.60841 5.89125 -2.15969
4281 1 4.95396 29.3756 8.85578 2.55619 2.33589 0.770586
4282 1 6.14756 31.8482 8.91035 -0.539128 0.602719 0.454183
4283 1 8.80665 31.8973 9.92581 0.394206 -2.62176 -0.624643
4284 1 9.29237 29.2097 9.27795 0.913175 -3.10503 0.770813
4285 1 4.40749 29.7556 4.8111 0.364401 -0.689092 -2.01788
4286 1 6.01394 31.7543 5.96164 1.5122 0.155406 -1.68976
4287 1 8.72261 31.5492 5.11226 3.25859 -0.0787894 -0.218424
4288 1 9.66195 29.118 6.38169 5.28765 -3.92919 3.33506
4289 1 4.32182 34.1019 -5.36422 -5.4124 0.985724 1.97303
4290 1 5.4299 36.5431 -6.32557 -1.0919 2.24701 -2.40779
4291 1 8.15714 36.6352 -5.54499 -1.54995 0.838341 -1.33944
4292 1 9.672 34.528 -6.3497 1.64131 8.03122 -2.61432
4293 1 4.3946 34.1189 -10.0653 2.52682 -0.0242697 -5.02948
4294 1 5.83697 36.3043 -9.43309 -0.996043 -3.10393 -1.09646
4295 1 8.42445 36.4217 -10.0883 3.6627 3.4361 5.51039
4296 1 9.95923 34.4601 -9.13174 1.36212 -3.14612 2.95382
4297 1 4.86162 34.0503 2.40807 3.50383 -0.325203 -4.06137
4298 1 5.70668 36.6447 1.39789 -0.144178 -2.37848 0.741716
4299 1 8.50495 36.4586 2.15943 -0.997769 -0.617176 -4.91201
4300 1 9.5565 33.8761 1.17167 5.88108 2.98089 0.292027
4301 1 4.29895 34.0961 -2.78699 -2.93375 3.15417 -3.93519
4302 1 5.8048 36.2643 -1.56423 -1.42051 1.29308 -0.905439
4303 1 8.4027 36.2865 -2.84867 6.80101 -0.245811 4.13259
4304 1 9.6507 34.1986 -1.72176 0.623763 -0.745879 -1.33179
4305 1 5.45908 34.182 9.65644 -0.0945382 0.542167 1.53241
4306 1 6.91147 36.4765 8.92592 2.93696 5.19818 1.67576
4307 1 9.42803 36.5641 9.58061 -2.77796 -1.12648 -1.2313
4308 1 10.399 34.1219 8.70772 4.6074 1.05303 -0.209656
4309 1 4.80866 34.2354 5.1946 -3.19707 -5.25476 1.69708
4310 1 6.14008 36.4397 6.27941 2.12663 -3.22477 0.76329
4311 1 8.76369 36.2376 4.95408 4.57276 3.09568 -3.49507
4312 1 9.79637 33.8842 6.1186 4.2031 -2.46782 5.56466
4313 1 4.29427 38.5982 -5.37227 -1.55108 -2.04118 1.1766
4314 1 5.73566 40.7391 -6.13761 1.31505 -0.393125 0.150375
4315 1 8.57375 41.0263 -5.38912 -4.69895 -5.09247 2.62939
4316 1 9.47361 38.8578 -6.71614 -0.045824 4.1911 -0.544551
4317 1 4.21914 38.4816 -9.98059 -3.78267 -4.65688 6.3302
4318 1 5.51557 40.8622 -8.87496 2.28616 3.05721 -2.18434
4319 1 8.12694 41.143 -9.91776 -2.09832 0.575001 -2.88906
4320 1 9.44163 38.8007 -9.50881 -4.58568 1.69234 -2.84509
4321 1 4.85479 39.0718 2.23107 1.94504 -3.68426 -6.58332
4322 1 6.27518 41.2373 1.30421 -1.7084 -2.3146 3.62458
4323 1 8.88416 41.1453 2.13053 -0.0916773 1.41736 0.141723
4324 1 9.49817 38.7177 1.07335 0.512071 0.151314 2.90983
4325 1 4.50222 38.4383 -2.60832 3.62074 2.30273 1.57768
4326 1 5.69985 40.8856 -1.38143 2.85964 -1.36011 -2.58094
4327 1 8.35199 40.9393 -2.66103 -2.16179 -2.92117 -1.63828
4328 1 9.49153 38.539 -1.73438 0.66839 -0.742089 5.49703
4329 1 5.30152 38.5855 9.77635 -1.72692 -4.66754 -1.70583
4330 1 6.66673 40.8438 8.97713 -2.71409 -4.49257 -3.49846
4331 1 9.39036 40.4888 9.58737 2.76687 -0.0882306 2.85163
4332 1 10.9778 38.6294 8.62257 4.57161 4.76744 2.41024
4333 1 5.08595 38.5909 4.9994 -1.3132 -4.48516 -0.566923
4334 1 6.31538 40.7749 6.13696 4.67168 -1.06446 -4.35886
4335 1 8.97718 40.4753 4.90397 -1.29067 1.2914 -1.67989
4336 1 10.2518 38.2766 5.99299 5.70614 -0.306258 -0.470548
4337 1 4.2315 42.8818 -5.28287 -0.945833 -0.47314 1.33894
4338 1 5.85968 44.336 -6.82559 -5.09674 2.64323 0.879534
4339 1 8.46603 46.4993 -7.66202 -3.25312 1.16799 2.95236
4340 1 8.73987 43.9079 -6.17239 -5.19467 0.949766 -0.132476
4341 1 4.51959 43.5614 -9.26926 1.57306 -1.03859 -1.92542
4342 1 5.8875 45.3713 -11.0554 -1.66304 0.477775 2.49894
4343 1 8.74708 45.6153 -10.3176 -3.0003 1.32596 -2.47095
4344 1 9.44907 43.3238 -8.93002 7.57321 -2.49893 0.990739
4345 1 5.15693 43.6562 2.10932 4.65557 -4.94452 -0.111811
4346 1 5.57809 46.2492 1.46962 -1.39883 2.80915 -0.69199
4347 1 7.88436 45.8065 0.0760733 4.78008 0.652139 -0.855693
4348 1 9.7424 43.7316 1.11171 -0.293305 -2.95739 -1.56219
4349 1 4.41763 43.095 -2.57941 -2.07165 0.0543935 1.11961
4350 1 6.36497 45.202 -2.53984 -4.88604 10.0219 0.928402
4351 1 8.91263 44.6305 -3.58327 1.16628 -0.272723 0.014826
4352 1 9.90248 43.0196 -1.65128 1.16018 -6.14752 -0.0280402
4353 1 5.87775 43.2587 9.96013 -5.14136 0.698075 -4.31218
4354 1 7.20583 45.614 8.56495 2.6199 1.54352 1.59204
4355 1 9.79926 44.629 9.41064 -0.841598 0.632611 0.150635
4356 1 10.9423 42.4843 8.24017 0.575408 4.25336 1.36466
4357 1 5.40833 43.1637 5.17623 -3.25899 0.601008 -2.13259
4358 1 7.55549 44.7736 5.7455 -2.45905 2.4576 -5.38365
4359 1 10.3774 44.7924 5.23466 1.88957 2.46649 -2.85794
4360 1 11.1179 42.1841 5.5575 1.73162 0.326716 -3.36877
