ITEM: TIMESTEP
6400
ITEM: NUMBER OF ATOMS
4360
ITEM: BOX BOUNDS pp pp pp
-2.4313272451454452e+01 2.3504108351499106e+01
-2.4360851432358693e+01 4.6877287032358687e+01
-2.3912790268669717e+01 2.3904588668714155e+01
ITEM: ATOMS id type x y z vx vy vz
1 1 -23.4801 -21.7424 11.9792 -1.08337 -0.42353 0.582396
2 1 -6.72169 14.2822 1.75909 3.26329 -2.60272 3.26427
3 1 3.9539 -6.14058 23.1673 -3.01832 -3.38973 0.715319
4 1 5.45963 -0.070362 -7.55466 -3.50511 -0.760296 -1.96124
5 1 -16.8038 -21.6361 21.0766 1.32637 1.25711 0.868763
6 1 0.70528 18.7059 19.4173 0.51128 -0.514816 3.00213
7 1 6.3752 21.1065 7.26268 0.758211 0.574121 -1.16443
8 1 -23.839 -12.4817 -15.024 3.91621 -0.0540313 1.14853
9 1 -11.1544 6.6054 4.12394 1.9322 0.127533 -1.11786
10 1 -0.665186 -8.2562 13.7827 1.25898 8.61501 0.0275163
11 1 10.1789 -11.7057 18.0382 -4.18501 5.05054 -1.06173
12 1 21.3888 -7.75135 -21.8904 1.89888 5.20109 -1.45145
13 1 -21.2955 -13.9532 13.2646 -2.113 2.91765 3.74664
14 1 6.74645 3.03581 -9.02166 -5.23625 0.0183203 2.36572
15 1 -4.41091 -0.433978 -13.5878 1.07985 -0.140612 -1.00981
16 1 -18.5377 0.207745 6.15109 -2.80764 3.04042 4.42725
17 1 17.8021 -6.78581 16.5027 0.784236 -0.625075 -0.682408
18 1 21.2054 24.0355 3.10787 -0.302211 0.221703 4.21229
19 1 -16.165 25.7242 18.3538 -0.742336 0.206361 -2.07427
20 1 20.4224 3.95204 19.7357 1.12157 -0.335329 1.99016
21 1 -20.031 1.80222 9.89666 1.52838 -3.95717 2.86501
22 1 -13.2234 -0.855685 -15.8585 1.97223 4.81773 4.65461
23 1 -8.75629 46.3223 21.2451 6.01808 2.27593 3.87969
24 1 9.87535 19.744 -5.04024 3.81586 -3.62564 -0.135353
25 1 6.53217 25.8512 17.3196 2.16484 -1.61187 0.736877
26 1 0.545476 16.1986 9.42883 4.45862 -5.64256 0.735518
27 1 -16.447 10.223 -2.76798 -1.7497 -2.94635 -0.757114
28 1 -19.8467 9.71378 2.72175 -2.6787 -1.75297 0.705041
29 1 -9.70009 -9.54664 -9.70723 -0.257602 -0.0583302 1.75141
30 1 21.2149 -3.0805 -22.1578 0.309522 0.29303 1.28109
31 1 2.44512 -16.9976 -22.1878 -1.80595 0.321035 -3.2011
32 1 -7.8453 13.998 -18.212 -0.42138 -0.218926 -0.089559
33 1 4.73199 1.76516 -13.9102 -4.86143 3.2634 -0.811895
34 1 -18.6759 -24.154 15.2339 3.7584 5.2735 -1.8669
35 1 18.8846 4.52694 12.0899 0.915659 2.09775 -0.759941
36 1 -13.3639 17.6575 -14.0213 0.754941 -2.38684 3.28097
37 1 -10.9127 -5.73993 -1.54162 2.47138 4.90334 1.01779
38 1 18.9983 10.6008 7.62343 3.52603 -4.76988 0.215846
39 1 -1.22696 9.82335 -23.7781 -1.26322 0.27665 2.18455
40 1 -2.36119 1.75019 -17.2332 -4.41765 1.64893 -2.60119
41 1 5.91019 -5.16267 -10.2941 -5.59366 0.0733454 -1.06147
42 1 -17.788 -16.4444 1.60292 -1.01415 0.659151 -0.318127
43 1 -12.5743 -5.85696 4.22171 -1.32478 -4.22307 3.41339
44 1 -3.27386 -17.9602 -9.8212 1.76319 -2.76409 0.521584
45 1 -10.5494 15.7851 -3.69648 -4.62393 -2.32053 -2.07637
46 1 -19.7947 -20.0936 18.2712 0.255754 -6.33721 2.18276
47 1 -7.58332 6.89425 20.5634 1.7862 0.509375 -3.08434
48 1 8.47434 2.83193 -6.80361 -4.54414 -2.76668 1.61686
49 1 22.2603 11.8546 5.98576 -2.68715 0.450213 -1.5151
50 1 16.0939 -21.8775 11.7494 1.2429 1.52519 4.34938
51 1 -10.4287 -0.514505 20.8716 -2.88662 2.54181 0.835356
52 1 16.9095 2.49238 -14.833 -2.47357 3.4396 1.34032
53 1 -4.94684 21.412 8.63453 0.798496 -0.690864 0.23209
54 1 -20.4568 -8.69892 -8.76576 -5.72961 0.387462 -2.95521
55 1 -7.06125 -2.90299 -16.3511 -1.62598 0.741047 -1.12097
56 1 -13.6174 5.43144 2.75316 1.9217 -0.331512 3.80501
57 1 -14.0442 -8.59232 -4.10369 1.49359 -1.96337 -1.42166
58 1 3.25521 -22.7598 -4.12815 -2.35352 0.159668 -2.10381
59 1 -24.1912 12.6289 18.0224 -0.909128 0.41017 0.11795
60 1 1.52925 14.9486 -20.0394 3.17142 2.11513 -0.364219
61 1 -14.0993 0.845456 1.5041 -3.64366 -1.77055 -6.58072
62 1 -2.02544 -10.2533 17.0478 -1.11075 1.95008 4.65073
63 1 0.574539 12.3895 -18.6404 -4.20002 -1.68209 0.17908
64 1 -10.9322 0.653276 1.95598 -1.03532 -0.9302 -1.10654
65 1 17.3656 -2.2109 9.19306 4.38654 1.10148 0.817768
66 1 -10.0504 -16.4013 -11.5535 -1.8565 -1.77163 4.19587
67 1 -15.045 22.52 -11.3976 2.30392 1.16065 6.48158
68 1 -3.05713 15.266 -21.0229 1.30264 -1.10025 -1.99238
69 1 -6.05115 12.9957 9.00895 1.67923 2.2868 -0.540866
70 1 -17.2161 16.3945 -14.7476 -0.35548 2.56505 -0.0434662
71 1 -9.46224 6.01159 0.227896 2.87168 3.04689 -3.18934
72 1 22.2356 15.1219 18.2047 -0.363199 -4.22121 2.0504
73 1 -12.8426 -18.1181 14.4624 -1.0802 1.42085 -2.69658
74 1 -0.437827 12.066 -15.1124 2.95287 -5.99444 -0.171209
75 1 -18.4587 2.37357 -12.6562 -0.342883 8.29768 4.02816
76 1 -23.9092 -5.94539 1.34124 1.07347 2.76584 -0.24565
77 1 13.814 -22.9401 -2.18673 1.65163 4.32359 -3.87838
78 1 -17.7969 12.5938 -7.6833 -3.89399 4.13731 2.95215
79 1 23.4182 -2.57622 -14.8081 1.86451 3.43937 -4.29521
80 1 -15.1318 16.044 -10.2223 0.574837 -1.99951 -0.167539
81 1 1.65322 -12.7593 -15.7252 0.718356 -2.86007 -0.721507
82 1 3.96653 -22.2352 5.9604 3.1617 2.40741 7.83185
83 1 -20.2366 13.2418 -0.66221 -1.74995 -0.41238 0.2925
84 1 19.1109 22.8048 20.3545 -2.54756 2.76652 -3.39297
85 1 6.01869 13.3796 -4.98859 -4.49819 -2.03065 2.70401
86 1 12.7529 7.40695 14.1228 1.70809 -3.73155 1.74343
87 1 -5.1323 19.0596 -3.30663 2.63716 -3.81076 -1.93202
88 1 -11.5339 22.8204 -17.1457 -0.117357 0.372285 0.0417981
89 1 -10.1951 -3.30058 -23.9112 1.72525 -0.837548 -3.37698
90 1 9.31359 -4.98616 6.7085 0.216593 3.1274 -4.06897
91 1 16.1729 20.7694 -20.1143 2.05245 -1.46691 1.71881
92 1 17.4145 45.3981 0.344159 -2.62007 -1.83165 -2.14505
93 1 -18.197 46.5521 18.2151 1.48669 -5.36141 -3.3946
94 1 22.4339 3.36243 -10.5564 -4.79042 -2.40818 -3.43335
95 1 0.135352 -3.97619 -12.627 -1.39734 -0.577091 0.195321
96 1 -21.3568 -16.7931 20.056 2.23223 -1.221 0.538963
97 1 -6.9083 -17.3518 23.236 -3.4349 0.287338 1.90538
98 1 -2.06626 16.8933 9.79715 -1.36545 -3.57578 1.30174
99 1 16.7157 -21.6258 -5.52414 2.38322 0.730747 -1.43256
100 1 22.8169 -16.2913 22.7575 2.31576 3.12347 3.15475
101 1 1.41641 -23.1115 -12.1962 -3.22227 0.561007 4.84507
102 1 1.01652 3.5068 5.90762 1.66879 3.60758 3.92533
103 1 17.3494 22.8537 18.1642 0.273005 -2.24743 2.76496
104 1 -15.7597 44.9439 -10.7102 1.92333 2.84551 5.2386
105 1 4.58496 17.6807 -19.1082 -4.61968 3.41127 -3.85543
106 1 14.0215 3.40033 7.95997 0.373837 1.10596 -0.125007
107 1 20.1782 -4.79356 14.6301 -1.60213 0.590842 3.0293
108 1 -11.3132 3.00431 23.2071 -3.06961 1.33789 -0.417184
109 1 -14.4269 15.0115 -13.805 -0.825296 0.401943 -4.62323
110 1 10.4827 -12.6043 -7.89857 -0.612191 3.02162 0.419171
111 1 19.7882 -4.68448 -13.9008 -2.19771 6.91246 -3.2082
112 1 -18.6544 2.08463 -22.0115 -2.82748 -2.05366 2.05997
113 1 -5.86683 -5.41148 20.2033 -1.45176 2.76208 1.13093
114 1 -23.5963 -19.9603 17.4024 5.924 0.849395 -4.87629
115 1 8.32626 10.2082 4.73053 1.63375 -0.19586 -4.1046
116 1 3.11606 -13.4623 -18.4097 1.61832 3.37836 1.44955
117 1 20.3251 17.7685 -19.1701 3.71125 0.623885 -4.66161
118 1 5.64262 -17.0526 -7.63137 -2.63953 0.521928 4.21689
119 1 14.2625 9.34585 -8.60792 1.53922 1.99035 -1.77212
120 1 1.80015 -3.99779 16.7339 1.42345 2.68525 5.87617
121 1 -5.09465 -21.3288 22.4137 -2.61102 -0.832942 -0.998773
122 1 -11.3663 6.50341 21.9233 2.48158 -3.63052 -3.7437
123 1 10.1659 17.9621 5.6678 2.32096 -2.81305 6.43398
124 1 -24.1563 -21.7384 -15.9133 0.231453 -0.157798 -2.39124
125 1 14.0247 9.9852 1.03299 1.22835 1.30613 1.45988
126 1 -9.57695 2.31361 -7.76453 -1.18157 -3.25437 -1.25234
127 1 10.6601 -2.31386 13.8504 1.57844 -0.374803 -3.66678
128 1 -21.0153 -1.00453 -9.62256 -0.0814681 -4.38311 -1.83086
129 1 15.2347 -11.0772 5.28291 -1.80056 2.83354 -2.73296
130 1 -12.4167 15.8237 -19.8158 -2.18925 2.34388 3.1853
131 1 3.07505 -9.91506 -21.3735 2.30546 -0.936029 4.00963
132 1 -6.85306 -1.34067 -21.9613 4.91951 2.30073 1.49363
133 1 -14.8339 1.83475 15.9231 1.08142 4.20874 1.19047
134 1 20.2355 -8.46387 23.3797 0.323838 4.486 1.93347
135 1 -15.5968 -6.65802 -18.5861 -1.62606 -0.032453 -6.74008
136 1 -0.694422 6.19249 -4.55465 2.56927 -1.12919 0.386194
137 1 -12.4914 4.39461 -13.8386 1.88276 4.48499 -3.95957
138 1 12.4747 18.5494 7.29248 2.71888 4.97844 1.61098
139 1 -19.2759 -20.3311 -14.5439 1.73964 4.63065 -2.68498
140 1 4.08028 -6.20352 18.997 0.594253 -1.10595 -2.05665
141 1 12.9163 -18.5737 2.75717 -1.36656 5.19621 0.368241
142 1 14.5967 1.11539 23.5664 3.40359 4.07098 0.244511
143 1 -5.56797 -2.08489 -3.4431 -2.21492 -2.92056 0.835436
144 1 -23.1293 -9.59884 -15.2533 1.40154 -5.36968 -0.247405
145 1 17.1914 7.81341 19.1171 -2.33556 -1.84946 0.283873
146 1 -10.5917 -8.74832 14.2156 -4.33585 -4.65301 0.800417
147 1 10.7889 20.7771 6.18395 -0.566328 -4.20328 -0.0517224
148 1 -18.7131 13.4426 10.8936 -1.04804 1.22202 3.79565
149 1 -16.3725 45.6587 -19.8184 4.10201 -0.27211 -0.124508
150 1 20.4677 9.87619 21.0468 -0.385122 0.952369 -2.03196
151 1 19.004 2.46687 21.8931 -2.59803 0.988508 -1.20552
152 1 -6.92023 -2.85138 17.8033 -3.53256 4.43319 3.29313
153 1 10.1855 -14.8099 -3.87512 -1.61823 -1.0484 -1.34259
154 1 -8.18826 22.1099 -8.55551 -0.534638 2.11622 -1.54798
155 1 -22.9865 -21.7046 -20.0216 -2.41439 5.39796 -0.233912
156 1 15.4111 10.9095 16.3051 -1.39626 5.93642 7.39133
157 1 12.7954 -12.8135 -15.0385 2.1955 0.907849 0.501413
158 1 9.39217 6.13365 3.0752 0.692897 -2.98304 -1.70228
159 1 -21.8288 -11.298 11.7613 -2.16221 -0.918611 -1.83143
160 1 -4.8823 -14.0371 -4.03714 -3.44081 4.79742 1.381
161 1 20.6149 4.19291 -16.512 3.43825 -2.35235 0.32981
162 1 -15.3735 -10.2494 20.0923 1.10328 -6.52734 0.698149
163 1 0.935826 1.24112 18.0223 -4.81302 -2.9554 1.09199
164 1 17.3519 7.88055 13.1714 3.04887 -1.09551 0.215475
165 1 -18.8964 11.6908 17.3332 -3.21159 -6.33041 -3.51068
166 1 8.27345 22.2606 -23.3392 1.10507 -2.67463 2.66712
167 1 -11.5158 0.474239 -3.19338 1.50809 2.16377 -2.55255
168 1 19.8588 24.2807 -3.75217 1.34175 -0.762039 6.26656
169 1 4.0231 24.7391 -13.5451 4.12243 4.1786 -0.604874
170 1 -3.52118 -20.4767 -13.4878 -6.72771 1.44642 -2.38991
171 1 -16.4468 4.15357 14.7866 2.03708 4.39351 0.675259
172 1 -18.3881 21.6515 -19.9544 5.40738 2.24422 0.151448
173 1 -21.7655 1.03296 22.2332 0.301579 -5.45195 -5.31821
174 1 -20.1516 6.13896 -22.275 1.37255 2.39446 4.04994
175 1 9.18624 16.2254 7.86603 -3.30236 -2.04099 0.648624
176 1 -6.00872 23.355 -2.3067 0.303373 0.235455 -3.0382
177 1 -4.20799 -22.9427 11.5609 -2.15022 3.3816 2.0032
178 1 -16.6844 10.7479 5.7248 -0.156646 2.49397 -4.84401
179 1 -4.62658 -6.80655 -11.5334 2.1473 -1.29213 -8.06524
180 1 21.8129 20.4896 10.416 2.4827 1.8021 4.14562
181 1 -5.94229 -5.3669 -20.0874 -0.164096 1.37516 -2.91823
182 1 -21.928 -1.26825 17.0392 -7.58174 -0.858134 -3.66146
183 1 21.3721 12.1011 -4.27144 0.753042 -2.9946 1.93985
184 1 7.3552 -23.3938 23.5222 -1.08504 -1.18801 -2.47104
185 1 20.9761 23.5919 15.3016 0.329715 0.153974 -0.458754
186 1 13.272 23.7606 -10.3032 1.30422 2.16317 0.368045
187 1 -11.2565 9.58539 -6.86511 -2.24452 1.81043 -3.09635
188 1 7.63377 -22.0641 -4.8533 0.960184 1.24089 -5.18285
189 1 -4.17615 -4.94125 2.1952 0.812504 -5.64936 -0.80561
190 1 -14.5673 11.7932 -13.2249 -3.98936 4.96593 -4.48309
191 1 6.01374 -4.23411 23.2588 -2.01036 0.316849 -3.7219
192 1 9.65291 5.4795 -3.83426 -0.543749 -2.14291 -2.16157
193 1 11.5768 -1.53351 3.47245 3.09581 0.380037 3.36543
194 1 0.0443599 26.4241 -20.5432 1.15498 0.124214 -0.955326
195 1 5.90036 0.746722 -10.2502 1.44938 3.0803 -3.71667
196 1 -18.1922 23.4599 7.29139 -5.02918 2.44095 -0.909812
197 1 22.3701 -3.59665 22.741 3.57111 1.53491 3.86318
198 1 -8.39581 -22.6927 -17.4881 -1.90699 -2.75684 -0.122904
199 1 22.6145 -4.48997 -12.901 -4.16356 4.96233 0.999626
200 1 14.1191 7.00946 -17.7829 -0.965476 -2.45391 2.58359
201 1 7.74253 3.1654 23.7524 3.65748 -4.13318 3.49028
202 1 9.98888 14.439 12.0103 6.04872 -3.20568 1.45679
203 1 23.3031 19.969 8.05069 1.40583 5.24226 1.26895
204 1 -7.44639 -14.595 -8.50093 0.70796 1.87836 -0.345501
205 1 17.6457 -6.69755 9.54609 -0.728441 1.10274 6.32708
206 1 -4.17959 -13.4513 -15.914 -0.20005 6.35537 -2.09197
207 1 -7.803 9.05872 22.814 0.577538 4.22682 2.15887
208 1 2.46231 -8.33961 16.8992 5.1437 -1.61121 1.97486
209 1 -4.71695 16.7964 -17.1018 -2.02563 0.716394 0.0693503
210 1 -17.7033 12.4623 -1.67591 -0.610817 -0.106127 2.04781
211 1 15.2155 1.10358 6.49833 0.598723 -1.41715 3.27328
212 1 -16.5609 23.1253 -4.38886 1.19783 -1.4589 -1.32765
213 1 -21.8776 -20.5532 -2.89723 -2.08713 2.6135 5.39966
214 1 17.1308 -4.702 -21.862 1.95 -5.54471 -2.68028
215 1 7.25498 23.1861 16.8715 -4.39923 2.84091 -1.26688
216 1 -16.0917 -24.2166 9.85192 -5.98571 -1.72254 4.46477
217 1 3.02399 21.9164 5.68207 -3.13019 7.36255 -3.13293
218 1 13.0735 3.45229 -2.54873 -0.553202 1.21509 0.439863
219 1 -6.17095 24.5129 22.3306 1.43184 2.08541 4.28455
220 1 2.98408 21.3765 15.2082 -2.3636 0.749578 -1.44575
221 1 -15.5798 2.72905 -2.77283 0.148169 1.29378 6.53857
222 1 -10.6274 -6.74333 1.34825 2.14895 -2.61882 -0.0948191
223 1 -21.9949 -6.40719 -0.471163 3.8396 -1.24053 -1.46745
224 1 -14.5244 -4.59498 -23.5129 -3.94779 -4.47256 -0.531333
225 1 1.59006 -13.2706 -4.5045 -1.76471 -2.00423 2.22691
226 1 22.4387 18.5164 -12.4755 1.66776 -0.278318 0.00365297
227 1 16.6847 16.3956 3.13912 3.50692 -3.0163 1.47771
228 1 -10.5353 19.7827 0.793312 3.91949 -4.6224 -4.88984
229 1 10.7909 9.96575 -12.2868 0.0531673 2.5985 2.36186
230 1 -8.94118 14.9967 19.5019 -2.01165 4.50942 1.91321
231 1 -24.1307 -4.55795 -21.8181 3.06788 1.25129 0.619402
232 1 -1.39067 -14.6612 11.5598 3.81727 -4.45805 5.01899
233 1 -9.96665 15.8617 11.6071 3.48471 -2.33428 -3.58635
234 1 -6.70288 17.8035 8.96464 -1.86566 -2.49809 -2.04774
235 1 22.7366 -2.89074 -10.3289 -4.83574 -1.19956 -1.28376
236 1 15.4465 -7.94645 11.5243 -3.12709 1.72403 1.63537
237 1 -17.7532 19.6615 0.650663 0.558972 -2.81733 -3.10665
238 1 17.2653 -1.90619 -23.2238 -3.14538 -0.0668977 4.13602
239 1 -21.0182 18.7947 16.2355 -2.37791 1.05587 -2.27676
240 1 11.1161 1.73767 15.1929 -2.98678 -1.55301 -0.0509714
241 1 -23.3035 -14.575 9.27117 0.0737124 6.27455 0.976427
242 1 -9.42252 -3.98633 -13.5257 1.97979 3.3363 -1.23916
243 1 -7.00192 -9.01953 12.6184 -2.60308 3.57036 -4.03499
244 1 -20.6596 13.6127 -23.2878 0.745817 1.26287 -0.752139
245 1 -11.181 25.1401 -12.3967 -1.40896 -2.87941 -2.15075
246 1 11.6971 3.7476 21.0991 2.2525 -1.22391 -5.05009
247 1 -23.6917 -7.09509 13.063 1.85237 0.469495 2.55226
248 1 -17.0907 7.59137 -12.8442 -1.04377 1.35503 -1.35308
249 1 -1.14599 -19.6616 11.4312 3.36967 -1.1293 -1.30766
250 1 0.254927 -1.67176 6.58445 -4.17988 -3.77685 1.04162
251 1 -22.5117 -2.31802 -21.4424 1.62041 0.175291 2.25705
252 1 17.5944 17.443 -11.8005 -1.75929 2.63978 -0.94621
253 1 0.522274 -3.64378 21.9082 1.29799 -2.98518 -1.7145
254 1 4.92295 -11.4695 -9.11462 1.05362 -0.96023 4.63778
255 1 -22.8169 -23.4986 9.71179 -3.3706 -0.708157 4.29864
256 1 -12.2636 -4.37835 -12.7726 -1.14883 0.171821 4.95975
257 1 -2.39537 4.68577 -19.9999 -0.781736 2.91439 1.53943
258 1 -6.5356 -0.0184256 -5.12565 -0.851499 5.59665 1.42737
259 1 16.6703 -18.4513 -22.4732 -2.10861 1.69926 5.56099
260 1 13.2669 7.41687 -6.80024 -6.4409 -0.3034 2.91539
261 1 -1.86252 -24.0007 12.6071 2.32885 -6.0852 0.573975
262 1 16.92 20.1443 11.3421 2.5986 -1.70522 1.73197
263 1 -19.7772 8.9233 -12.374 0.858711 2.12492 -3.98703
264 1 17.9977 0.924069 16.8976 -0.37023 4.09363 -4.11821
265 1 15.4189 -18.5764 -9.3812 0.756633 -8.7917 3.25578
266 1 -23.6188 5.07868 -14.4225 0.701916 -1.31343 -5.10193
267 1 -11.3888 19.7938 -10.7763 -0.454805 -0.406664 -0.686681
268 1 -22.3308 21.9742 -11.2808 2.50134 2.52038 -1.19686
269 1 -19.5852 -8.43744 -13.3495 -1.94591 3.07091 5.20329
270 1 -21.6427 -16.6932 14.204 0.252834 1.68596 -0.975401
271 1 1.47491 23.289 -14.296 -4.66341 1.56962 -0.437954
272 1 12.6264 -18.349 10.7966 3.52191 -2.06006 -2.28295
273 1 -17.631 -9.36257 13.6012 2.20913 1.12321 4.98654
274 1 10.125 -15.1433 8.58719 2.02682 -0.455286 -2.72399
275 1 12.109 26.0363 -21.96 -2.43136 -1.25887 -0.832585
276 1 21.9435 7.21823 -6.41924 -4.65755 3.72197 2.70122
277 1 11.7092 -12.0264 -17.6932 -2.58465 0.664769 -2.73277
278 1 19.7042 11.3211 16.564 0.836392 4.14498 3.68126
279 1 -23.3602 -3.03748 0.301551 1.9544 2.603 -0.11925
280 1 0.265608 -21.3237 -14.0073 0.0768746 -2.84214 1.79956
281 1 13.0753 23.081 11.5896 -0.268678 -3.30006 3.24311
282 1 11.0054 11.4112 11.3409 4.67454 2.09479 -1.82995
283 1 -3.27715 45.3699 -22.3683 -5.96915 -2.80597 -1.89787
284 1 1.75078 12.1528 0.73291 -0.875118 -0.810639 0.985215
285 1 -14.1443 19.3411 13.3313 -0.365972 2.53488 -1.78902
286 1 -6.29792 17.141 1.34987 2.55953 -5.94506 -4.85158
287 1 3.11992 -7.2812 -8.23922 1.26908 2.75561 -4.29934
288 1 15.8157 24.0476 4.96367 -0.337602 -0.288462 -0.321635
289 1 -8.04429 -20.9758 11.7744 5.7367 0.502556 0.583537
290 1 -6.99466 -9.91472 -15.9387 1.52871 -1.54564 -0.150561
291 1 -14.4335 -18.341 11.9417 0.925569 -2.971 1.20561
292 1 14.7434 7.34686 1.22432 -4.03579 -2.35268 -0.759953
293 1 14.5413 2.57336 13.2109 1.14733 -1.21868 0.0748923
294 1 -6.87701 1.48071 0.909993 3.65523 -1.45842 -0.248303
295 1 1.09932 9.25764 9.01442 -1.32807 0.724574 1.46409
296 1 2.23619 15.3521 -2.17854 5.01258 -2.64222 -2.30154
297 1 14.3142 -4.62021 -5.71961 2.88626 0.993946 1.09597
298 1 18.6189 -18.4834 23.1292 0.338574 -5.0557 2.67278
299 1 6.39851 -24.2249 -15.2059 3.2871 -2.28433 1.99906
300 1 20.6157 -5.19301 20.9679 5.95128 -0.246145 0.682451
301 1 -6.84617 22.4452 -20.1892 -0.807401 -2.28961 -2.9088
302 1 -0.474637 10.7323 -2.14286 -2.54772 3.12854 1.10097
303 1 -17.9018 -17.5814 -9.13601 1.17918 0.677458 -2.68301
304 1 -19.4196 -16.207 12.2549 -0.28353 2.75406 -7.59284
305 1 4.41071 -20.2574 19.4643 5.30317 2.19466 -3.33067
306 1 14.3414 21.0936 -10.7953 -0.0197851 -5.91397 1.43049
307 1 13.4764 13.9275 -21.8753 1.8506 -0.00799305 1.21904
308 1 -16.2208 -20.9593 4.16826 4.21193 3.14829 4.85477
309 1 7.32602 -20.295 17.0476 -0.14078 5.46693 3.9935
310 1 1.14104 13.7711 13.7712 -1.24115 2.85017 4.22369
311 1 12.801 -10.4473 0.37011 -2.73418 0.034559 -1.20455
312 1 -5.79591 2.44308 -9.25193 1.31497 2.63961 1.56729
313 1 -14.6275 -15.7999 -8.07237 -4.09613 1.94501 5.08145
314 1 -16.8221 5.98866 -7.94645 3.6285 4.48428 -1.72458
315 1 -14.0221 -21.7635 2.46724 2.65028 -2.34596 0.904424
316 1 -23.5355 -6.46112 3.98657 2.32061 2.68013 0.540643
317 1 -10.8622 -10.1806 22.9611 1.99118 -1.50865 3.65843
318 1 18.9026 -19.373 19.2419 1.60606 1.09968 -0.954281
319 1 -13.147 2.56211 13.3543 -1.3761 1.97326 -2.18483
320 1 -2.73412 0.845116 8.83029 3.608 1.71085 -0.29931
321 1 -17.6794 -11.6422 -12.3917 3.17956 -6.32372 3.88624
322 1 -12.0012 13.7955 -0.956457 0.488694 3.18993 -6.13117
323 1 -12.7785 4.64987 5.40716 -4.25344 -0.568001 -2.81906
324 1 21.8982 0.592477 2.59921 -3.67048 2.02926 -0.992489
325 1 0.713427 -21.3493 16.3443 1.03323 0.686383 0.185511
326 1 -18.6713 6.93604 2.32482 -0.535831 -0.296436 3.42296
327 1 -7.73959 -7.67422 20.6281 3.38258 -2.32777 -2.21025
328 1 10.0021 21.1158 13.9607 1.66875 -3.98586 4.44673
329 1 0.263057 4.00805 -10.5663 -0.587339 7.30652 0.075716
330 1 -11.0007 -23.5946 22.8635 0.249542 0.807764 0.865508
331 1 13.9787 7.39535 4.28625 -1.71928 0.368341 -2.20327
332 1 9.07379 -2.92378 -8.65143 0.0652096 -4.44325 0.161168
333 1 7.86059 -11.6294 -14.3548 -1.28831 4.48944 2.73846
334 1 4.73833 -23.5636 -1.80321 -1.72821 1.16527 3.32222
335 1 -24.2571 -23.8149 4.79854 -0.0869614 -2.19641 -3.26593
336 1 18.5227 17.6953 -22.4089 2.0485 2.08623 -1.77623
337 1 -20.5357 20.2782 1.57896 -1.08401 -0.609055 0.961994
338 1 7.20321 -7.89204 15.9808 -0.787847 2.59936 -4.51392
339 1 -2.73846 -20.7428 -22.6475 -0.395795 -6.43392 3.81775
340 1 -15.4625 2.56609 -18.1536 2.3507 0.544083 7.42275
341 1 -11.0097 2.02385 -13.144 2.95326 2.11287 -2.19445
342 1 0.0403626 -18.3729 -14.7636 -2.26282 4.64227 -2.74935
343 1 -2.12242 -14.175 -7.5419 -1.15803 -0.868476 1.55501
344 1 8.33945 -16.708 -13.477 2.79997 -3.47445 0.809571
345 1 -10.6253 -2.79398 19.07 -2.94994 -2.88116 3.17127
346 1 16.3543 3.30107 4.86141 -2.41314 -4.83333 2.27809
347 1 20.8091 -8.06414 6.87985 -1.23488 0.949991 -1.80206
348 1 -11.9561 -1.96075 11.0683 5.04699 -1.00934 -1.65545
349 1 -5.05262 12.67 -23.7501 -3.97653 3.63381 1.59487
350 1 -23.9782 21.6078 20.668 1.47751 -9.79032 6.25574
351 1 -15.6549 3.93531 8.97557 -3.44593 -0.62147 0.124331
352 1 13.3207 4.55852 0.981314 -2.75879 1.33631 6.58627
353 1 19.0283 -24.0676 -16.0516 3.70116 -1.83463 -0.450161
354 1 7.04691 22.7913 -10.1911 0.662217 0.609187 1.39273
355 1 -4.52897 -1.58849 8.58597 0.0827394 2.87776 3.73768
356 1 -1.46386 -18.353 -23.2063 -4.35934 1.97472 0.213351
357 1 -5.23158 -14.7867 2.6237 2.10471 -5.31839 -1.45803
358 1 17.313 -14.2324 11.1853 -3.62441 -4.88962 3.57319
359 1 -15.7702 -19.2034 -10.4633 9.79936 1.11444 -0.730544
360 1 4.42136 15.7765 -0.210089 0.248299 -2.69458 0.0345005
361 1 -22.3033 -21.8124 -5.72686 0.161151 4.10987 -1.15646
362 1 -19.6594 12.5355 6.80518 -2.48955 2.08977 3.56029
363 1 -17.8369 -19.2067 7.72277 -0.500982 -0.830901 -1.61459
364 1 -9.57573 6.93536 -6.14943 3.63966 4.51982 3.93539
365 1 0.710286 -17.4063 17.978 0.158793 -1.86597 -1.58353
366 1 -20.6485 1.39438 -11.1555 -2.23752 0.130624 -2.12617
367 1 5.47911 16.5946 -16.4647 -1.02642 -4.14645 0.341994
368 1 4.53151 -6.35274 12.655 4.71286 -0.404935 5.33163
369 1 14.311 5.25369 -13.9415 3.68372 -0.717036 0.741634
370 1 1.91728 -14.9833 23.602 4.44359 -1.47123 -1.56934
371 1 -11.5493 -24.2624 17.3956 5.1598 0.0937282 -5.93683
372 1 -8.77163 23.2695 9.24827 -1.30135 0.204068 5.87779
373 1 -15.5933 5.66611 21.9908 -2.13049 -4.54575 3.86029
374 1 -5.81739 19.8115 -12.8062 1.65315 2.29236 4.13796
375 1 -23.282 -5.18131 23.2174 -1.59502 -0.686761 -4.10712
376 1 -4.90159 -11.2615 -14.2602 0.0418409 0.137199 -2.46556
377 1 14.3181 1.26608 9.95054 -0.222695 -1.5766 -1.13327
378 1 17.263 -14.3914 -4.64777 1.06813 -0.577725 -2.17661
379 1 21.8735 24.049 0.309212 1.7092 -1.95344 -0.497566
380 1 10.0287 18.9691 -17.9058 3.58797 4.54531 0.125123
381 1 -21.573 -14.3632 16.2334 -1.10597 0.659873 5.08478
382 1 12.4407 14.6501 -3.42406 0.208853 -1.0473 -0.970649
383 1 11.5111 -24.3027 6.82571 -0.535293 -3.46449 2.44762
384 1 -9.73743 11.6632 -8.50466 0.254223 7.1397 -4.06829
385 1 -8.12954 4.10598 20.4862 1.23367 -1.90806 1.68432
386 1 18.6341 -3.10879 -17.9488 1.294 1.98887 -1.73885
387 1 4.38739 -20.073 -0.356011 -6.58389 3.13742 3.13295
388 1 -18.3895 -23.6679 23.7621 -0.974431 0.526189 -1.0502
389 1 -14.3748 7.73222 9.87793 5.4659 -0.319111 1.35965
390 1 12.1414 7.31204 7.73124 -2.63057 0.937459 -0.471883
391 1 15.8413 -0.151978 19.5983 -3.48697 -3.70307 4.28183
392 1 20.6272 -10.8601 14.4276 -2.85672 1.20752 0.181001
393 1 -12.2568 -17.304 -13.1812 3.96776 -2.38133 -0.0758668
394 1 -11.6152 12.3438 -6.25512 0.254141 4.52409 0.129505
395 1 -9.07736 46.3382 18.3686 1.32952 -4.18966 1.33237
396 1 10.5896 -20.6636 -0.580503 3.42671 1.28272 2.6986
397 1 4.86162 -21.533 16.8982 -2.62639 2.88095 -0.70692
398 1 -22.8782 -23.0885 -8.29272 7.41553 -2.87035 -2.36173
399 1 12.934 14.4364 1.31475 3.37362 -0.816845 0.0290227
400 1 -19.5974 -16.7859 -2.94716 -4.04863 -0.528867 -3.42125
401 1 -24.0749 -16.8655 -4.78477 -0.543436 1.82855 -0.88623
402 1 0.548165 7.46316 23.6549 0.611787 -1.83485 1.23217
403 1 14.2707 -1.72905 -23.6012 0.34797 5.71743 3.48898
404 1 -14.3236 -1.39522 3.57045 -2.89647 1.34052 0.140869
405 1 6.38341 -23.9442 -7.01053 -7.74252 2.28718 -3.87209
406 1 -8.70063 -21.5286 -21.8416 2.67957 1.47282 2.86446
407 1 3.13917 -10.8063 18.275 1.92803 -1.73544 -0.996204
408 1 -1.22193 -0.668253 -18.4527 4.65929 -1.89089 1.35115
409 1 0.550944 2.14318 -6.36909 0.518007 -1.38388 -2.89006
410 1 -13.0348 10.0285 1.73622 5.40013 -0.343184 1.76736
411 1 -2.37045 -1.14423 -6.84646 -2.72542 0.431482 -0.949772
412 1 -17.4335 -5.18735 9.08793 5.74969 0.616865 -1.99774
413 1 -23.6599 23.2125 -0.94089 -3.71268 -1.22236 0.833451
414 1 4.85857 18.9303 -11.9545 0.555103 1.92052 -1.4231
415 1 -19.3957 7.80565 -9.6985 0.0409318 -5.08783 0.802518
416 1 23.3914 0.463058 11.4724 -0.860043 0.350743 2.36766
417 1 -13.6663 2.10919 10.2574 5.51593 0.89825 2.77019
418 1 21.7632 21.5674 6.46289 2.14062 -1.31005 1.56258
419 1 -23.1777 2.90677 23.5376 -3.29821 0.539852 3.05839
420 1 -2.24581 -3.76447 12.3318 -1.45824 -4.44157 -2.7346
421 1 -14.2906 -24.2904 -15.4252 3.59349 -1.71659 0.168062
422 1 -1.39167 18.4964 -21.1003 -5.48114 -1.11579 -0.662479
423 1 -8.83723 2.50022 2.5899 -3.79274 3.60418 1.46946
424 1 6.259 -6.468 0.104916 5.46956 1.98324 -4.64519
425 1 -22.3014 13.7651 16.2966 -0.996745 1.04938 -0.47429
426 1 -16.9597 -1.32902 -9.89513 5.81043 0.89879 -0.451635
427 1 -13.522 46.8534 21.4919 -3.30113 7.1841 0.954545
428 1 9.41154 12.3466 -8.62283 0.930109 1.16036 2.18204
429 1 -6.56679 8.98319 -14.9346 -0.777751 2.78381 3.73007
430 1 -22.42 -1.45402 23.5611 0.877114 -6.30845 -2.76783
431 1 9.21324 -6.89533 -14.2634 2.20677 1.8676 1.61459
432 1 5.57553 -3.76645 12.5254 1.41946 -1.68957 -1.14156
433 1 -20.6434 2.55183 -16.4941 4.26708 -2.31537 -0.872198
434 1 -13.7006 -2.2939 -11.565 -0.578124 -9.71774 -3.70439
435 1 0.652382 23.5497 6.92625 0.419956 2.34744 3.01153
436 1 -15.8081 -10.0688 -8.09505 -0.368125 2.27086 -1.47847
437 1 19.2262 18.5364 -6.67473 -2.45188 1.2919 -4.88785
438 1 -17.2105 5.7431 -4.01377 -7.02101 6.7731 3.89673
439 1 -4.03302 21.2109 -5.96471 3.16212 2.44159 1.60521
440 1 -9.30986 12.6631 -15.0245 -0.305411 5.08608 2.95527
441 1 17.2915 0.865876 -6.86153 1.06052 0.817462 -2.92187
442 1 5.35738 3.34814 13.97 0.127825 -4.00226 -1.98392
443 1 19.4554 24.4673 13.2952 1.45435 -4.19689 -0.327151
444 1 -22.5394 7.35769 -18.6568 0.661885 -1.74283 -0.180398
445 1 15.5305 -9.75526 -12.0389 -1.2917 6.72358 2.63798
446 1 22.0976 -14.8814 -5.8027 -0.203981 -1.52541 -0.762291
447 1 5.71035 22.1618 14.7754 1.77281 2.06768 0.951305
448 1 -13.336 -0.190868 14.4431 -9.44529 0.646743 1.54073
449 1 13.654 -7.35203 0.19192 -6.05057 -3.11055 -2.28687
450 1 15.9178 -22.6963 7.1104 0.404165 0.705091 -0.792962
451 1 -23.3741 -12.6445 -19.2326 3.58836 1.63212 -4.10745
452 1 -24.2259 14.784 1.87118 -0.565515 -0.76143 2.64394
453 1 -16.4608 14.7501 9.80324 3.58642 0.126605 -4.12725
454 1 -5.43073 -0.49174 -16.3976 0.637716 1.87192 1.64574
455 1 14.9613 -11.1373 18.4278 -0.359267 -0.199178 1.97614
456 1 -4.10979 18.2323 23.6214 -1.51139 0.229174 -5.09971
457 1 5.65813 21.5476 18.6838 -1.26875 0.650428 -2.91513
458 1 20.4884 20.917 15.6257 4.7599 2.04661 -0.230475
459 1 -0.0665347 9.29175 -14.3604 -5.15165 1.86028 2.70648
460 1 3.10549 9.1638 -23.2964 3.89488 2.40301 -4.76267
461 1 2.38436 -0.282441 -18.2819 -0.791555 2.54707 -2.07613
462 1 -5.01519 -18.7152 21.3466 -0.590547 -2.89094 -0.154835
463 1 7.18795 12.4179 13.1749 -5.93496 2.52137 0.181141
464 1 -14.0915 -22.7553 5.31607 -3.2259 2.44408 -4.1199
465 1 -1.09884 -13.4608 5.88123 -0.272941 0.177933 0.0103068
466 1 14.2088 16.2964 -20.2779 2.94386 4.17866 -2.7568
467 1 -6.96481 -12.0608 12.5206 -3.26533 -5.648 2.31647
468 1 20.9335 16.4475 -8.04921 -5.61209 -1.58614 0.845251
469 1 -24.0468 -14.4387 12.1387 -1.42227 1.89894 0.115036
470 1 -21.3692 6.49845 -13.1198 -0.708309 -1.43491 3.34816
471 1 19.2527 -9.62128 -9.43164 1.63356 0.370287 1.09498
472 1 -15.4236 -4.81094 17.476 -3.98414 4.13745 -4.19576
473 1 4.02696 12.4467 11.5101 6.72658 -4.58108 -4.21185
474 1 2.43485 -5.31276 -10.1624 1.65031 4.69586 -1.90441
475 1 20.9627 13.8173 -19.9939 3.63039 -3.4161 0.926636
476 1 -12.5718 -3.72276 -2.52946 0.682476 4.25282 -0.294637
477 1 -11.6446 -8.74631 -13.9487 4.31739 -3.2275 4.12114
478 1 3.14791 -0.374709 -23.1834 4.27464 -1.22781 0.00788814
479 1 14.3941 -20.0014 16.1635 -5.21037 2.97147 -0.518353
480 1 2.06959 -10.1962 11.5325 -3.41154 -0.994298 -0.93259
481 1 -2.53589 7.49246 -20.0024 -2.87776 -2.41663 3.81877
482 1 -23.5328 -2.24853 21.1114 1.70283 2.7483 2.11772
483 1 6.23813 -16.7493 -1.11899 1.61706 -2.00055 4.5079
484 1 22.9848 -13.1014 -11.9939 -1.84646 0.0810412 2.03794
485 1 22.4563 -21.7339 -18.6371 0.473693 -2.81063 0.986169
486 1 15.267 3.57165 -4.75311 -1.61659 3.68572 -4.76658
487 1 2.84407 26.715 18.1557 1.01432 -2.20609 -0.652716
488 1 -2.84558 -14.5709 20.912 0.397952 -0.512394 -3.62706
489 1 -12.2772 22.4254 -11.8287 -1.96439 -2.68302 -0.336033
490 1 16.3903 -17.1665 -13.6679 -0.508542 -1.331 -0.830221
491 1 -20.2391 -12.4551 9.21374 1.14785 0.520715 1.45655
492 1 -17.2773 -17.2381 -12.0183 1.19913 -1.61759 1.11979
493 1 14.2852 1.51921 -14.9028 -1.88652 4.11801 0.700197
494 1 7.21579 1.46507 3.96393 3.00476 -1.28826 -4.99506
495 1 -3.89054 -8.13163 -4.01433 3.32293 -0.0389534 0.938168
496 1 3.57306 9.36687 -11.9001 -1.16391 -1.88744 4.27422
497 1 11.1519 16.3152 22.1334 3.25232 -2.20225 6.26989
498 1 20.7845 -1.3077 23.1949 4.24544 1.75866 -6.42199
499 1 21.7597 1.01379 -8.71216 -1.92023 1.41081 -8.88536
500 1 -5.2053 -17.284 9.46596 2.17206 -0.917341 -4.49894
501 1 -13.5487 -11.6531 -6.93666 2.85533 -0.696842 -0.0274802
502 1 12.9303 -15.708 17.7748 1.22398 0.345703 -1.66823
503 1 8.72586 2.15405 -13.9507 4.28526 -5.72063 -1.35667
504 1 -0.365074 7.65001 4.89276 -2.14097 -0.603388 0.710897
505 1 -4.06959 9.24991 -23.3865 1.72176 3.8609 1.61908
506 1 0.813057 -24.0965 -16.5239 3.58117 -2.22648 -1.77996
507 1 13.2529 21.8804 -15.3423 0.275905 -0.652696 0.195513
508 1 -2.19561 22.1908 -11.7144 0.315531 5.09369 0.0852246
509 1 21.9732 12.5977 -17.3782 1.57612 0.877866 0.10433
510 1 10.2732 -16.5392 17.3697 -6.00741 8.44507 -1.13141
511 1 8.348 -15.1656 3.03755 -2.85623 0.695779 -2.05568
512 1 2.90173 -1.6522 19.2984 1.02095 -2.82154 4.22303
513 1 -16.9858 -15.3417 21.676 -2.14588 -2.50776 0.965814
514 1 -15.1337 22.1302 19.2392 1.04482 -0.401313 -0.689676
515 1 -1.27923 6.26059 17.0575 1.26805 2.843 -2.26928
516 1 9.83267 -23.5627 -3.61482 -1.79443 2.08367 -1.65472
517 1 -17.021 -1.84223 -21.9016 0.901933 0.518158 5.10891
518 1 22.6584 -24.1977 2.17541 -9.45018 3.88145 -0.00895151
519 1 -19.3995 -12.3233 -9.31853 -2.45955 -2.18325 -3.63955
520 1 -4.58971 46.7653 -13.922 -4.64898 -4.18809 -7.20433
521 1 -10.3115 23.7711 -7.89645 1.59353 1.26951 0.800178
522 1 3.36162 -15.1773 7.32765 -4.19462 5.05752 0.936827
523 1 -8.72852 -16.3494 -5.88052 -0.806819 -7.23843 2.60474
524 1 -0.714682 -3.55788 17.7929 0.957931 0.128916 7.94397
525 1 -7.82806 1.75472 -3.09514 -1.0216 5.42204 -4.55825
526 1 -19.5636 16.5196 -3.91073 -4.84738 1.44437 -3.77568
527 1 -3.43167 15.1587 -7.9603 2.84328 -0.109017 9.39309
528 1 -18.9882 15.4215 -11.3546 -4.92183 0.517013 -1.49626
529 1 -8.03673 -13.3376 6.90081 -0.863972 -2.56461 -0.448711
530 1 -10.3697 1.41548 12.4804 2.17987 2.03249 -2.31081
531 1 22.1904 -9.15991 12.5392 -5.88758 -0.708948 0.71447
532 1 -10.6152 -1.9931 0.969585 -1.54905 -2.98798 -1.28331
533 1 -8.60449 -19.5766 15.7982 0.641665 -3.00254 0.611179
534 1 18.8547 9.77948 -11.2967 2.41547 7.17564 2.06637
535 1 6.52354 8.0778 7.91003 2.54695 0.677141 -8.18797
536 1 -2.25361 -8.1792 3.68681 -3.12487 2.58132 -5.23989
537 1 10.161 -7.38315 3.1486 -1.26904 2.02436 -3.02361
538 1 -21.7578 -3.46648 13.276 -1.50545 4.04604 6.6414
539 1 18.8188 9.36649 -8.3343 0.33803 -2.54535 -0.721376
540 1 -13.4361 -9.38147 1.68503 -1.17694 -1.53813 1.16248
541 1 -12.6316 2.77714 17.9942 2.67184 -2.30835 0.195453
542 1 -23.3764 6.19639 -7.06731 -2.28117 0.799331 0.253694
543 1 21.1296 -16.9861 -15.2796 1.24088 0.742152 0.33616
544 1 -2.67323 -21.888 -19.9671 -3.37435 -3.16571 9.70007
545 1 21.6563 -19.6658 13.4741 -2.67402 -0.266393 -4.8308
546 1 -5.30854 -16.7591 -15.0344 1.14241 -5.0626 -1.09625
547 1 16.0671 -16.3458 -20.5824 1.78938 2.04393 2.39223
548 1 9.25917 2.19172 17.29 -2.46234 -1.43078 -4.3202
549 1 -20.3965 -5.10391 8.15792 8.02554 0.10773 3.07908
550 1 2.76211 -22.5056 -15.0248 1.78798 0.155753 0.873577
551 1 8.01017 6.68664 -18.6053 -5.15326 1.38151 1.44478
552 1 0.56357 -15.3456 -2.62633 -0.000811618 -3.44802 -2.68099
553 1 -11.9404 7.44182 1.19144 -0.841907 3.04324 -2.63417
554 1 4.83225 21.5229 -17.3745 1.7722 -0.722191 0.63454
555 1 -13.0185 -15.06 -0.366431 -2.78831 1.60151 -4.77887
556 1 -11.1278 18.7387 -1.64812 4.55508 0.762964 1.63428
557 1 11.2401 -22.6696 -10.8259 1.43497 -2.61762 1.5221
558 1 -5.69243 -10.5023 14.768 5.73088 1.96724 -2.38409
559 1 -9.05392 -19.266 7.77023 6.53202 1.21485 3.52681
560 1 22.5697 -21.9723 -4.99996 -1.13677 1.73663 3.33254
561 1 8.28852 46.4565 19.2293 2.80426 -1.3386 -1.70422
562 1 5.91498 8.39914 -23.4394 3.00003 2.62803 0.597385
563 1 4.62953 -19.4611 6.05801 -4.24842 -3.72313 -4.77133
564 1 -11.7632 -16.9323 11.6034 -2.28597 0.544192 6.12735
565 1 13.234 -18.4356 21.4728 1.07532 0.483819 0.630321
566 1 18.9172 14.9758 12.4386 1.09125 -1.4377 -1.44662
567 1 -20.8339 26.0321 -4.46608 -2.00118 -2.4497 1.64167
568 1 4.15752 -8.55802 7.78548 1.96787 1.50686 -0.396782
569 1 -4.34845 23.9241 -14.2722 -0.662801 -0.622728 4.85761
570 1 21.6414 12.5135 14.733 -1.62187 -0.0810269 -1.25048
571 1 -2.83368 -12.4385 18.5675 -4.21949 -3.91066 0.31894
572 1 9.9273 46.7257 3.12969 -1.79758 0.010242 -3.56861
573 1 18.3706 -6.76217 5.90647 -1.34844 6.59383 3.22241
574 1 14.0384 -21.2185 -6.45182 0.0211106 -0.600848 -3.50085
575 1 -14.42 4.73246 -4.29385 1.41818 0.0734809 2.98795
576 1 19.9712 -1.19619 17.4967 -2.03842 0.79063 5.20368
577 1 -7.89408 19.0373 -0.365834 -1.67911 1.63181 1.34455
578 1 23.1832 20.6462 -19.94 -2.36726 -3.53955 2.12982
579 1 1.86038 -21.1441 -10.1236 0.386183 2.56734 -4.20701
580 1 -5.12632 1.18336 -18.7646 -1.115 -0.650916 2.70113
581 1 -15.9578 -9.26448 16.3052 3.23896 3.62664 -6.74545
582 1 -2.26981 -12.6133 -17.9219 1.08125 4.02401 0.569459
583 1 -22.4141 24.4547 12.2993 2.00213 -2.07048 4.03865
584 1 15.4102 1.23008 -10.8636 2.84449 -0.00586034 1.42798
585 1 -6.96645 12.1888 15.9521 -2.72796 -1.51177 2.74173
586 1 15.8639 23.8502 -20.8275 -6.35554 2.0372 -1.82291
587 1 -20.9956 -23.8794 -12.393 -0.107627 -1.87317 -2.29302
588 1 -21.0295 23.457 7.05739 3.11783 -0.325864 0.713681
589 1 -0.434981 3.42419 -1.15893 -1.81407 -1.93769 2.20123
590 1 -6.2354 18.3978 19.9864 -4.16401 -2.91997 2.12746
591 1 19.8805 -21.0409 11.2176 -7.87492 1.28069 -1.74599
592 1 -16.0865 -13.7097 9.95363 -2.7337 -0.697104 1.37758
593 1 -13.3813 -20.0839 18.8142 -6.40139 -1.20731 5.41457
594 1 -18.2005 0.166532 3.12321 0.862043 -2.41733 -3.10807
595 1 10.0672 -16.8315 -23.0088 -2.70182 1.85216 -7.00745
596 1 -10.585 -19.511 5.45234 0.0988931 4.89364 -4.55052
597 1 -23.3583 46.1114 -13.3538 -3.21538 -2.76425 -0.210493
598 1 14.5892 -15.3546 6.05263 -3.25124 0.507086 3.7411
599 1 12.0841 -13.8222 12.4458 4.11719 5.04814 -0.132943
600 1 -23.3487 22.8549 16.9347 -0.0755779 -2.10192 5.21537
601 1 0.0904365 -1.55381 19.8838 2.40097 -1.966 0.807153
602 1 -10.1974 7.04924 19.0942 3.65871 -1.63902 -9.58335
603 1 -5.01525 6.04487 -3.687 -0.914773 1.48814 1.8103
604 1 -0.0791352 26.0244 -23.3105 -0.674865 0.695791 -3.37649
605 1 -18.127 -1.503 17.0225 0.436564 6.19262 -0.766427
606 1 2.44497 -1.71152 -20.9932 -4.45213 -2.05002 0.397729
607 1 -0.259918 -1.4322 15.2229 6.14007 1.62565 -3.41747
608 1 3.22793 9.62151 -8.82878 -3.8775 1.96876 3.59016
609 1 11.6619 -20.9153 22.2203 0.11021 3.31694 -2.22943
610 1 13.9951 -4.98207 16.274 -2.96482 2.5934 -0.802557
611 1 -2.42652 -3.98799 -4.12371 2.37133 3.72064 -1.98223
612 1 -5.2026 12.6263 -17.6773 0.496323 -2.16898 0.196409
613 1 12.4075 7.84748 -22.5058 -1.34728 -0.82047 -2.3229
614 1 -16.5533 -9.74798 -5.07713 -2.36716 1.47698 -0.369091
615 1 10.0945 -4.5297 21.358 -2.60761 -4.96615 -8.16688
616 1 14.9743 -3.70356 19.6447 0.452014 3.93214 4.26486
617 1 -14.2806 21.7827 -16.1353 -0.493363 -0.804855 -1.0935
618 1 14.5143 6.42443 9.02234 4.75384 -1.61093 -3.06247
619 1 16.5311 1.01683 11.8206 -5.01534 -0.647017 5.30954
620 1 20.3868 -14.2695 -7.83516 2.49124 -2.62249 -2.95344
621 1 -8.39953 16.3375 -13.3203 1.31534 0.302638 -5.0839
622 1 -21.6156 -9.93981 2.92556 -1.3379 1.61837 6.55364
623 1 21.4303 -15.2802 5.318 3.60038 0.755908 -4.12075
624 1 -6.53141 2.89636 -21.0667 -0.97933 0.24054 -4.94629
625 1 -1.09355 -8.1673 -3.03338 1.65921 1.73084 -4.59824
626 1 -4.10256 4.02519 -17.8896 -1.81219 -0.0840155 3.25119
627 1 20.6147 12.8135 10.8077 5.15198 3.19256 4.35394
628 1 -21.4162 -16.7197 -0.809783 4.25654 -1.23927 6.10158
629 1 -7.25321 12.3647 -4.61762 1.91454 -0.636323 2.94649
630 1 -24.1652 23.8099 9.87921 -1.376 -2.33361 -1.08712
631 1 -5.58703 -16.639 18.3127 -1.42661 5.14754 2.83832
632 1 -14.118 -19.0981 1.79696 1.55998 2.27081 -3.67984
633 1 9.77026 6.54832 22.4725 0.129857 -1.03728 -1.56113
634 1 -7.96677 -0.114791 17.6079 4.04518 1.19956 1.15034
635 1 9.26421 15.4805 -5.37179 -0.303316 2.59303 -3.82796
636 1 -23.1335 2.2277 -14.8434 5.18526 0.0431209 -1.75313
637 1 -7.61618 -24.1406 -21.449 9.87366 1.91422 -2.35555
638 1 13.4402 20.7521 -6.90338 0.539588 -3.51637 -1.62798
639 1 -10.1243 -18.9177 -21.4944 4.41447 -0.995117 2.37234
640 1 2.04819 0.610948 5.69465 -2.28574 2.96349 0.62804
641 1 -15.4892 19.802 5.88817 0.16716 -3.2923 -1.15262
642 1 -7.13044 -2.12009 5.6184 -4.97667 -5.68062 -1.19335
643 1 8.78326 -19.1898 6.89837 1.15754 4.24517 -2.1676
644 1 -7.71517 11.7397 -1.76921 3.08127 -0.931166 -1.99863
645 1 -11.2304 -11.657 -17.4043 -0.404566 -0.75942 2.42412
646 1 13.4146 24.0517 14.2961 1.29841 2.6198 -0.0275459
647 1 8.42841 0.915492 -3.66272 1.91679 5.44339 0.758364
648 1 21.7889 -14.7387 20.84 4.06962 0.0129846 0.190283
649 1 11.0838 -19.1308 18.3363 -1.4012 4.22452 4.2999
650 1 -11.0458 4.01949 20.4955 -1.85782 -2.08938 -2.88209
651 1 -21.5219 5.16388 -10.4466 1.46362 0.827111 0.672939
652 1 -8.53329 -4.85924 -19.0513 -3.75074 2.57046 4.83529
653 1 -22.0035 -20.0996 -15.5222 4.74809 0.772394 2.00218
654 1 -12.0056 -0.927062 -20.2487 -2.97665 3.88087 -1.21882
655 1 -2.26125 -10.2467 -10.866 2.9264 0.467681 -2.88738
656 1 0.499867 22.4981 -9.44181 -2.48008 -2.58509 0.372336
657 1 -1.82942 -3.66419 -10.5936 -2.54882 -1.28669 -2.2193
658 1 17.824 10.6901 11.417 6.53614 -1.41785 -5.84927
659 1 9.91791 1.45321 22.2015 -5.35114 -1.78302 -4.85721
660 1 7.50415 2.63981 6.51062 3.89797 -3.147 2.62203
661 1 -18.4052 -6.90983 -17.6926 4.5475 -3.27051 -5.04096
662 1 3.94939 -5.94411 9.07015 1.99019 2.53729 -4.66337
663 1 -11.3239 -18.8505 -10.7556 -0.912784 -5.6624 -5.6133
664 1 -16.7688 -20.1753 11.2776 -0.618364 3.60157 -0.549272
665 1 -2.66533 -5.77661 16.5912 -0.520504 -4.83603 -2.81654
666 1 -8.27959 -5.27146 -11.2229 -0.0657997 3.7808 -2.30392
667 1 -20.8623 -20.979 23.1448 -4.16834 1.94393 0.29711
668 1 -10.9136 14.2753 17.7957 -0.419455 -0.381675 3.78939
669 1 10.6186 -15.1645 14.4985 -1.42531 0.736596 -5.29034
670 1 0.851994 -11.1516 -2.51303 -1.29473 -2.60576 -4.82698
671 1 20.8776 15.0581 2.95759 -2.7116 -2.3745 4.06424
672 1 23.2693 8.18244 -11.2076 -2.38217 3.31386 1.32864
673 1 -2.13054 22.584 -23.2917 0.447512 2.30936 1.70054
674 1 -9.38667 1.82703 -21.284 2.94062 -0.572388 -1.60791
675 1 -21.7671 -12.2557 -7.31585 3.22451 4.05331 6.43413
676 1 5.55564 1.40059 16.9345 -2.85514 -1.94733 0.576833
677 1 -22.4214 -11.1075 -11.4926 1.41655 -1.58934 -1.84122
678 1 -19.4143 -5.9418 0.441913 4.19716 1.20087 1.3893
679 1 -20.1595 3.03245 -8.68046 4.24466 3.83075 6.8986
680 1 7.86636 20.8707 -8.15969 2.68753 4.53112 -3.49821
681 1 -3.06243 0.786469 -8.84419 -3.00711 -3.16629 -0.710158
682 1 -3.74563 20.5619 -8.68499 -0.522759 -0.918881 -2.73819
683 1 1.82704 10.521 -16.4713 -1.92413 1.07319 -1.84671
684 1 10.6154 -19.9136 -12.086 -0.819627 0.416595 0.846979
685 1 22.2236 -0.566464 6.57046 0.296222 -2.46116 -3.56127
686 1 -12.7137 0.12704 19.0373 0.931653 1.27053 -0.262594
687 1 -16.4695 5.98231 10.7631 -0.395215 -5.24088 0.148468
688 1 -10.9411 -13.3261 -13.7639 3.28971 -3.41577 -3.05535
689 1 -0.0890526 -0.954928 -3.94711 -7.13149 -2.23443 0.229915
690 1 -3.23241 18.6755 -5.09544 -7.31975 -1.10134 0.215526
691 1 0.0932152 7.66683 15.0905 -4.47278 1.72706 -0.266635
692 1 -9.44926 -3.48792 4.69705 -6.53552 1.11697 0.597375
693 1 -9.6808 23.4181 2.63342 3.55494 -0.34495 2.84936
694 1 10.2832 -18.9518 1.7362 0.990013 -0.174895 4.89579
695 1 6.55291 -10.0821 -7.29397 0.259154 0.89376 2.8236
696 1 -8.27408 -21.7322 8.98336 -0.519702 0.0975534 -4.40017
697 1 -19.6124 16.4331 -18.7131 3.83528 0.125903 -1.71613
698 1 22.9835 -12.816 -4.33108 3.39471 -2.38595 -1.03679
699 1 -15.3488 -11.9377 16.0157 2.9282 -0.608334 0.896263
700 1 4.30108 4.88572 -21.2669 -3.64621 -0.769107 -2.46093
701 1 14.8854 -1.02367 8.3637 1.68912 -1.98558 -0.323385
702 1 -15.358 -3.01324 12.5735 -1.87123 5.35419 -0.994604
703 1 7.81614 23.9964 -20.9736 -0.27892 1.23397 -2.23309
704 1 -10.9388 -10.0049 9.37845 -0.928039 0.752532 -0.640353
705 1 5.58379 20.3398 -14.6649 -0.945968 0.499427 -0.85942
706 1 5.16515 2.2735 19.8415 -1.45739 -4.65928 -3.29621
707 1 -18.2394 -0.790245 21.0569 1.94511 -5.24269 -1.04077
708 1 8.9535 -5.27933 -16.6141 -1.92711 -0.879905 -0.73944
709 1 -10.3959 -1.9921 -6.4273 -2.00589 -2.12128 4.5909
710 1 -3.17214 -9.98445 13.0903 -5.05382 -1.03571 -1.41981
711 1 -15.2779 -6.19933 -13.9933 1.75876 0.767123 -1.07688
712 1 4.86049 -13.0197 15.9769 0.070757 3.34576 1.02966
713 1 1.76712 4.12085 3.00245 -1.84929 -0.381181 -1.66508
714 1 16.9434 -8.0129 -15.2949 -4.492 -0.135888 0.837556
715 1 1.76238 15.7799 11.7637 -0.372539 -0.54892 -2.37306
716 1 1.65609 -22.6056 9.80535 -5.37633 -1.25409 -0.460679
717 1 -13.0726 -4.84889 -15.4524 1.34038 5.05625 0.635816
718 1 -11.2329 -7.48766 6.22349 -0.378338 -2.26335 0.22537
719 1 12.9677 -9.4945 11.2364 0.333485 2.64937 -0.164007
720 1 3.06395 -6.28265 -20.5899 3.07032 -4.3315 -2.11479
721 1 -9.57858 -10.7206 -14.8693 1.18974 0.890307 -4.1613
722 1 8.61007 -23.5567 -13.476 -4.24552 1.79114 4.22401
723 1 -20.9235 15.2729 -6.27644 -2.72101 3.14586 4.33753
724 1 -7.90722 21.3088 -11.5555 -6.11545 0.411204 -0.198376
725 1 4.27147 18.5439 -22.7767 -3.56152 -0.428785 1.23017
726 1 -4.43037 -7.28851 22.0991 0.68219 1.59426 0.186902
727 1 7.18364 -2.68029 -12.4602 2.2404 1.13792 -2.15428
728 1 -8.66472 15.3731 -7.86152 5.22139 -1.5019 -3.28133
729 1 -15.3196 13.0485 14.95 -1.69969 -1.76537 1.16485
730 1 17.7475 -21.0848 -19.4604 -0.847685 0.19346 1.48346
731 1 -12.9658 12.5552 -23.104 2.27927 2.75881 0.105543
732 1 13.5016 -22.5449 -8.98766 -4.71439 0.0536304 1.16753
733 1 -15.0358 -16.5014 5.58607 1.13273 -3.17138 3.79657
734 1 -19.7086 21.2955 15.4008 0.70816 2.17664 3.28262
735 1 16.2722 9.99504 6.89612 0.0707531 2.4843 -4.35936
736 1 4.40972 23.0905 -6.41198 -1.3295 1.77634 1.90094
737 1 21.6369 -18.0753 6.4051 1.02281 -1.63457 4.41813
738 1 -12.3594 7.57433 15.3326 0.423251 -5.07852 -0.976288
739 1 -16.4411 -20.0306 0.0348611 -1.90212 -3.33043 -5.49621
740 1 16.7101 12.5433 19.9463 -2.01918 -0.71495 0.123744
741 1 -14.3634 -20.2132 -14.5153 2.62212 -0.182806 0.798226
742 1 -4.76516 -23.5663 19.4964 -0.173618 0.262108 1.97738
743 1 23.335 20.3453 1.88115 1.10255 -0.831244 -0.434988
744 1 9.09802 -12.9981 -12.1205 -2.64861 2.44023 -1.42409
745 1 -22.9668 2.72541 19.2293 3.24425 1.65355 -0.0715934
746 1 -17.0897 -5.88122 -22.8945 -1.29601 -4.75713 4.13431
747 1 11.2255 -11.2282 2.34914 -4.8669 2.2855 2.66737
748 1 -9.60068 -21.5008 21.67 -1.37445 -1.83931 0.969322
749 1 0.11082 14.4114 7.08474 3.48149 5.18285 4.74201
750 1 14.9801 -5.76654 -12.2557 0.961391 -2.81631 -0.768427
751 1 -18.0849 9.7624 -16.4268 3.91369 1.84201 -1.28826
752 1 -23.8814 -20.8873 4.17465 4.67628 7.21483 2.52099
753 1 -13.8019 -18.3631 23.1281 1.10938 -2.09203 -0.395147
754 1 -13.5431 26.1808 14.7578 -1.13838 2.83254 2.29452
755 1 10.6867 10.0896 -22.6716 -1.60419 3.81399 -0.0912151
756 1 -6.59165 -2.16613 -0.547348 3.33117 1.14989 0.90687
757 1 -18.0932 14.2564 -3.75075 1.2251 -2.0359 3.5939
758 1 -14.0474 -14.963 20.815 5.06017 -1.8576 1.45326
759 1 1.14169 15.238 -10.6946 3.01451 -3.04033 1.44311
760 1 1.73675 8.68404 12.0225 -2.25302 -2.87175 -1.09657
761 1 -10.4008 -11.8759 -7.75596 -2.20135 1.002 2.4006
762 1 3.5609 19.5482 22.2406 -1.49531 -2.35216 0.799048
763 1 16.3247 5.13721 7.4107 -1.14565 2.06949 -1.79062
764 1 20.842 1.81053 7.40118 -0.18777 -3.46769 3.08646
765 1 20.7216 8.6199 8.40041 0.806562 -3.58384 3.54144
766 1 -12.2647 17.8236 -16.6388 -1.88348 1.52669 6.64435
767 1 -2.22858 -13.471 -1.13604 -1.93135 -0.222606 -2.07777
768 1 -8.55665 9.61408 9.81428 1.40497 -0.248589 1.44825
769 1 13.6718 25.9043 18.1785 1.71416 -6.87452 0.37927
770 1 -4.76149 22.1934 23.1931 -3.95515 -0.658808 1.24526
771 1 11.0763 -17.8618 13.3317 -1.01933 6.13737 2.32679
772 1 7.33216 7.31474 5.19599 -2.33517 2.35181 -0.904857
773 1 12.4715 -21.3728 11.5932 -0.153901 -0.149053 5.92644
774 1 15.5579 18.8882 13.7222 -0.707058 -4.62654 2.15289
775 1 22.5815 -17.3417 -12.1208 -5.96166 3.71989 2.56636
776 1 8.83231 0.350996 -20.3656 4.3271 -1.76877 2.30338
777 1 21.9833 -9.80413 -8.59995 0.365141 -0.411303 -6.12343
778 1 2.9106 -18.408 -17.1313 3.62988 -3.36053 -2.65641
779 1 8.37869 0.0281705 -7.77331 6.94665 -0.0986021 3.4656
780 1 -6.79738 -9.49684 -18.7936 -1.82611 -1.06119 0.111236
781 1 -19.8859 3.91627 5.97667 1.24023 0.676355 6.34874
782 1 19.5945 -9.81323 -14.9014 1.33783 1.79987 -2.07464
783 1 2.17593 -16.3164 21.2538 -4.04692 3.71822 -0.591904
784 1 12.3298 17.3639 -2.18709 2.03136 -1.61151 4.38048
785 1 -3.83579 22.5686 20.6184 -2.94429 3.31772 -1.91499
786 1 -21.5423 23.1247 21.8145 1.23613 -1.56105 -0.914614
787 1 9.70409 12.1323 -13.7817 4.24836 1.53799 -4.03424
788 1 -21.0694 8.97749 5.14852 -0.428657 -1.68898 -3.59094
789 1 -14.7597 19.526 0.525269 1.19328 3.78015 3.10927
790 1 2.24674 -0.974276 16.4827 3.87569 -2.661 -0.47671
791 1 -3.8498 24.0197 15.3831 -4.03142 -0.680256 2.14078
792 1 -22.7098 13.7505 -8.42442 -4.11508 3.04955 -3.416
793 1 -24.1222 -9.84727 1.53257 2.3419 2.93037 -0.527107
794 1 6.95961 16.9837 -22.8425 -1.3826 -2.19818 -1.45291
795 1 21.4967 -8.05647 20.5216 1.93953 2.00499 -0.0776341
796 1 -8.13917 -16.2756 -14.0035 -3.11581 1.4249 -2.26931
797 1 -19.2762 -11.8771 13.3988 -4.14212 -5.87795 -1.20555
798 1 -16.4486 1.93711 -6.27203 -1.22827 4.92143 -0.292998
799 1 -10.6946 17.4998 -7.85516 -1.58946 2.25372 2.55362
800 1 -18.5018 -10.18 16.9147 -3.3641 1.40806 -3.95821
801 1 19.9234 13.8424 -2.17174 -5.0807 3.50451 1.21995
802 1 -18.6414 -21.1217 14.2269 4.28915 1.43132 0.500228
803 1 17.9317 -13.5121 -8.49399 -2.00786 -0.226306 -1.56099
804 1 8.39466 -18.661 -11.0355 4.03256 -1.90151 -6.87
805 1 9.03459 24.9208 23.2227 0.556041 -0.0387172 -2.26577
806 1 0.1691 -12.3666 12.2858 -1.89562 0.10171 -2.26118
807 1 15.7569 23.303 -23.4535 -0.877277 4.22884 -0.686748
808 1 0.527632 -19.4179 -11.9737 -0.339328 2.93339 0.261007
809 1 -5.69868 23.8337 -16.6987 -0.253733 3.26703 -0.000236218
810 1 -19.6151 -13.9265 -3.54262 4.01602 -5.17777 0.451763
811 1 -13.242 -5.34483 -6.21478 -0.607338 2.51765 -1.20262
812 1 2.14603 -12.4647 -8.26155 4.10507 0.00229734 3.18448
813 1 -16.126 23.7164 -16.5482 2.05917 0.224356 -2.4601
814 1 -20.9149 -0.747303 -2.37837 2.52776 0.344827 -2.79332
815 1 -19.6874 7.56342 -17.6545 2.04596 -2.97996 -1.05942
816 1 22.5426 -17.8176 18.3684 -0.814664 -0.482061 -2.93749
817 1 9.58141 -9.13427 17.009 0.655928 -0.792589 0.96377
818 1 -10.1855 10.232 21.6099 2.26878 1.4717 5.94017
819 1 9.64766 12.9251 20.4878 -1.80717 -1.62379 -0.0489965
820 1 3.06555 13.6077 8.10759 1.71209 0.618606 1.50659
821 1 -22.8345 46.82 -22.5387 0.174838 -0.833043 -6.35563
822 1 19.473 -15.4607 14.9706 1.66363 -4.782 -2.04361
823 1 6.072 -10.4101 4.56754 -0.922605 1.09035 -4.14613
824 1 4.86639 -19.7401 -7.65278 2.03107 -0.462947 -0.314199
825 1 -23.4436 2.04952 3.4065 -2.55409 -0.266419 0.295321
826 1 -12.7301 6.69799 -3.31164 3.55873 -0.74461 0.637654
827 1 -2.21299 -0.938836 5.09833 3.60542 -2.03217 -6.69745
828 1 -6.89832 -19.3552 13.6092 1.27511 2.21994 -1.50128
829 1 20.4737 17.624 21.5491 -2.80587 4.72751 -0.518949
830 1 -10.3655 -9.09474 20.3116 -1.24016 2.66607 -1.73455
831 1 0.343172 -13.6092 -22.5092 2.06437 -0.66213 -1.89413
832 1 -7.05732 -4.11072 12.7147 -2.2794 2.36857 4.40473
833 1 -10.8452 -4.65417 -7.80611 0.559305 0.302859 -0.544798
834 1 1.8951 9.49323 -0.807303 -1.80124 -2.11059 -2.65632
835 1 2.13312 10.4156 -20.5962 -4.20169 1.81516 -0.682114
836 1 3.97079 -12.6898 20.5151 2.79128 2.56244 -1.51296
837 1 -19.6333 -14.9777 -6.3294 1.92623 2.92598 -0.246246
838 1 22.3326 -21.4651 1.59968 1.31753 2.60243 -1.55529
839 1 20.9677 20.8932 -6.36243 3.77477 -3.54707 1.91565
840 1 4.2456 -17.4546 12.3264 4.88795 -4.24822 2.34038
841 1 17.9335 1.62249 7.47203 3.55622 0.821472 -1.0804
842 1 -6.52972 -24.1039 -3.42324 -0.0545834 4.59744 2.78783
843 1 19.4819 -4.32501 17.478 2.41736 3.49531 0.38345
844 1 20.8499 -19.4524 -22.769 3.65859 -3.76425 2.10895
845 1 18.5067 7.75416 -0.783301 2.55324 -0.952292 4.77163
846 1 7.10474 5.4189 -12.9208 -2.47905 -2.51376 0.644664
847 1 -14.8107 46.5098 -12.8025 3.14261 -0.666022 4.60532
848 1 -3.98899 17.7518 -14.3734 1.08241 -0.88551 -0.850322
849 1 -23.8597 -13.9818 -8.07569 -0.755062 -0.14076 -2.67652
850 1 15.1971 -20.2019 -20.9397 2.87339 1.55401 0.0248103
851 1 -22.6442 19.2721 -12.9595 -2.92657 -0.942487 -2.41811
852 1 13.8221 -4.33887 -0.213495 0.473036 -4.67355 -2.43983
853 1 12.7652 11.3892 -17.1251 -2.24808 0.959154 0.563114
854 1 -21.0118 -12.7116 2.16868 -2.12798 0.479412 3.92946
855 1 -16.6471 23.6903 -19.3599 -0.0416553 -0.556706 -2.86571
856 1 -20.8488 -4.17518 -9.71029 -2.64242 -0.302987 -2.20739
857 1 23.0937 -5.2923 11.3152 -0.344925 0.978332 1.19643
858 1 16.7456 -14.1056 14.1193 6.4169 1.30102 0.669749
859 1 -13.6096 -6.89027 -0.930974 0.721072 0.784669 -0.549397
860 1 9.75199 -9.61247 -14.1023 4.92015 -0.816174 3.14642
861 1 22.757 22.5507 -11.7502 -0.666399 1.54757 2.37231
862 1 -1.24208 13.6215 -6.81302 -4.02226 1.06702 2.12669
863 1 17.5973 -18.4782 6.18216 0.540789 1.20152 3.59256
864 1 -16.6956 4.37845 19.3686 -0.37423 1.78777 -3.65744
865 1 0.0925092 -22.0686 12.3766 -2.8585 0.426075 0.653188
866 1 13.1475 -2.60717 17.6755 0.256268 1.37385 5.57533
867 1 -1.54425 14.5617 19.2583 5.76731 0.190049 1.00548
868 1 2.38717 18.4404 -4.14581 3.28209 -4.05308 0.526682
869 1 1.5731 17.001 2.11649 0.372253 3.17995 0.994959
870 1 13.2535 18.9217 18.0783 5.00359 4.32918 -2.58698
871 1 6.44138 9.42938 -20.5194 2.23497 -4.20313 2.45709
872 1 -3.5902 -4.16256 -21.2951 -1.7206 -0.149686 -7.97452
873 1 -5.88826 1.32839 23.0675 -6.38084 -1.04231 4.45751
874 1 10.9584 -0.0648663 1.10953 5.40521 -3.23162 1.15609
875 1 18.076 12.6679 9.35969 -2.98473 1.29523 3.352
876 1 14.0846 -15.8327 -8.83587 -2.32116 -4.42522 1.65348
877 1 3.03775 -19.1816 16.8043 -7.46236 0.0315948 -1.24446
878 1 8.81129 12.3902 -23.2316 4.45006 -0.523248 -0.451735
879 1 17.0014 6.6897 -18.2933 0.0376303 -3.40196 -0.253488
880 1 5.25857 14.7142 19.2559 0.419385 3.61842 1.29863
881 1 -3.4059 -7.11391 19.2544 -0.952761 -1.79617 7.30938
882 1 -13.2869 -3.21763 0.107943 -0.0167962 5.36496 -0.116181
883 1 16.7191 15.7427 -7.29711 2.28019 -2.21251 -1.53397
884 1 18.4012 -19.5337 -17.0582 -0.481425 2.96161 -1.07613
885 1 -5.43248 -20.0021 -1.49353 1.41113 0.0206743 1.04334
886 1 -7.3899 23.7343 4.65207 -0.892056 -0.671359 1.70773
887 1 10.6946 -23.8341 18.3527 2.24803 -1.29655 -1.92811
888 1 -7.4353 17.6845 -17.103 -3.09325 0.0547587 1.76722
889 1 -15.3139 -0.928696 16.7921 0.614907 -1.49708 -4.19092
890 1 14.0965 -22.0825 13.6983 3.85609 0.654097 3.75541
891 1 -23.4131 -2.1243 5.08311 3.82592 2.3997 -2.17765
892 1 3.35736 -9.76962 -4.57517 2.08738 5.42826 2.46913
893 1 20.6654 -6.60095 1.72696 3.84128 -1.65836 -0.711326
894 1 2.20168 16.7018 22.2372 2.56605 3.92017 -1.4341
895 1 2.13995 -23.9119 7.28552 -1.8563 0.505522 -3.9476
896 1 11.2721 -0.59643 20.7583 -0.724753 0.424724 -1.65633
897 1 -12.3471 -21.967 10.5348 -3.96725 0.709736 -6.01944
898 1 16.846 1.57449 -22.7737 -1.36409 -1.80774 0.719681
899 1 15.9697 -22.2465 17.5118 2.37508 -3.12997 -4.81801
900 1 -14.3335 -14.0843 -10.4953 -0.526514 0.991951 -2.57705
901 1 5.54794 -22.334 8.34878 2.48292 1.05663 -0.343834
902 1 -9.54426 15.9417 2.03785 0.550592 -2.55348 -0.905628
903 1 -7.75124 25.1284 -17.8631 3.51163 -5.46493 0.687721
904 1 -8.71808 -5.16407 -5.63758 -1.75659 -3.03867 -3.78813
905 1 -23.9099 -7.51059 -22.9784 2.12769 3.98804 0.752261
906 1 -6.95405 -21.1658 18.0279 4.60144 -0.639156 1.65226
907 1 -16.8797 2.82114 -10.5697 1.08315 -3.54879 -0.943309
908 1 -7.89378 -16.5556 13.226 -1.42548 1.93179 4.25219
909 1 15.9378 46.7395 10.5958 -3.32858 -3.28691 1.80752
910 1 -10.3863 5.04968 -4.23398 2.45183 -0.677267 2.33737
911 1 -0.618623 15.513 -22.3769 -2.01854 -5.71539 -0.801442
912 1 -15.3479 23.7957 -8.48981 0.779801 1.84334 -2.51005
913 1 -4.78743 21.5116 16.6272 1.30362 3.14594 -1.04349
914 1 -23.7828 16.1093 10.4783 -0.936286 3.94207 -0.84821
915 1 12.927 -7.92344 -15.9223 -2.21371 -1.31856 -2.80031
916 1 -15.576 -16.2338 18.5446 -0.795407 -0.0841621 3.47979
917 1 -24.1796 4.07899 -21.873 3.39103 -1.52556 0.00164357
918 1 -4.4344 7.80621 1.16681 -0.722812 -2.23518 -1.66291
919 1 -9.53454 16.8543 14.2258 -1.75254 -0.561642 0.219158
920 1 3.19796 15.5646 -22.9724 -1.06847 -1.93916 1.0066
921 1 10.1215 -7.7607 -19.5412 -3.39596 2.83087 2.6249
922 1 -11.8697 2.55649 -18.3637 -1.44051 -0.55929 -1.60798
923 1 1.22391 -11.3063 1.91423 -1.15056 0.0213439 -1.67511
924 1 -6.68657 17.6145 5.46565 -0.161719 -2.28387 -4.40068
925 1 2.92408 10.2352 -3.40907 3.6061 3.1678 -4.05665
926 1 1.57238 -14.2434 9.28249 -2.84007 4.15032 -0.129666
927 1 8.07949 14.8127 19.1704 3.60954 3.32391 -1.19207
928 1 10.0365 -18.105 9.55145 -3.9796 4.03749 -1.61993
929 1 -5.04915 -14.1388 -6.91517 1.01612 4.13863 -0.392111
930 1 -19.6698 -17.8104 -13.4372 2.44071 0.291514 -3.54075
931 1 18.2826 -4.11431 -7.69357 0.808047 1.58731 0.98425
932 1 -19.3197 16.484 15.921 -5.99813 -1.05549 -0.0101301
933 1 -15.2903 -21.8141 -22.8125 -1.8659 1.17304 0.0689503
934 1 1.30445 17.4229 -21.3354 -1.26011 -1.25747 4.85125
935 1 23.4709 -11.9724 -0.352948 3.32938 -1.10644 0.298677
936 1 8.22518 11.947 15.9813 0.623306 -1.85493 -0.823369
937 1 4.37237 17.4438 20.3946 -1.99281 1.18119 2.16388
938 1 17.2352 10.4589 4.347 2.35665 -3.25092 -0.610929
939 1 -6.74126 -12.8312 -16.8177 4.07748 0.463356 5.10939
940 1 19.4621 4.03741 -10.0693 1.01827 -0.860046 2.24218
941 1 -22.5482 21.6444 8.76918 0.949004 0.554325 -4.20389
942 1 -4.76792 -15.5769 -17.5939 3.35218 0.0577766 -1.12187
943 1 15.9661 -7.07552 2.40155 0.357658 0.00561445 -5.00888
944 1 -17.0381 -3.30429 23.3939 -2.39636 -6.43388 0.313062
945 1 6.69077 45.5789 17.1004 1.89183 5.83684 0.640572
946 1 -14.0655 -8.21755 5.37298 2.88412 -0.250797 -6.15214
947 1 -12.7049 18.6665 19.783 2.48363 0.343804 6.99035
948 1 -21.284 5.7091 -5.35279 -4.05191 -2.95379 -4.14315
949 1 -3.05069 15.4353 21.5808 2.69417 1.77057 -7.27008
950 1 -20.5569 6.86013 9.77614 -4.87512 -2.30452 2.0451
951 1 -9.27086 45.185 -14.4988 2.56477 -5.1202 1.98768
952 1 11.862 -15.6898 -10.8996 -0.168891 -2.47163 -1.55354
953 1 16.7721 -3.25469 2.32341 1.66521 9.26558 1.04412
954 1 16.2027 3.7358 -12.3118 0.220107 5.10078 -0.915056
955 1 -12.3266 18.6216 -19.8214 3.35399 -6.46748 -1.61664
956 1 -10.8097 -6.59326 -10.3355 -3.11202 -3.32707 5.11529
957 1 -2.57536 -3.31413 15.2639 2.7374 1.22463 2.13234
958 1 2.63904 13.8982 18.4123 4.10529 1.29422 -1.03261
959 1 -12.9615 -15.3346 23.7904 0.370406 0.912955 4.05603
960 1 -0.0363513 -20.7939 4.77145 0.266094 -3.42107 -3.83435
961 1 -7.6067 11.6873 2.13997 -2.69454 -7.31421 -4.9039
962 1 -3.58887 7.05067 -8.33348 -6.61495 3.70232 2.03973
963 1 -16.0018 25.0543 -12.1952 1.72929 -2.35921 1.50063
964 1 12.8364 -15.7291 -22.2896 2.66775 2.37846 -2.64571
965 1 -13.7014 12.5679 7.53233 3.61372 -0.0229929 -1.37777
966 1 -17.4673 -5.54001 14.4369 -5.33032 0.0379351 2.90282
967 1 17.8378 -5.04489 -15.7881 -2.21124 1.03351 0.539948
968 1 -1.99284 24.9466 -15.1191 1.63517 -4.71937 -2.81583
969 1 15.061 46.0066 2.0414 -0.264336 0.968797 -3.16056
970 1 -2.67663 -23.4185 -10.0644 2.24039 2.27553 2.87337
971 1 13.4629 -6.22136 21.8519 -3.19655 -0.677671 0.812874
972 1 -7.69673 -18.2497 0.713087 1.55704 4.92774 0.327867
973 1 -12.0899 -1.50335 16.8113 4.4778 -1.98803 -1.56142
974 1 -0.658257 24.2615 -12.5789 -2.55178 -1.85809 -1.18743
975 1 -8.28549 -10.6388 7.91378 5.17359 -1.71237 2.21905
976 1 -19.8069 -5.44892 11.7859 -3.06898 1.16264 -3.42911
977 1 5.97967 -24.349 13.0913 -1.03247 -1.43983 0.941307
978 1 4.81769 15.104 22.3341 0.23677 0.609843 2.38884
979 1 8.88347 23.2921 -18.4305 -2.23574 -1.46722 2.09928
980 1 2.89281 23.549 11.0482 3.19796 1.80161 -0.74109
981 1 6.56057 -5.65213 -2.42676 0.65373 0.565735 2.27878
982 1 -6.05572 -6.71863 5.83837 1.73775 -2.14603 -0.296182
983 1 -21.1394 8.3761 15.0917 -2.6128 -1.90395 -1.20172
984 1 -14.5283 18.6291 -4.46686 0.586037 -1.80137 2.68881
985 1 -17.7787 18.7806 12.5142 -1.51094 1.44636 -2.02799
986 1 -1.38133 6.31452 12.5987 -0.678544 -0.851055 -0.428145
987 1 -20.7576 -19.042 9.81571 -4.49736 -1.62188 -1.28238
988 1 -10.6659 -23.0563 8.53618 1.58223 -2.21905 -4.74563
989 1 10.0646 -0.57421 -5.5599 -0.0149296 0.994662 3.68935
990 1 11.4411 -7.63346 12.8487 -0.70295 2.74335 3.60454
991 1 -7.01344 -6.59114 8.494 2.70341 2.51287 -1.46015
992 1 -22.0176 11.8571 5.4931 -4.97863 2.48301 0.900128
993 1 23.1587 0.333816 -23.3157 1.49551 -2.94088 -9.0131
994 1 22.3595 -16.1844 15.8846 3.32542 0.332 -0.509766
995 1 7.26104 2.52838 1.11138 -3.39765 4.25141 -6.2607
996 1 20.8744 9.94732 -18.0059 4.40068 4.61788 1.72505
997 1 -23.7311 24.7028 22.7193 -1.4649 1.38835 -1.1581
998 1 -1.63276 11.4258 12.0756 1.63525 2.23331 0.679725
999 1 23.1448 9.08082 6.8989 4.70356 3.55014 0.378972
1000 1 16.8187 17.7107 -9.23869 -2.50141 -2.17792 -4.67142
1001 1 -19.733 -0.605544 -7.12355 -0.00679494 2.08228 -2.06019
1002 1 -11.7836 -15.8545 2.35248 1.43472 -5.61693 3.07192
1003 1 12.644 -15.3526 10.0865 7.65881 0.320891 -2.17706
1004 1 23.0691 25.4389 7.46506 4.41144 -1.43409 2.94131
1005 1 -14.3777 16.8694 1.58093 1.67184 -2.73196 -0.515071
1006 1 -24.204 10.5989 15.9096 -2.60014 0.112191 5.07796
1007 1 14.4531 -0.110212 17.0793 -1.1105 4.79298 2.04538
1008 1 4.83011 -4.5844 16.7685 -0.173126 -1.35143 2.73457
1009 1 8.68514 -19.8013 3.8712 -1.1932 0.175247 2.51716
1010 1 -13.234 4.19704 -9.66736 3.86582 4.06082 4.3055
1011 1 -19.2801 2.91765 -1.32217 -6.28275 -0.378056 0.0796904
1012 1 2.36911 3.91102 -0.00892721 -2.17756 -1.66602 -1.82309
1013 1 6.60107 -16.7696 1.92919 -2.81237 1.17432 0.907643
1014 1 -19.5233 -23.9618 4.02109 -1.77707 6.68143 1.81343
1015 1 3.0646 6.25856 -23.3851 1.78388 -3.73848 0.97107
1016 1 22.394 4.71513 8.95442 -2.79698 -0.695925 -1.49221
1017 1 -7.09218 4.25877 17.6075 0.0275342 0.275099 -1.32419
1018 1 -21.3015 -21.822 7.61118 1.16284 3.36684 1.89121
1019 1 7.39606 18.8128 4.69377 3.16487 -2.31571 -3.1981
1020 1 -17.9496 -23.8884 8.02367 -4.12565 6.82587 1.05152
1021 1 21.675 -19.2746 -4.62922 1.22194 -0.68986 -2.44228
1022 1 -9.72817 -21.4999 -13.1095 -3.35709 -5.2221 2.26044
1023 1 10.8917 -0.210626 5.87713 -0.613376 -2.82263 1.22897
1024 1 -3.37501 7.19159 21.1437 -1.3688 1.24539 -3.74496
1025 1 10.6958 4.8078 -20.698 6.68198 -3.42098 2.04374
1026 1 1.823 12.3813 -10.4199 7.35148 4.09323 -1.84635
1027 1 -21.9266 -1.00366 10.7451 -3.57937 -1.6749 -1.93161
1028 1 -6.68003 -11.9258 -12.1638 -1.39713 -0.268269 2.05502
1029 1 12.4206 9.60501 -2.43907 -2.9824 -2.21322 7.03961
1030 1 -17.5695 -15.8635 -23.0792 2.56415 -2.09141 0.13807
1031 1 -6.73058 -11.2405 -5.76042 4.43709 1.45345 0.218661
1032 1 14.5759 6.84084 19.2 3.38353 0.181855 2.69355
1033 1 -3.0807 -16.7955 2.35902 -0.733809 7.61433 -7.94865
1034 1 -12.765 12.2508 -10.9673 -3.84366 5.64186 -5.28384
1035 1 9.74842 18.5813 -2.26265 -3.99572 -2.78211 -2.87114
1036 1 2.52237 -15.1767 18.5294 0.961147 0.1681 -2.38735
1037 1 -12.8049 -17.6076 17.281 -1.08789 -1.55385 -5.56903
1038 1 -0.993158 8.73187 11.0496 -1.31863 -1.09324 4.08374
1039 1 18.9423 22.6047 -10.1334 2.46744 3.86422 -6.06043
1040 1 10.5507 -3.64197 -22.9604 -1.0013 -1.68549 -7.02201
1041 1 -2.6752 8.99093 -13.3661 -0.431589 -1.83258 -2.45604
1042 1 10.3349 -8.0487 23.7901 -2.89951 1.15139 -1.87466
1043 1 16.1707 9.15194 -4.42927 -3.72671 4.42348 -4.12577
1044 1 -3.5702 21.2319 -14.1377 2.58295 0.867672 -0.599136
1045 1 -3.79506 -1.7074 22.4492 -0.766303 -0.101091 1.46445
1046 1 16.7212 16.1131 -15.9976 -4.06744 -3.54255 4.99219
1047 1 -19.2154 0.496097 18.623 2.87884 1.08048 1.65735
1048 1 -0.149932 1.14503 20.6384 -6.08286 1.63005 2.87014
1049 1 23.1505 -0.711356 -12.4883 -0.0064287 1.67861 3.00586
1050 1 14.3511 21.2739 16.7219 2.96174 4.28569 1.52255
1051 1 0.106347 1.86001 9.49517 3.90697 8.01279 -0.0549599
1052 1 -19.6662 -4.39721 -19.5199 -6.1043 3.29592 3.59392
1053 1 6.74825 6.50339 -21.3733 2.2198 7.62776 1.05655
1054 1 -16.9394 22.5452 0.590477 -6.16161 -1.67892 -1.70602
1055 1 -7.10125 17.9348 13.6503 2.44781 1.22394 -0.951956
1056 1 -11.1265 20.9032 6.66709 -2.10679 -1.68191 -5.94466
1057 1 -7.49425 -18.74 -15.8704 0.840052 6.8989 1.98822
1058 1 1.48824 -0.647915 -9.80759 -2.57886 2.37692 1.50743
1059 1 6.36296 -22.476 -17.3844 3.31247 2.10871 -2.28269
1060 1 -19.126 -9.72473 6.56989 -0.237386 -1.45068 -6.04884
1061 1 7.29689 7.9957 -14.1459 3.42151 -0.563707 2.05762
1062 1 -6.16612 -2.02979 11.1403 -0.449566 -1.03895 -0.99795
1063 1 0.327862 19.9477 10.2521 -0.125756 -0.19315 3.25003
1064 1 14.7887 -18.1629 6.2999 -2.49057 2.63114 4.99704
1065 1 12.4834 20.807 -17.9277 5.51596 0.9996 0.881458
1066 1 12.6229 -3.84246 22.9294 -3.15427 -2.47893 -0.682579
1067 1 -22.8273 5.77276 8.3261 -4.70196 -0.371882 0.344296
1068 1 -2.90909 14.4135 2.11607 -3.6932 0.263794 -0.0611735
1069 1 -22.0069 18.5512 -18.2842 -0.689377 -1.1022 -7.36901
1070 1 -8.35057 7.45312 11.4312 -0.82965 1.54197 -4.96192
1071 1 -18.7987 23.8657 -12.9283 -0.943746 -2.32349 3.02962
1072 1 13.5438 9.63237 -19.2271 -1.40766 -4.29 1.10628
1073 1 -0.77253 46.299 -11.3314 -4.0942 -4.77112 0.013391
1074 1 -9.48196 11.4691 -17.766 0.645738 2.27056 -1.01962
1075 1 0.830417 12.0752 16.9844 -3.61398 -0.256166 0.187159
1076 1 21.3305 5.82084 22.7623 -3.32552 0.458996 -1.73904
1077 1 16.8659 -8.05122 -8.46692 -8.86207 5.07863 2.88896
1078 1 6.9519 -9.15405 11.1731 -3.4563 -8.06608 -1.48578
1079 1 -14.1311 -0.518871 11.6547 0.487691 -0.358834 -0.547606
1080 1 -19.0962 -6.07758 -8.7321 -0.666146 2.41631 -0.618808
1081 1 7.82503 -5.25506 15.5733 -0.671379 2.26787 1.33327
1082 1 -16.4929 -17.5667 -6.60853 1.83968 -2.3565 -1.71697
1083 1 0.0544703 21.8915 -19.0028 -0.660495 -0.27756 1.90383
1084 1 -2.86819 -17.6289 -4.51795 5.88966 -1.29788 0.323442
1085 1 -9.67805 -14.5618 -1.74274 -3.3338 0.121583 -3.90931
1086 1 -13.1282 8.9708 -4.84154 -0.899999 2.82216 4.6163
1087 1 7.79757 -2.18808 -19.5407 -3.22673 -0.97849 0.853273
1088 1 -21.9294 23.407 4.35553 -2.46844 -4.08498 0.322095
1089 1 -15.4743 6.15112 17.0795 -0.666791 1.97544 1.82705
1090 1 -21.3185 -18.0998 -11.1137 0.167786 -3.05692 -6.77512
1091 1 -14.4549 9.05868 6.64855 5.74062 -0.269337 2.8961
1092 1 -19.0055 -17.6947 -5.51529 -3.20021 2.01976 2.34919
1093 1 23.2341 8.88539 4.04424 0.0624225 2.25694 -0.787627
1094 1 -24.2242 19.5006 23.6391 -2.81472 -0.257508 1.63226
1095 1 -6.69 23.8182 -12.4261 -4.47245 2.20689 1.71332
1096 1 8.24212 17.3569 -12.7722 -2.87881 -1.42168 2.82468
1097 1 15.5537 25.3882 12.4377 -2.57364 -7.07669 4.92586
1098 1 -12.7008 -4.48143 19.9205 2.48823 -3.80473 -6.04254
1099 1 17.25 12.7019 16.925 -2.45192 -3.99565 2.2778
1100 1 8.44595 -8.74087 19.7214 -3.65431 1.03358 0.862267
1101 1 7.8807 -15.2782 13.1237 4.27 -3.02422 -1.95174
1102 1 15.3791 -14.5569 16.6913 -1.97124 -1.787 -1.58404
1103 1 21.4609 7.00478 16.3984 1.47521 0.652373 -6.32783
1104 1 -22.7477 -2.77349 7.76483 -1.589 6.35231 -3.00277
1105 1 21.8347 0.630507 -0.253178 -2.35772 -1.86793 -6.36425
1106 1 -16.2497 -17.9131 3.46835 -3.03873 1.58267 1.7321
1107 1 1.52664 -12.6613 -0.432983 -0.381901 -1.84856 -3.43963
1108 1 14.0087 15.1313 22.0284 6.29453 2.353 -1.95969
1109 1 -18.3296 -7.56882 4.59411 -2.66081 4.9602 0.52083
1110 1 -13.7165 25.1333 9.41988 -2.31378 5.74171 -2.72054
1111 1 13.1848 -8.75043 8.44889 0.318842 5.21975 -0.0400973
1112 1 -0.992081 -18.8743 20.4365 -0.316621 -4.57676 0.957298
1113 1 -19.4636 22.3665 -23.77 -2.66554 0.232392 0.495368
1114 1 -19.0968 -0.976176 11.0307 -1.30056 0.961529 0.444283
1115 1 22.4838 22.1361 23.3207 -0.492545 -0.073321 -0.876032
1116 1 -15.4044 -0.152671 5.87293 -3.34063 -3.49206 3.50275
1117 1 -3.72274 14.3827 10.1137 -1.31686 0.446106 0.444362
1118 1 19.8165 -2.13295 -15.3106 0.692618 2.12014 2.12089
1119 1 9.59037 -12.6654 5.23073 -0.191439 3.29508 -1.79701
1120 1 -5.39445 -12.7116 -1.55442 7.48129 -4.03635 2.35943
1121 1 12.4693 -4.90898 -20.85 10.5806 1.84379 2.65483
1122 1 -10.0441 23.3599 -1.5675 0.625164 -0.155794 0.654883
1123 1 15.7013 -6.96222 -1.80362 -4.81221 -1.20291 0.966926
1124 1 -2.22422 11.6621 -17.4113 2.77982 -5.08591 1.46353
1125 1 -23.2557 6.76306 5.55618 -0.0823512 1.3465 -4.72871
1126 1 -1.0454 -13.9282 -11.6801 -1.40435 -3.17349 6.00976
1127 1 12.5135 16.7918 -9.08372 -1.4008 1.05522 1.82173
1128 1 0.407365 13.4067 -1.18879 2.9319 -0.888574 6.7744
1129 1 2.56064 -8.56095 22.654 5.18335 2.23997 4.27041
1130 1 -3.11294 14.4502 -16.723 -3.21991 2.40626 2.26422
1131 1 18.0977 -7.73538 -5.02917 -0.972959 -3.80638 0.466814
1132 1 22.0576 -4.92609 18.4966 6.35776 -1.01186 -2.08745
1133 1 10.4502 12.2162 18.033 3.58664 -4.15956 -2.28259
1134 1 15.2211 -22.0097 20.0667 -0.915415 2.17439 0.670428
1135 1 5.63292 -1.3382 23.8027 -3.38304 2.84436 -2.06172
1136 1 -17.8315 -20.7569 23.6976 -2.16143 -2.94642 -3.72545
1137 1 4.84403 3.38197 3.31118 4.27693 0.420842 0.768042
1138 1 -21.3914 -24.2008 6.13254 4.19242 3.14258 -0.289949
1139 1 -7.21409 9.49089 4.14155 -1.09633 1.61419 -0.0392064
1140 1 16.2292 -9.49406 -20.5972 3.05379 3.97404 -4.20415
1141 1 -21.3125 9.60206 11.2788 0.210142 -8.8523 -4.42791
1142 1 8.16111 14.1522 9.81121 0.542032 1.1007 -4.38211
1143 1 3.10436 -9.05658 -12.9807 -1.34595 1.54183 -0.16365
1144 1 19.1128 0.403585 -12.2196 3.00157 -3.303 0.717041
1145 1 2.59717 22.4384 22.6638 -3.94305 4.73634 3.62094
1146 1 9.20432 18.9721 18.6961 -0.4212 4.09708 -5.0893
1147 1 -5.1517 10.3974 -1.71343 -1.13711 1.93199 -0.00577364
1148 1 -10.7056 11.0876 13.2087 -1.57749 2.68674 2.08071
1149 1 2.23616 -15.8778 11.3391 -3.47558 5.60292 1.6024
1150 1 -13.655 15.0051 9.14159 4.03845 0.0999936 0.408968
1151 1 -20.4382 -22.8075 18.1376 0.608566 -1.27362 -0.525254
1152 1 -15.4829 14.0949 17.6437 -1.92124 -0.759307 6.2328
1153 1 -3.53099 -20.9147 0.359052 2.54548 0.391705 -4.83758
1154 1 3.53282 12.8097 -21.3931 -0.965012 -3.05275 3.73629
1155 1 8.3519 -21.9838 14.6632 2.33721 0.187825 -6.33333
1156 1 -15.7352 -11.9708 -23.7404 4.61098 0.322966 4.8896
1157 1 3.28896 0.819229 -11.6059 2.13756 2.83041 -5.61017
1158 1 -16.3288 1.57372 18.407 -3.00838 1.2055 3.98603
1159 1 19.9963 -7.49286 13.4571 2.51797 -0.213982 -4.74785
1160 1 -10.0719 6.76424 -9.95662 -1.22416 3.38843 -0.0862023
1161 1 -7.98683 46.1422 -18.7583 3.32929 -1.48959 -1.75629
1162 1 9.99398 9.05631 2.67258 -0.294873 -2.92422 1.111
1163 1 -18.5998 44.7235 13.1488 4.04751 -0.12406 -0.133307
1164 1 -20.5986 -15.2277 9.94471 3.62696 2.8748 1.05305
1165 1 15.1902 23.9327 -0.0517367 -1.01596 1.55127 -4.1738
1166 1 -16.4321 26.2746 15.7161 0.50316 0.0417065 4.39744
1167 1 1.02795 15.8755 19.8331 1.16661 -1.88238 -4.82984
1168 1 11.7192 -9.80271 -2.25429 -4.47052 -0.808012 1.0841
1169 1 13.1679 -9.11152 19.9117 -3.60071 -3.13846 0.213077
1170 1 4.27127 15.1238 10.3728 3.06188 -0.91253 -1.31188
1171 1 19.6906 -0.598082 -8.42633 -1.17415 4.16012 0.446425
1172 1 -22.9483 -16.4065 -17.0821 -1.15907 1.77883 1.59276
1173 1 7.17716 -20.6321 19.8825 1.07491 -2.62104 -2.29587
1174 1 -20.9803 -20.3041 -18.3316 -0.190958 3.45222 -1.19464
1175 1 -10.7207 15.119 21.6941 -2.18114 -0.7657 2.64164
1176 1 -1.52794 -11.8328 14.5947 2.97739 1.82739 2.0627
1177 1 11.0502 1.90772 -17.5431 -0.581688 3.82743 2.00113
1178 1 -4.07041 7.17441 9.9244 -0.610953 -6.27026 0.595502
1179 1 7.86131 -8.83804 -9.20538 4.63834 2.09483 -2.78894
1180 1 -10.0153 45.9555 -12.0009 2.02568 1.47921 -1.30512
1181 1 10.0599 18.345 -9.41076 1.63234 2.53137 -2.64204
1182 1 20.863 7.72643 0.789569 1.32888 2.20948 2.73092
1183 1 4.02332 -6.32046 -14.3232 -0.421176 0.986766 1.95733
1184 1 6.43439 20.362 22.9947 1.01137 -1.59329 1.45066
1185 1 15.414 10.8864 23.3882 0.348991 6.68637 3.3751
1186 1 5.1932 -9.03451 -0.0965292 4.28442 4.78202 -3.62576
1187 1 -13.4526 16.4256 -7.73075 -1.37304 3.40539 7.65944
1188 1 3.60164 -1.10739 0.0255686 3.27416 -0.675088 -2.44819
1189 1 14.6594 14.5974 3.95775 3.91497 2.12034 3.82663
1190 1 14.9117 -2.19961 -16.9653 -4.94316 1.58749 1.33904
1191 1 -2.98348 -1.25461 -21.5575 2.62171 1.15415 0.919539
1192 1 -14.8356 0.305447 -10.8179 -3.44388 1.63423 1.51572
1193 1 9.82718 -0.774102 18.1989 -2.43787 -2.50512 -0.897619
1194 1 8.98544 17.7749 -6.92678 -1.45918 -3.44459 7.72796
1195 1 13.6519 -10.2579 -14.3237 -5.43673 4.60467 1.59141
1196 1 5.84417 14.0764 -12.2565 -5.19864 -1.20496 -3.42318
1197 1 -18.4875 18.073 20.3084 -0.146179 1.09698 5.14748
1198 1 20.423 -23.6306 10.2666 -3.2864 2.18469 1.47647
1199 1 -12.8969 7.31522 -13.1739 -0.569918 0.961911 1.1387
1200 1 10.951 -11.3232 11.747 2.01065 -1.53666 0.432978
1201 1 -24.0025 -19.6212 20.4532 -3.1638 2.34888 -2.23791
1202 1 -14.8051 -0.533581 -5.77223 -1.82396 -2.71669 -4.7907
1203 1 -14.7426 -13.0406 -15.1974 -1.374 -1.47263 -0.316506
1204 1 -2.45789 23.9031 1.11236 -1.55004 0.221921 -4.20426
1205 1 -4.52479 -18.1781 12.501 1.5681 -1.00306 -0.323347
1206 1 -22.9857 -20.4557 -22.4444 -0.404421 6.79683 -0.791434
1207 1 13.8786 -5.71498 -17.394 -3.31962 -5.66193 1.73527
1208 1 22.3505 -6.90361 9.05392 2.04651 -0.803096 2.06166
1209 1 1.20674 -5.79783 23.6118 -6.14409 -3.62976 1.22732
1210 1 -4.20433 21.2831 -2.07226 1.39222 -3.3874 -0.604078
1211 1 -17.9643 -11.7577 10.7429 -2.47566 0.373038 -2.33169
1212 1 19.7202 7.00622 -10.9377 -0.303021 -3.84217 -2.0669
1213 1 -22.8724 -16.316 17.6253 -0.665144 -0.846564 3.62561
1214 1 14.3891 -1.49192 -1.05172 2.78658 4.23977 -0.238203
1215 1 7.26592 10.5113 -8.62784 -0.351965 2.28852 1.12986
1216 1 13.3447 -4.5153 -9.4587 -1.64233 0.123629 -3.76099
1217 1 16.0632 -15.0842 2.04425 4.13415 -2.34742 4.27122
1218 1 15.9974 -3.64781 -10.7295 4.72543 -4.51754 1.03092
1219 1 12.3662 13.8703 10.1396 0.705385 2.22489 1.14669
1220 1 -21.1431 24.0923 15.2408 -3.71922 -2.75126 0.279278
1221 1 2.32799 22.5796 -20.7405 -4.24969 0.460005 1.955
1222 1 18.1793 22.8439 11.3498 1.88901 2.13546 -0.410095
1223 1 -23.2346 8.35492 9.53811 -1.20873 3.51022 -6.81961
1224 1 13.3067 -7.93783 15.1166 -3.62897 -0.116091 1.72726
1225 1 1.25946 -20.143 19.1154 -2.01631 1.20974 0.225738
1226 1 -21.5639 13.7377 1.94599 -2.97588 3.9428 -3.0815
1227 1 -2.40836 -7.57762 -0.13849 1.43724 -1.0583 -2.31673
1228 1 -23.9747 -20.7653 -11.8838 -4.07614 -0.0603284 0.327052
1229 1 19.6082 -18.5149 -1.32576 0.971815 4.46758 2.1505
1230 1 -13.4038 -18.2082 -9.02345 3.10443 1.50362 2.44958
1231 1 -20.4265 -9.87953 -5.10271 -0.994894 5.29315 2.00267
1232 1 -20.3552 17.7768 22.6337 -0.107028 -0.519708 -2.18883
1233 1 -4.9092 0.682622 -22.1768 -0.572449 -3.73821 -1.92201
1234 1 14.2441 14.0632 6.93166 -0.40378 -2.55154 -6.33862
1235 1 11.1491 16.681 1.96709 2.74781 1.91435 -2.97264
1236 1 -5.10644 -20.5195 15.5603 -1.78729 -0.850101 -1.42315
1237 1 -17.4289 23.9334 14.2757 1.48616 0.870088 0.376189
1238 1 9.59461 -2.44694 -14.0188 3.42807 1.74916 -1.98254
1239 1 -2.26424 -23.4406 6.82052 -0.520346 2.10439 4.1301
1240 1 -5.67932 -23.3399 3.09671 -1.62931 -1.64663 0.70804
1241 1 11.9654 14.646 -19.4184 -2.84262 0.184601 2.53941
1242 1 7.30465 -18.7728 -14.89 0.481856 -3.80746 2.39299
1243 1 10.3688 18.7058 -20.6598 -1.63454 0.664954 5.31016
1244 1 -17.5588 1.94205 8.19965 0.493531 -0.57907 1.79347
1245 1 -18.3336 11.7618 -22.7952 -2.7922 -3.70218 -0.784495
1246 1 -5.25802 -15.9732 5.30312 -4.88308 -3.21421 1.02129
1247 1 -3.93986 -1.66724 -10.1091 2.07076 0.0711313 -1.23035
1248 1 10.0121 4.36854 18.9339 -0.579488 0.61641 0.831098
1249 1 7.91888 14.1895 -21.5456 1.87846 1.48258 4.16575
1250 1 7.94163 3.50997 20.6634 0.183229 1.235 -0.880241
1251 1 21.8169 1.3024 22.1501 2.41244 -4.49474 -0.985658
1252 1 21.4709 -20.5506 -1.04721 1.05663 -2.44472 2.78682
1253 1 12.4152 21.5137 -2.71967 3.61182 -5.97506 -5.31641
1254 1 -21.2425 -20.1112 5.24492 -0.72294 1.13805 1.64249
1255 1 -5.56221 -11.1198 8.50845 1.33284 -5.26645 -0.729175
1256 1 6.81847 -19.7962 -21.1556 3.40827 0.190339 -0.755979
1257 1 -5.58986 -23.3897 -11.1828 0.142489 -2.49709 -0.3819
1258 1 -17.1868 10.7022 21.7824 -5.15534 3.56174 0.68014
1259 1 19.9492 -11.4444 7.20655 -4.08796 0.993437 -2.07467
1260 1 3.86785 -10.4928 -15.6471 1.36951 -2.50638 -4.16736
1261 1 11.439 -8.5949 -8.74303 -0.789033 -1.15555 4.37471
1262 1 13.5823 -15.4319 -5.95781 0.363257 -4.82988 2.08521
1263 1 -14.748 -5.75389 -3.31366 0.884621 -2.96449 -6.25698
1264 1 -22.3576 -11.055 -1.95813 -6.44055 2.32076 1.90293
1265 1 -6.14532 14.7875 -10.846 -0.589149 -0.101594 0.914097
1266 1 16.9472 -8.91138 4.5602 -5.99261 1.18039 -4.26392
1267 1 -23.8736 -14.5008 3.273 4.83711 6.09652 -2.10998
1268 1 -21.4766 -13.839 -17.2403 2.56042 2.04761 1.63141
1269 1 10.6784 -7.33586 21.0127 2.29794 3.41468 -1.38926
1270 1 21.9536 15.1192 12.0103 -2.82367 -1.69099 0.760897
1271 1 -0.990196 3.48051 17.1094 0.824267 -0.668138 -0.0367011
1272 1 23.3917 9.87562 13.0934 6.09247 3.05015 -1.26696
1273 1 17.3703 5.32042 20.5309 1.03294 0.760967 -2.75977
1274 1 23.0049 19.3139 -17.2702 0.235812 1.2716 -4.42574
1275 1 2.6986 4.96687 10.6565 -0.888193 5.75861 -1.68415
1276 1 -0.769562 -7.68536 -20.2537 -1.29461 -1.33408 -5.22018
1277 1 -9.9475 24.0208 -5.31731 -4.66186 -0.835709 4.64887
1278 1 14.992 -6.8283 -21.4449 -4.57215 -0.884518 -3.42761
1279 1 -21.601 16.5783 -11.9581 -2.57408 0.533656 0.954667
1280 1 2.21635 -2.63655 -3.48496 -5.78119 2.58004 0.481359
1281 1 16.717 -10.0781 20.6522 -1.39944 0.106777 -2.52202
1282 1 11.4933 -19.4639 -2.96698 -1.20495 -5.4684 -5.39382
1283 1 4.65764 -21.782 -11.1273 2.6686 -1.33364 0.518189
1284 1 6.09661 -11.0709 1.72339 2.13318 0.317465 -3.11577
1285 1 -12.3879 24.1911 16.6237 -1.19477 4.17388 0.0594702
1286 1 -3.7641 5.14546 -15.2859 -1.50922 2.49004 0.0604433
1287 1 9.65445 -19.3752 20.883 2.04099 -2.49311 -2.35886
1288 1 -0.0450065 -4.58411 -15.4146 1.26401 -2.12676 0.277335
1289 1 20.6469 -9.20827 -6.05528 -5.24974 -1.52051 0.565741
1290 1 1.41187 6.78056 7.41235 -0.369244 5.50086 -0.111148
1291 1 -19.3802 15.5474 1.13509 -7.37316 -3.0822 1.68109
1292 1 -6.07667 16.9468 -1.62359 3.90536 4.59007 -1.82082
1293 1 -8.15851 0.0554514 -1.03404 2.39984 4.16694 -5.52773
1294 1 15.2771 -11.9695 -8.09135 -4.0069 -7.01227 -0.475842
1295 1 14.5216 5.91742 -1.41841 6.21772 -2.25558 1.01714
1296 1 -7.83012 -11.6468 4.35038 -1.12267 -4.13659 -8.05852
1297 1 14.8479 15.7534 15.7957 -5.72921 -2.49631 0.998653
1298 1 1.38001 -6.55637 -2.14793 1.81238 5.50174 0.120072
1299 1 -10.6887 -10.3309 -5.34086 1.7229 2.02078 0.488187
1300 1 4.509 -1.17244 -2.85206 -2.58668 -3.13633 3.16086
1301 1 9.88659 15.7907 -11.2233 0.725497 3.05654 -3.2506
1302 1 -1.78586 -3.65344 23.5688 -3.01919 -6.91635 4.71838
1303 1 -6.02901 -7.14081 -15.458 0.208022 -2.70218 -2.18097
1304 1 5.66396 1.02593 -4.74859 -2.03565 -0.941867 -0.056571
1305 1 -6.41468 3.7405 11.7382 -2.40325 -3.36933 -4.58303
1306 1 6.54919 -21.3856 -2.13866 1.49291 -3.43496 1.40958
1307 1 -14.6332 46.0654 -3.20663 0.769566 4.76271 1.01562
1308 1 -18.6508 -2.46639 8.46027 2.59038 1.38792 3.65097
1309 1 -2.7787 -9.25673 -6.46207 1.3144 7.3684 -5
1310 1 -0.789318 -17.9299 -2.58199 -6.7052 0.186474 3.14169
1311 1 -0.463521 19.9717 -12.6816 2.88785 -2.79368 -0.126791
1312 1 -16.4643 -7.02658 6.78507 0.645384 1.58991 3.25504
1313 1 16.6984 20.2532 21.8021 -3.92269 4.46575 -1.41944
1314 1 -16.2703 10.7402 -18.3702 -5.39557 0.27453 -0.131883
1315 1 -18.8533 -12.4026 -20.299 1.9228 1.89444 -3.10411
1316 1 19.3542 -12.5099 -14.5568 1.87062 -1.62015 5.82312
1317 1 -10.3875 8.74765 -13.6805 -3.44332 0.292637 4.18066
1318 1 22.6312 19.2013 -0.514683 -2.54045 3.95648 0.0227197
1319 1 12.5783 21.8611 1.17965 -3.7993 -2.77472 -0.452056
1320 1 17.3282 -7.48362 -12.596 -1.3062 0.236143 1.22688
1321 1 9.49167 -20.4717 -6.70772 3.26758 2.20848 1.56183
1322 1 0.582069 -14.4505 -6.84876 -1.24055 2.76559 2.43974
1323 1 14.506 -12.464 13.3143 -0.000790361 0.366377 0.86784
1324 1 -9.5385 -20.5931 -19.1561 2.31808 1.40932 -0.740723
1325 1 -4.29866 15.9823 5.05429 2.46431 -4.17441 -2.5569
1326 1 -16.5647 -18.135 22.8378 2.76298 1.76394 1.35635
1327 1 -9.23664 21.9489 -22.9793 3.48288 2.48126 -1.07822
1328 1 11.4477 14.4399 5.40713 0.290075 0.462831 -1.40961
1329 1 23.1369 -14.1338 -2.00446 4.77626 1.25574 2.33561
1330 1 -9.50432 13.9121 -5.42961 -3.13625 -1.48413 -0.237197
1331 1 -18.1161 5.70602 -1.37125 4.14007 1.77835 0.0883537
1332 1 13.0472 -20.5062 -23.0513 -5.46966 1.47344 -2.64796
1333 1 -1.2374 9.88414 6.81479 0.603067 0.737164 2.19437
1334 1 14.2946 -9.21116 -9.41459 -0.238084 0.561661 -0.117154
1335 1 -14.8457 25.3921 -14.7417 -1.09336 0.143532 -0.981976
1336 1 1.37105 18.9923 -7.94358 2.32178 -0.47827 1.0581
1337 1 6.18767 -19.3944 8.42492 0.400908 -0.801286 4.78001
1338 1 2.12233 6.64925 -1.12479 1.77407 -0.0990564 1.80842
1339 1 2.57618 -19.0858 21.4676 0.73864 -2.95035 -0.62488
1340 1 -20.3098 18.4098 11.7578 -7.61307 1.83119 0.0875817
1341 1 4.43104 9.54879 11.0914 -2.14397 8.49299 0.730563
1342 1 3.55782 -23.457 -17.758 -4.33492 -4.74218 0.776382
1343 1 -11.8636 -7.64435 -5.74159 -3.04298 2.9365 1.6203
1344 1 21.6133 -8.69796 3.15627 0.493998 -0.838107 1.6722
1345 1 21.9473 1.74596 -15.8557 -0.452066 3.79438 -0.983224
1346 1 15.0433 -4.37128 -14.8988 -0.173019 -2.127 -1.22771
1347 1 -16.0115 -12.1903 -20.7754 -0.541942 0.961142 -1.47313
1348 1 4.21836 12.0206 -15.6822 -0.954935 -2.39758 -2.62245
1349 1 2.53519 -11.5501 9.02715 -1.69661 3.69945 -0.0706382
1350 1 -14.4259 0.277496 -2.97019 2.66504 -2.4023 -1.2829
1351 1 19.4648 -14.9761 17.9122 0.684299 -1.35903 -2.72846
1352 1 4.62474 24.8613 22.0345 1.22433 3.06305 3.32635
1353 1 8.37808 22.3808 -0.0574425 -0.758123 2.16992 0.899061
1354 1 -1.34853 -7.30841 -13.6268 -7.14402 -3.06593 -0.0591115
1355 1 -6.40406 23.8734 17.169 0.848123 -1.09991 4.15391
1356 1 -20.2453 -12.9123 -1.03806 2.54568 1.44182 0.631358
1357 1 -19.8311 -10.1795 -11.1867 1.05304 -2.48241 5.01756
1358 1 -12.5072 24.7251 23.9994 2.25433 1.9059 2.10166
1359 1 -20.982 -23.9143 23.1467 -4.83443 -2.88977 5.76938
1360 1 17.796 -13.5543 6.94082 0.133014 -3.48215 -3.36184
1361 1 -7.18778 -21.8369 5.0847 0.992728 2.30603 -1.63046
1362 1 19.1843 22.3243 7.49319 3.22792 1.64367 -0.141067
1363 1 -13.9136 -10.5432 -19.5677 -2.03413 3.1432 1.79852
1364 1 12.2305 -12.7844 -12.092 -2.90801 -0.177332 -5.03265
1365 1 6.80072 -4.72104 -20.4459 -0.684934 -0.651905 1.16183
1366 1 20.7427 -16.17 0.186662 -0.803769 0.16814 7.78186
1367 1 -9.76367 -12.1291 10.8714 -3.24422 -1.04566 -4.03659
1368 1 -18.4841 17.249 -1.17732 -3.76728 -0.96961 8.09628
1369 1 22.4769 2.59833 -4.19886 1.89595 2.47645 1.78177
1370 1 -1.48114 -11.9668 21.9485 1.40709 -2.11511 3.61884
1371 1 -20.1516 9.93455 -4.4857 3.36165 -3.16319 -0.297965
1372 1 -9.24046 10.9408 5.81368 -0.0596285 0.655481 -1.43553
1373 1 -15.1657 -6.83642 15.3923 4.57667 -4.39439 0.0126764
1374 1 -18.7168 25.0048 16.7283 -2.30627 -3.18417 -1.14023
1375 1 19.6509 -9.99787 4.64192 5.20974 -1.32326 3.45724
1376 1 5.29533 8.78236 -7.33317 -0.96368 -0.949342 -1.5778
1377 1 -14.9841 23.5439 -23.4503 -0.138872 -2.21488 2.38307
1378 1 8.78658 -10.4295 1.08387 1.84853 1.2494 0.227001
1379 1 -18.5769 -18.8202 4.9832 -2.42302 3.12687 -1.47103
1380 1 16.2346 21.9969 -6.61285 -1.60648 -1.02422 1.50018
1381 1 18.4584 18.0172 10.0948 0.602652 2.39588 -0.120794
1382 1 16.1972 -12.8901 9.01354 -0.190527 -2.29603 3.31082
1383 1 -6.57819 44.9015 -15.0658 2.37206 1.25174 -2.90728
1384 1 1.77303 21.5732 -11.9834 3.10895 -0.482921 -0.892247
1385 1 -17.9539 21.5114 11.2392 0.394669 -2.03316 -3.63206
1386 1 -8.8552 8.45057 1.56171 -0.309265 0.155753 -0.112788
1387 1 -19.0441 0.279425 -0.129383 -4.94384 -3.03194 -0.473182
1388 1 10.7037 -3.66907 18.7526 -0.423123 2.99759 -0.52429
1389 1 19.0634 -6.1608 -0.72463 0.287832 0.816688 5.42315
1390 1 4.40297 -1.97444 10.7077 0.193139 0.0386947 0.122703
1391 1 -12.8514 21.3606 20.7823 0.421239 -0.520741 -1.36145
1392 1 20.3341 2.81293 2.40521 -0.908788 2.94368 0.973527
1393 1 -0.434879 -6.27171 1.46922 1.19279 0.33154 1.73141
1394 1 5.16513 6.98367 0.302323 -3.24401 -2.12762 -0.0123742
1395 1 0.850482 10.1046 -7.12738 -2.13326 -0.304599 2.88566
1396 1 -18.5048 -8.18494 8.79395 0.35091 0.706905 -3.07461
1397 1 2.92341 21.4008 -8.18724 0.136383 -1.63893 -1.87524
1398 1 3.03889 21.5037 -4.34809 3.37393 5.20312 -1.71854
1399 1 -2.47614 -22.9106 -1.57365 -2.53504 -0.00653887 1.2239
1400 1 -13.4592 15.3136 -22.7687 -1.35567 -1.68082 1.7098
1401 1 -24.4061 -22.3073 21.2647 -4.45524 -3.53566 0.408844
1402 1 -19.3321 -5.18365 -15.7485 -0.938805 -0.313915 0.306234
1403 1 16.9438 45.9548 15.2262 1.96035 2.39193 -0.855444
1404 1 19.7285 -10.6282 10.1338 -0.416017 0.139125 -2.24411
1405 1 19.9815 21.7135 -23.2886 0.680835 0.468539 -1.07705
1406 1 -8.53837 2.68256 -11.6261 -2.4113 -1.07262 -0.21482
1407 1 -20.9539 9.15941 -1.88621 0.674388 -5.54936 -1.11673
1408 1 -5.57364 -3.81167 -11.136 4.30164 0.0715665 1.82029
1409 1 -0.524291 5.47622 -22.2154 -0.0872072 2.28713 -1.55059
1410 1 2.70191 -21.0444 -18.8472 4.09327 3.30007 -4.01342
1411 1 19.4664 -0.607114 -22.0323 1.58354 -3.37326 1.70573
1412 1 -18.8751 12.9054 -12.8119 -0.731348 4.94021 4.22341
1413 1 -15.6771 4.46794 -20.4822 -1.06514 -2.26494 -5.32262
1414 1 5.93281 21.4878 4.56325 -4.33365 -2.56118 0.205015
1415 1 -6.23768 -22.1641 0.488713 1.56546 0.426904 1.99874
1416 1 -23.0721 -8.5002 8.51036 3.21495 -2.79542 0.306897
1417 1 11.3585 4.73707 11.0466 1.98458 4.20564 0.459079
1418 1 15.4914 -9.53958 0.757461 1.25919 1.39007 -3.06343
1419 1 8.10003 21.7343 -4.11172 1.29485 0.364197 2.66376
1420 1 -10.3949 20.4797 -20.7666 0.49748 -3.1364 0.894116
1421 1 22.5147 -11.6975 5.47583 -2.82495 -1.6314 0.137198
1422 1 -11.4216 -19.7689 -14.7749 1.8478 -0.888179 -3.72458
1423 1 7.75172 20.9353 -17.5047 -0.033083 -3.93766 -3.40668
1424 1 21.0763 12.9708 -6.88459 -0.930352 -2.00844 3.45484
1425 1 2.10113 5.98819 -13.3004 4.75834 0.984001 -0.875805
1426 1 3.56413 -19.1847 2.35527 -3.54374 3.89738 -2.90126
1427 1 20.2459 -14.2333 -1.77054 -1.25657 -0.506909 2.64365
1428 1 -4.54955 -15.147 23.3616 -5.83564 1.32248 4.07865
1429 1 -21.8153 -17.153 5.43587 -0.225303 -2.85245 -2.90353
1430 1 2.55794 14.8627 5.40564 -2.06406 -2.88617 4.09823
1431 1 -7.94591 0.864902 -9.57929 1.90114 -0.220466 1.95082
1432 1 -12.6489 8.98194 22.2316 2.34188 1.99446 1.50103
1433 1 -17.5912 -12.1738 -15.1224 2.61299 -0.0319564 -1.57074
1434 1 -23.8355 6.33875 20.5066 0.25083 -0.166244 -1.25961
1435 1 16.2532 21.3123 -3.85572 -0.246834 0.152541 -2.94773
1436 1 -17.0153 -3.59261 -14.976 2.80229 3.29459 5.04136
1437 1 5.32179 15.6401 -20.9422 0.668114 -1.70652 -0.71794
1438 1 -1.83703 -1.52959 -12.3592 -3.10503 0.0946994 3.66631
1439 1 -17.34 10.5163 -13.5943 1.76326 3.74416 1.00275
1440 1 -21.618 14.6897 -2.47781 -2.72933 5.7536 -3.65101
1441 1 -18.4631 -17.2724 16.5184 -1.4242 -0.995939 0.353717
1442 1 -20.458 -3.34417 -6.17884 -3.70652 -1.75992 1.05155
1443 1 17.0199 -12.8815 18.0538 2.75453 -3.09079 -0.627439
1444 1 12.0336 21.5476 23.9722 1.49737 -7.58086 2.44933
1445 1 13.7149 -20.938 8.70753 -4.33098 3.61075 2.04621
1446 1 4.1759 -8.88334 -10.1676 -1.86611 1.47127 -2.86839
1447 1 22.4978 -8.00236 -19.01 1.47901 -3.80326 0.521753
1448 1 -14.8961 2.81891 5.35589 5.65031 -1.23241 -0.990133
1449 1 10.8652 -4.38602 2.91433 -4.99285 0.266047 2.61383
1450 1 -6.29446 -3.49004 -8.29118 -2.89316 -2.29342 0.907204
1451 1 11.5744 18.9172 -11.8262 -2.08458 1.53424 3.55401
1452 1 -5.82626 44.6732 -17.8432 -0.747443 -3.20781 -0.128791
1453 1 -1.46267 -21.2165 -8.20225 4.32292 -1.51808 -1.85838
1454 1 8.56786 -12.1227 -1.08309 -0.852265 0.110064 -4.3338
1455 1 -12.1722 -18.2384 -5.00364 -4.80454 -0.283242 4.44414
1456 1 -15.8597 16.6371 12.1061 2.89354 -1.57158 -1.959
1457 1 -21.521 0.841494 -18.5839 -1.91 2.13462 -3.81095
1458 1 -20.4658 14.1761 8.99512 0.825894 5.57418 -2.55936
1459 1 -12.0398 -14.3711 -3.12785 2.72249 -2.54377 0.183832
1460 1 -13.9996 9.34781 -14.8481 -0.473152 1.94374 -5.74152
1461 1 -14.6932 17.006 23.1886 1.81317 1.73256 1.93072
1462 1 -9.67807 -17.46 9.85212 -2.70398 1.22142 1.6999
1463 1 8.05351 -0.941053 13.3383 0.749018 -1.33737 1.82885
1464 1 2.49917 -17.8034 6.61692 3.39643 1.61018 -1.67988
1465 1 -21.4748 24.5752 -12.3281 -4.01197 -0.901702 -0.497785
1466 1 -17.4625 -5.70723 -4.00008 2.54204 6.0814 1.05188
1467 1 21.0116 -15.1597 -13.0372 3.6383 -0.811223 -0.380616
1468 1 17.2889 25.4794 14.8542 3.62405 3.4532 2.3463
1469 1 19.5239 11.865 5.27037 0.426363 -0.703158 3.20245
1470 1 -3.16316 -11.8331 5.03915 2.80576 0.775338 1.89231
1471 1 -1.83303 -7.1089 -8.03298 -1.55085 -3.77981 6.17755
1472 1 22.1358 2.30155 15.288 3.15788 4.38069 2.08314
1473 1 16.1318 -21.2913 -13.9701 -4.68134 0.731266 0.411166
1474 1 0.722398 23.0183 -22.981 4.01307 -1.10806 -4.65533
1475 1 -21.2761 -23.8756 -4.0865 -0.392723 -0.152475 1.74291
1476 1 -19.287 13.7924 -17.9722 5.07218 4.97348 2.30577
1477 1 19.9953 -1.59815 0.00776365 -1.43826 1.73121 -2.68819
1478 1 0.89537 0.418991 2.62971 1.90423 6.99944 0.558418
1479 1 9.79383 -11.1183 9.31741 1.43358 0.430971 2.93292
1480 1 1.81933 12.2785 -5.03518 2.69223 0.660667 0.44438
1481 1 -7.67549 14.446 -1.26309 -2.33681 0.627757 -0.927898
1482 1 5.29392 23.1496 -20.7121 -0.74018 1.63313 -0.530817
1483 1 11.5596 -23.6782 -18.6175 -1.84367 -2.17069 -0.138341
1484 1 -5.25821 10.6518 7.61596 -1.48949 -4.06516 -0.997286
1485 1 6.84606 -10.625 -23.7317 0.553214 5.27867 -1.48861
1486 1 -18.2531 -4.56977 16.9707 -5.84498 0.00927444 2.26502
1487 1 -0.892574 5.20037 -15.889 -0.468399 0.719427 -1.02912
1488 1 -17.794 -15.4093 14.5699 0.934755 -4.13519 0.947083
1489 1 22.4713 14.5627 -1.01025 1.41214 3.15215 -1.58689
1490 1 -20.8795 6.21489 -2.50714 -3.50114 0.676318 0.553322
1491 1 15.1426 5.49583 -8.32365 -0.919512 -2.24871 -0.512207
1492 1 -12.4663 14.4757 11.5656 -1.67153 -2.94938 1.93289
1493 1 -1.74347 -6.59603 -10.8201 7.8441 -0.718448 -0.27699
1494 1 -9.32316 3.91174 -19.592 0.839992 -1.72837 0.159705
1495 1 -18.7281 -7.80532 21.3875 -0.0152868 4.25289 -0.0490601
1496 1 -3.72599 9.67773 -9.82922 -4.01209 -2.56445 4.08565
1497 1 14.3369 -11.3191 -19.2293 -1.89147 -4.47948 1.81029
1498 1 -13.6644 7.93032 12.6444 -0.00706073 -0.851357 -1.9521
1499 1 18.4055 6.05863 23.0566 -2.0454 1.56944 0.550374
1500 1 -17.3715 19.8432 14.9675 3.84247 -2.66649 -0.675766
1501 1 8.80169 15.7412 -14.98 -2.51405 -10.714 0.779982
1502 1 -22.414 -5.34116 -7.48165 0.0883798 -2.55036 -4.48099
1503 1 9.28701 26.1038 -22.0964 -2.86989 -0.17222 4.0796
1504 1 -3.91118 -22.6101 -6.69367 -2.61304 -4.53694 0.219454
1505 1 18.7465 -23.3787 -20.8842 -3.56025 -2.95753 -5.80327
1506 1 14.4961 12.8879 -3.51204 1.10595 3.5464 -1.80981
1507 1 -19.9216 21.7266 -6.4066 -0.843299 -2.22799 2.89372
1508 1 22.4937 -10.2016 -4.20227 1.59414 -1.61742 1.87735
1509 1 11.3121 20.9988 -9.99432 3.86776 -1.64273 -1.35947
1510 1 -15.8306 -10.726 0.331759 2.3525 4.03093 -4.62401
1511 1 -22.1704 -5.81878 15.1869 -2.34076 -0.459945 3.58197
1512 1 -11.2558 -11.203 -1.32715 -1.6166 -0.117257 2.53962
1513 1 -20.7706 1.58864 16.2335 0.610022 0.574676 -3.96724
1514 1 -15.1903 -3.31138 -9.06344 -2.9769 2.09303 -8.18714
1515 1 -4.67488 -19.421 18.5475 5.3401 -1.25745 -4.17545
1516 1 -10.3977 24.2754 -21.9528 -4.82527 -0.322806 -5.71182
1517 1 -22.2567 -16.1142 -9.02943 2.05747 3.76527 -1.06025
1518 1 -0.192759 14.5666 22.4229 3.45886 -1.06678 -2.78858
1519 1 -11.563 -18.4971 3.0499 -7.76575 -1.00058 -0.453042
1520 1 13.0444 3.6796 -16.2274 1.15851 -2.44511 -0.00318387
1521 1 -8.75755 -8.60256 17.7758 -0.165109 -1.71167 -4.51922
1522 1 -14.9175 0.642346 -13.7195 0.284768 0.334041 -2.46866
1523 1 -6.47813 7.0524 17.0738 -2.44546 1.7332 -2.08068
1524 1 -0.0813316 -19.5787 8.94301 0.148917 -0.964579 -2.67592
1525 1 -9.68458 -6.28216 4.02213 -1.79129 2.10397 3.90451
1526 1 17.7632 23.893 1.348 -3.35487 -0.077396 -1.04297
1527 1 2.73657 1.06478 -7.71533 1.77074 -2.6029 1.48371
1528 1 11.4443 14.7703 16.5773 -1.56371 -0.286129 0.99492
1529 1 -7.95024 2.65639 13.4577 2.04304 -0.973995 -1.29038
1530 1 17.7896 16.9735 5.6685 1.47346 0.474309 -3.50704
1531 1 8.99539 -8.42427 9.14218 3.40077 -0.968976 0.226789
1532 1 18.3554 -7.20778 -17.859 -1.93087 5.47348 -1.23739
1533 1 10.375 22.6917 11.7784 -0.889941 7.32461 2.32994
1534 1 -17.0579 -6.3217 11.6065 -1.45092 1.70404 1.84533
1535 1 1.65573 -9.88952 14.6466 -1.23641 -0.216829 -1.16651
1536 1 -8.60504 1.98913 23.7208 3.28637 -1.23486 4.62764
1537 1 -3.56981 25.6935 -17.3978 -0.982321 0.953707 1.45553
1538 1 4.66464 18.025 17.5321 0.144792 4.28958 -3.36793
1539 1 1.41589 7.98606 -19.0154 -3.65953 -0.551868 -5.64837
1540 1 -21.2683 5.17543 23.1752 -0.980336 3.2151 4.82303
1541 1 7.5397 -20.0359 -8.70331 0.656635 -3.44555 -2.18426
1542 1 -20.9425 -3.78924 16.6854 5.39777 0.782306 0.0523067
1543 1 3.58399 1.2396 15.171 -0.000347744 -0.469344 4.48744
1544 1 -4.127 22.0518 -18.7407 -4.09159 0.237827 0.433118
1545 1 -6.22546 -14.4065 14.1307 -1.06925 -2.90717 -0.0351134
1546 1 -12.9986 -12.2684 20.8792 2.15059 -1.32558 -0.220951
1547 1 17.2803 -2.29516 -0.587003 0.877538 5.5401 -2.60988
1548 1 18.6088 -23.5822 -6.9652 0.278121 3.87707 0.972834
1549 1 -2.58418 -3.42947 -15.7255 -1.36541 0.898353 5.14503
1550 1 0.168305 -8.97935 -10.2952 -0.69941 4.88999 2.75398
1551 1 10.7685 -3.3972 -6.38218 -2.96282 1.31835 2.68562
1552 1 18.2377 10.5168 -18.7174 -0.413813 -3.62606 -1.79768
1553 1 -10.4606 20.226 -16.1931 5.14155 1.46063 -0.881413
1554 1 -9.27673 -7.90449 -19.0316 -4.27419 -1.02256 -6.76688
1555 1 -19.9731 -3.17592 -3.28053 -0.104099 -4.06426 1.84147
1556 1 -23.9698 -18.9046 -9.96957 1.96237 3.64549 2.76237
1557 1 9.32356 -22.3111 -17.2105 5.17824 3.13448 1.09131
1558 1 9.04965 -17.0716 -0.206053 -2.47276 1.77903 -5.51028
1559 1 21.1782 17.8993 3.06256 -6.5192 -2.50861 -1.1874
1560 1 -18.4778 -18.9705 20.7999 0.158547 -2.06831 -1.08142
1561 1 20.4471 17.7328 -4.18591 -1.2185 2.83268 3.49134
1562 1 -0.116155 -3.3153 0.213846 1.40309 -0.248972 2.83302
1563 1 -4.55703 -5.2522 12.3381 -2.02921 1.35732 1.13456
1564 1 8.67212 15.0824 -8.47427 -3.49153 -2.16806 -0.288696
1565 1 -3.81429 15.9071 -12.0946 -3.14198 0.0434553 -1.35169
1566 1 0.263611 -6.40642 7.9077 -1.19746 -0.0217705 1.00569
1567 1 1.48466 -11.0488 -23.4249 -1.44332 2.30434 -1.4609
1568 1 16.8987 21.3922 -11.978 5.74802 3.72311 3.81018
1569 1 8.68319 12.8302 3.37627 0.144821 -1.66349 0.321761
1570 1 -22.9273 3.11481 -11.907 -1.05074 -0.49544 2.93093
1571 1 -1.95606 -10.9787 -2.7113 -2.34746 -2.68096 -5.36849
1572 1 -0.0944233 -17.1889 12.8329 -1.34295 -0.734103 5.83489
1573 1 -11.3139 -13.3046 17.5979 3.40369 0.140994 0.754914
1574 1 18.6511 -18.7374 3.55515 -2.70595 -3.42125 7.21929
1575 1 -15.9603 14.9709 5.09031 -1.03703 -0.885363 4.10759
1576 1 13.4448 19.3054 -20.3111 3.57419 -0.900534 4.61288
1577 1 16.2414 -24.2246 4.48611 -0.89079 1.70634 3.96003
1578 1 16.7263 -1.27268 -12.0872 -2.50953 -0.933989 -0.411836
1579 1 -4.85529 14.4335 -5.31775 -0.318433 -2.64482 -3.19673
1580 1 -16.337 -23.8691 -6.61584 0.292157 0.124089 5.28311
1581 1 -9.4053 -5.24084 11.6086 -0.347373 6.3136 1.40064
1582 1 -13.9624 7.12361 -1.00515 -5.13589 1.37653 -10.9177
1583 1 10.4572 -2.54538 -3.34019 0.925727 -4.90894 0.564134
1584 1 -5.68191 -3.23086 15.1405 2.47215 1.37739 2.90665
1585 1 -8.02886 -13.9347 20.6584 0.210483 4.63753 0.351025
1586 1 -18.6026 -23.0436 -0.0524131 0.252357 0.220808 -0.810355
1587 1 18.7768 -5.19498 -11.3718 1.58793 -1.57733 0.467557
1588 1 2.92317 19.8019 -20.5627 -2.75301 2.75624 0.209794
1589 1 -9.90614 -21.652 -3.02185 -1.74981 -3.89287 3.65033
1590 1 20.0388 9.81892 -15.2793 -3.24884 1.62291 7.05078
1591 1 15.5577 13.3156 0.245913 1.14743 -1.94324 -3.06929
1592 1 19.7572 8.89026 14.8762 3.4943 -4.38329 3.09003
1593 1 -0.222065 23.5523 -16.4858 3.22057 -1.05666 0.47324
1594 1 10.4007 3.65583 -1.87135 -2.02205 -1.05958 -1.5712
1595 1 7.3723 15.0074 -3.06966 3.6391 -4.31927 -3.81351
1596 1 -2.97418 -4.30069 -18.5142 1.40243 4.65877 1.35806
1597 1 18.3142 45.9426 6.28251 -4.58209 -4.5079 1.40293
1598 1 4.40072 13.5296 1.40938 0.455088 0.0148399 3.42795
1599 1 -22.0969 -3.93303 10.3993 -1.59087 0.267674 -2.78767
1600 1 14.7952 -15.9343 -15.8284 -0.0674948 -2.67117 -1.70982
1601 1 6.98487 14.3607 -17.0514 -0.825014 1.41941 -9.43096
1602 1 -19.425 -11.7535 -17.4534 1.0125 -0.205232 -3.93715
1603 1 5.85744 -9.50562 -13.4947 -1.19476 -3.14342 -4.72122
1604 1 20.058 -14.8404 -18.4955 1.10172 -3.18765 -0.426229
1605 1 -0.869886 0.588059 -10.8077 -3.06699 3.04061 -1.03272
1606 1 -20.741 18.5618 5.21883 2.79604 1.99775 -2.40723
1607 1 12.0726 -22.5192 -15.6778 1.97973 -0.231889 -0.151105
1608 1 23.1095 3.22734 6.61279 -5.24776 4.47894 5.42413
1609 1 -20.9331 21.2558 -18.4944 -1.32673 -1.79802 -5.6269
1610 1 -10.2257 20.8751 -13.2709 -2.80166 -0.95554 0.977026
1611 1 7.33533 10.7776 -3.96398 4.48427 -3.95189 -2.28562
1612 1 -22.1667 -19.268 12.7414 2.65772 -2.70467 3.90418
1613 1 -0.0258066 -14.9444 0.168693 -0.42501 3.99374 -2.10194
1614 1 -14.1463 -10.8341 4.05582 1.59372 -0.0561829 -0.987645
1615 1 -2.72752 -17.622 -13.4633 -1.1519 0.356235 1.54233
1616 1 15.4451 -13.7679 -19.9269 3.90988 0.124381 -4.60161
1617 1 -13.3901 -11.263 -9.77388 5.1677 2.78457 4.25241
1618 1 8.74024 17.2944 14.7377 5.99544 0.785469 1.76079
1619 1 13.7468 15.193 18.2002 2.03528 -0.181453 3.05758
1620 1 16.1879 -9.75701 -6.2551 2.95134 -1.59343 1.41006
1621 1 -15.9157 3.12475 11.9842 -3.69605 -2.10493 -1.26441
1622 1 -15.4205 21.6606 14.4395 0.657091 1.52553 0.127525
1623 1 -10.7082 -16.1001 14.1877 -0.0764721 -2.29699 0.330242
1624 1 5.91471 20.4787 -19.6941 1.85732 -0.924482 2.03594
1625 1 13.4748 11.4933 -11.5405 -2.7307 -5.65535 -5.15899
1626 1 15.4151 -1.56089 12.6214 2.39848 1.90354 -1.63103
1627 1 18.8207 -6.0217 22.9382 -0.292813 0.635381 1.45029
1628 1 19.7506 2.75519 -0.562765 0.18499 2.78332 -1.99356
1629 1 -6.66658 -23.9219 17.4226 2.07564 -0.788662 1.16781
1630 1 10.7299 -10.7689 20.7315 -2.71394 2.3655 -4.89719
1631 1 -23.3815 -19.6093 8.75289 3.18414 -1.06953 -5.32873
1632 1 -4.91842 7.19799 -21.4998 -4.46546 2.25275 -0.268769
1633 1 18.9211 20.0557 -20.7948 3.33695 4.55714 2.09071
1634 1 -17.4287 -10.2257 -22.0982 -4.67738 -0.805276 2.16626
1635 1 7.93326 -15.5664 -10.8418 5.44089 0.326298 0.682797
1636 1 17.4558 -11.4437 15.1716 -1.62019 -1.68473 -0.598582
1637 1 -1.60732 22.2822 -2.37892 -1.23102 2.88323 0.992379
1638 1 16.1179 -4.08119 -18.9029 0.378814 4.39496 -1.78747
1639 1 12.9128 10.9731 17.6482 -1.51959 6.95201 -0.11341
1640 1 -16.9147 -22.9018 -11.9204 -4.72579 -1.2336 -0.827916
1641 1 19.6403 -12.1004 16.9955 -4.62428 -2.2776 -1.87123
1642 1 -1.95652 22.9576 6.06344 2.84709 1.94844 -1.48323
1643 1 -6.31113 23.9767 -9.53483 -0.816293 -2.33357 2.62003
1644 1 -16.7352 0.463162 10.4251 3.34468 4.10437 0.0728934
1645 1 -5.12222 -4.01481 -5.54047 3.82641 -1.96633 5.5247
1646 1 -21.0216 -6.98938 -18.62 1.89316 4.5536 -0.351947
1647 1 16.914 12.3486 -16.75 5.01835 2.28602 -0.102371
1648 1 -20.8056 -15.8382 -23.2576 0.140415 -3.02056 1.95416
1649 1 -16.973 -6.14342 -10.2505 -0.147192 -0.145541 3.09793
1650 1 12.406 -3.66998 -14.0446 -1.67434 -0.731788 0.420595
1651 1 15.4396 -18.7077 -0.865826 0.357534 -0.484714 -2.61581
1652 1 14.9334 3.04236 -21.0602 -2.46656 -2.89668 0.0198599
1653 1 12.5748 -23.8595 2.47644 -4.29491 -0.926988 0.894154
1654 1 5.94474 -19.701 12.2802 -4.69514 -1.12249 3.78173
1655 1 -2.91524 14.1374 12.7715 -3.4768 -0.34826 -2.72954
1656 1 -4.503 13.81 19.5855 2.90049 2.29234 -0.625323
1657 1 15.605 7.53805 -12.4713 -1.73438 -3.60175 1.61912
1658 1 -18.297 20.888 8.63451 0.0489981 -5.86633 -0.712508
1659 1 -6.69855 -23.4203 7.26801 -1.86737 -3.34031 1.65178
1660 1 4.29472 -11.1173 22.9438 -2.61016 2.02848 5.02891
1661 1 22.9882 -2.02067 16.5725 -0.0457814 -0.769655 1.47036
1662 1 -9.21133 -22.3791 -8.50146 -0.356384 -0.887283 -3.41433
1663 1 -14.5992 -0.873298 -0.615104 2.85461 2.32688 -1.76303
1664 1 3.65669 -14.5972 -14.5965 -4.23423 -1.72696 -5.70633
1665 1 -5.7352 8.84972 18.888 1.38247 0.057335 -1.15056
1666 1 14.9393 -9.68644 -16.7791 0.635752 -2.84816 2.65674
1667 1 -12.6689 -2.54699 8.43778 2.75143 -0.208315 -3.65716
1668 1 -9.49197 18.8377 7.56226 -0.672016 4.50776 -3.56415
1669 1 15.3635 -23.6517 -13.1662 2.10603 0.566063 -1.99707
1670 1 3.60812 14.8513 -4.56331 1.24732 -5.25522 -0.156198
1671 1 -14.4271 11.2459 22.0677 -1.07619 1.54517 1.83564
1672 1 2.42067 11.2835 22.7662 -1.52129 -4.2796 -0.266914
1673 1 2.2357 -16.687 0.978637 -2.07255 1.21604 3.28456
1674 1 1.97174 -3.59371 -6.1143 2.70717 -5.24812 2.41162
1675 1 2.66429 9.30285 14.7858 -0.644679 -1.84856 -1.75796
1676 1 -18.2837 2.95304 -4.0384 2.37249 2.6605 2.91782
1677 1 22.8304 -16.7382 10.5227 -2.25441 0.670895 0.549669
1678 1 4.69204 24.2696 -18.19 -0.931638 -0.146507 0.753862
1679 1 -10.2686 23.3215 18.5206 -3.16337 0.676091 3.34924
1680 1 -23.8926 -16.5929 -20.59 -5.2399 -1.66325 2.64861
1681 1 -15.4163 -8.33851 -20.8636 -2.49682 0.0782074 -0.178113
1682 1 8.84763 9.04313 -0.172194 -0.123561 -2.11183 0.763659
1683 1 14.2385 25.2915 -17.1182 -1.7533 -0.865789 -2.03234
1684 1 5.39053 15.5207 16.6272 0.0761114 -1.04397 -3.43176
1685 1 -22.6593 16.5495 18.4438 1.35439 -4.29937 -0.705724
1686 1 10.5395 -11.109 23.7536 0.486881 -3.20281 -2.91744
1687 1 18.1008 -15.0897 -14.296 -2.47916 -1.54973 -0.998216
1688 1 -18.053 -2.04204 -12.5414 -0.547799 0.338204 -0.240788
1689 1 2.10891 -23.2663 -0.555943 -3.3865 0.120702 -0.396469
1690 1 -6.66201 -23.5755 12.7798 -0.213077 1.87932 -2.49688
1691 1 -16.7473 -11.0299 5.56401 -3.0328 1.25212 4.25609
1692 1 -7.00993 21.1133 -5.81569 2.06398 7.85065 1.25652
1693 1 23.1836 12.3067 21.8834 -2.69711 2.32005 1.52494
1694 1 -14.9739 4.39713 -11.8839 -1.79676 0.474799 0.209068
1695 1 17.9752 46.3497 -9.67004 -1.10755 -3.6951 -1.61637
1696 1 13.534 0.567658 2.20177 -2.35224 0.0443961 -2.10279
1697 1 -11.4676 -22.3219 5.84589 0.244036 -0.167925 -0.504979
1698 1 -9.91128 9.9857 -2.27862 -0.905148 1.83628 -2.0552
1699 1 12.9162 0.235798 12.901 2.2365 1.78442 2.8293
1700 1 14.7827 -1.44156 -14.0558 -3.93357 -1.76166 4.42512
1701 1 10.3061 23.1041 -3.79912 -2.15053 -2.12268 -0.0993341
1702 1 3.62946 -20.5686 10.323 -3.97498 2.40161 -1.16964
1703 1 3.39208 5.26216 -16.9941 1.02927 0.119775 -3.14307
1704 1 -9.11359 -9.51017 5.52829 2.10305 -0.703969 -0.226068
1705 1 -1.74502 26.1531 19.1775 -2.76318 -5.98576 -2.36752
1706 1 9.37509 8.82464 -19.9933 -4.41072 0.0904216 -2.55673
1707 1 -11.603 -9.124 17.051 -2.55647 0.231305 -3.41494
1708 1 -8.10775 25.5154 15.1261 -1.12654 -0.566584 -0.710552
1709 1 15.9078 18.3963 -0.906369 6.29913 -1.84848 3.91717
1710 1 -7.54513 -19.8394 -13.338 -1.86126 2.76133 -4.72637
1711 1 -1.05846 2.67333 3.11878 -0.922102 -1.80228 0.338155
1712 1 9.6559 16.1362 -22.0454 -0.836369 -2.04255 5.00153
1713 1 21.2648 17.3355 10.0042 -2.9498 1.67377 -0.50347
1714 1 6.924 0.102343 -12.8555 -2.47631 -0.957414 -0.33777
1715 1 11.1127 26.3268 17.6126 1.20613 3.80005 1.66292
1716 1 15.5816 46.3845 23.4793 2.49735 0.227624 -7.53654
1717 1 11.3467 -16.6233 -2.02388 4.46639 0.728638 -0.956466
1718 1 5.61893 -19.3091 -12.4472 -4.39588 0.377798 -1.14186
1719 1 22.5998 8.54903 -1.45381 1.11422 2.43369 0.410437
1720 1 -4.4196 -23.6245 8.64539 -2.236 0.211685 -0.549854
1721 1 6.33069 2.31328 10.3246 -1.04286 -0.154638 4.65761
1722 1 19.9445 -23.153 14.6169 5.21798 -5.70902 1.9673
1723 1 -23.6987 17.6059 2.8469 2.79674 -4.43243 -0.330533
1724 1 -17.5007 46.1592 -4.23794 1.3695 -5.96553 3.63165
1725 1 -15.1316 8.45946 -21.6106 0.203143 -1.0805 -0.913668
1726 1 17.98 22.4504 22.9466 1.93145 1.82168 1.80862
1727 1 22.8441 -4.93906 -18.8813 1.76205 3.70809 -1.4216
1728 1 -22.7475 -9.53968 -19.4803 -0.945618 -0.70968 0.245276
1729 1 -14.3696 10.6084 13.7261 5.51989 -1.96338 -0.294954
1730 1 -4.495 -7.88303 -22.7547 -1.20559 -3.9194 -1.87105
1731 1 21.458 4.28586 -2.01283 1.20375 -0.958106 -2.7636
1732 1 13.8747 -13.8098 8.0561 3.51189 -1.27179 0.530617
1733 1 -10.2196 -14.7737 5.98443 1.48166 1.40448 2.52117
1734 1 -8.00177 25.0785 -20.6317 -2.33116 -4.54538 2.25243
1735 1 1.51014 19.8754 -17.7579 4.28477 -3.42384 -1.93412
1736 1 18.4953 2.51658 10.0643 4.12885 1.21118 -0.801083
1737 1 -18.0173 1.2283 -8.49473 1.36832 -2.86414 0.435444
1738 1 6.13005 12.0209 -22.2537 2.98972 1.70072 1.76997
1739 1 -10.0105 -17.3904 16.8688 -3.17524 -6.30618 -1.2166
1740 1 3.06296 22.6237 17.9089 0.514612 1.46964 1.99729
1741 1 12.1655 12.8891 21.5549 -2.1929 1.83807 1.32609
1742 1 0.732846 -8.48332 20.7165 -0.970127 -7.57601 -0.285395
1743 1 19.2382 -16.2032 6.93347 -2.37972 2.1915 -1.82579
1744 1 13.8993 24.2089 -7.44923 0.607682 5.15984 -0.459956
1745 1 8.7618 12.5045 -5.77242 2.33501 7.92673 -0.299307
1746 1 16.6575 23.6465 -13.6207 -0.0689606 -0.909529 2.9962
1747 1 4.09369 -14.493 -7.85615 3.11858 -1.90296 3.05355
1748 1 15.3336 0.472857 -4.7222 0.0573009 -0.670885 0.292843
1749 1 20.592 10.6489 12.7 -2.8322 1.04374 2.60154
1750 1 13.213 26.139 11.1158 4.32244 3.24717 0.380596
1751 1 0.721941 -11.7911 16.6378 2.24724 -3.65302 -2.16565
1752 1 -23.7183 16.1984 -19.163 -0.636291 0.22311 -0.303068
1753 1 -21.9034 -14.4883 -20.9188 5.04594 -1.31436 -1.79253
1754 1 -23.7134 10.9588 -20.9419 1.58425 -2.68424 -3.10045
1755 1 -10.5979 -0.424505 -10.4857 1.3844 0.450759 3.17656
1756 1 -17.079 4.35 6.43338 4.74947 8.27659 -1.76645
1757 1 17.5935 -18.2046 -7.75757 3.78547 1.82369 -2.42208
1758 1 20.8053 -24.3107 5.76824 -4.24219 -5.0872 1.36556
1759 1 22.1689 8.50674 10.7229 2.85957 0.42719 -1.61026
1760 1 -15.2396 -14.6029 -22.1538 2.54214 2.75459 -6.76396
1761 1 23.3853 -18.0797 -22.8532 -4.1871 2.89281 0.21195
1762 1 5.14869 18.3079 6.43903 4.15749 -1.61541 1.7955
1763 1 -4.37557 3.80397 13.9432 -1.97977 3.15949 -0.834191
1764 1 -15.5905 18.4011 -11.7146 2.81389 -0.044923 -0.521209
1765 1 4.3718 -14.177 -5.06405 3.14895 -4.97659 -1.59704
1766 1 -19.1281 3.60271 15.1489 0.174857 0.215668 -0.614178
1767 1 8.71466 26.5654 18.9998 1.99226 -2.02221 2.1892
1768 1 12.8211 -2.19298 7.04631 -2.87683 -5.32089 2.59312
1769 1 -23.2744 18.7436 14.7242 2.85232 1.64773 -2.61403
1770 1 -6.51643 -1.29951 21.6981 1.24316 -0.15066 2.46041
1771 1 0.342756 22.7969 9.65753 1.86011 3.0148 1.95137
1772 1 12.8894 -22.0219 0.278615 2.28646 -4.31025 2.65323
1773 1 17.3946 15.1939 10.2291 1.60424 1.47369 -0.703081
1774 1 17.2713 -20.3386 21.5385 -2.3434 0.57929 -3.70635
1775 1 8.35332 13.0485 -11.3189 -0.423785 -0.851468 1.21902
1776 1 11.2788 11.2598 -4.4914 -2.49306 2.04112 -4.23045
1777 1 -22.802 -11.7652 16.016 -2.50129 -5.00748 -3.74077
1778 1 -17.0495 -7.81371 -12.4955 0.799951 -2.99248 -0.60894
1779 1 4.83671 5.01341 -9.62043 -3.87263 -0.292626 -3.82525
1780 1 5.80498 5.47741 -5.95604 -2.16453 -5.79301 -2.57554
1781 1 7.63977 19.7453 -22.042 -4.06112 1.58782 -2.37792
1782 1 -23.071 -15.582 -11.9514 -0.133555 1.21717 0.0202811
1783 1 15.8602 6.36466 -5.66113 -0.754599 -1.42108 5.56782
1784 1 -11.303 14.7494 14.8871 1.68723 0.919011 -2.8814
1785 1 -5.70242 5.11642 -8.30355 1.73444 -2.49286 -1.59952
1786 1 -4.69307 1.76111 -6.41262 -0.918009 0.125007 0.233092
1787 1 7.32361 19.4811 -10.6889 2.93175 5.19466 -2.58841
1788 1 -15.3166 -17.9592 16.1608 -0.90699 2.9779 -1.98267
1789 1 23.2201 -1.83749 -6.20281 -5.36085 7.3538 1.44402
1790 1 7.85737 4.03698 -16.0602 -3.08751 2.04875 -3.80936
1791 1 1.47446 -7.18062 -15.0421 -0.384708 -0.541993 1.10618
1792 1 -14.2594 6.13802 7.38673 -1.74481 -0.924666 -1.31946
1793 1 19.9989 7.4866 -21.2758 3.90986 3.38803 -4.56773
1794 1 19.7614 2.3237 -23.0814 0.816409 -4.62047 3.18941
1795 1 18.7185 -2.63579 -10.1331 -3.26622 2.28973 2.07221
1796 1 -20.7683 -12.398 -22.8459 1.49053 -2.13936 5.44674
1797 1 -0.347482 18.9304 16.8403 -0.614848 -0.151756 -1.43418
1798 1 15.7466 -7.60699 -18.5785 -6.56532 1.76131 3.41098
1799 1 -11.4313 10.4828 -15.8249 -2.60118 -0.816405 6.7856
1800 1 -0.439865 3.86037 14.3092 -0.749058 1.56133 -1.82603
1801 1 -9.72226 -18.8093 -6.63395 -1.10886 -2.04345 -3.77952
1802 1 -14.4435 -21.3293 -12.0026 3.78682 -5.19613 -4.06706
1803 1 -12.8176 13.4856 -8.44879 0.0667758 -0.252255 -0.266544
1804 1 -1.03326 45.0962 -15.9396 -0.767782 -1.43257 0.695948
1805 1 11.4323 3.04918 -6.4254 0.570479 1.74833 -1.05006
1806 1 10.461 -5.5278 16.6366 5.17297 1.57748 3.20247
1807 1 -16.6557 -8.3149 23.344 -4.40067 -2.59557 -1.8821
1808 1 22.2741 -13.3989 16.4587 1.39685 1.42308 2.29617
1809 1 10.2014 15.7811 -0.751293 0.0170851 -3.23388 -0.737026
1810 1 11.0505 -22.8735 -6.98284 2.77889 0.893282 1.13345
1811 1 0.809411 4.96283 20.7956 -4.11764 2.95477 3.15565
1812 1 -12.1033 -4.84091 -20.3154 1.54416 2.50358 1.23841
1813 1 -18.5799 8.74116 16.4974 1.53581 1.49231 -0.523342
1814 1 9.9666 5.175 -7.81437 0.192917 1.53335 -1.13311
1815 1 14.6373 -9.10037 22.3148 -5.85795 -0.993073 -2.80421
1816 1 2.79526 17.6747 -10.3858 -0.477199 -2.85971 2.14997
1817 1 -0.704397 17.1533 -17.5987 -2.34332 -2.46124 -2.37437
1818 1 -22.2608 -11.6991 6.43733 2.74478 -2.90352 1.39585
1819 1 -13.4182 -11.2224 17.8936 -3.41329 -2.46727 -3.44792
1820 1 16.0626 10.5094 -12.3262 3.31433 -2.43736 0.208054
1821 1 20.0456 25.7964 10.6488 -1.01209 2.2554 -0.684595
1822 1 15.3954 -2.31323 -3.81169 1.18395 0.815507 -3.52526
1823 1 8.12249 -22.6436 9.58701 0.455644 -0.459625 -1.36559
1824 1 -16.0838 -16.9342 8.40653 -1.60342 -0.0468542 6.62888
1825 1 8.30814 -11.0854 -5.15162 3.2678 4.25001 0.327471
1826 1 20.6542 9.3137 3.06369 0.566891 1.95772 4.87529
1827 1 16.3473 -22.4645 -2.73961 3.16289 0.949032 0.976735
1828 1 -12.2362 -21.9759 -18.8013 -2.55595 0.963116 0.794443
1829 1 4.24547 19.9803 10.9144 -2.61121 3.64517 0.931833
1830 1 -17.3607 4.73838 -15.7002 4.57554 -1.14894 1.9482
1831 1 13.8494 -15.9005 -3.21648 -0.101151 2.07312 -1.73411
1832 1 -21.7414 -12.801 22.1931 0.387145 1.22212 -1.29716
1833 1 -12.8971 6.41524 18.3563 6.04576 -3.82082 2.056
1834 1 7.39365 -7.69451 -20.5289 -0.693061 -3.37991 -1.95959
1835 1 4.54769 24.7166 18.9878 3.45686 3.45656 -0.644424
1836 1 -10.6317 45.2138 -18.7237 -0.132077 0.81583 -1.53485
1837 1 13.7099 -23.858 8.64385 -1.26373 -1.27882 -0.413851
1838 1 18.6298 21.504 2.76263 0.0768516 0.505056 5.00687
1839 1 18.6167 25.0796 3.67551 1.389 -4.90656 -3.05599
1840 1 -18.5743 -12.02 3.5354 -4.76048 -1.96839 -2.54117
1841 1 8.70614 -24.018 -10.6669 2.11431 -3.02002 1.48191
1842 1 14.7268 -20.2537 1.67642 -2.51862 5.5402 -3.12739
1843 1 4.20762 -4.67601 -16.7205 3.78154 -1.54269 3.87947
1844 1 -3.49358 -3.00301 6.2686 0.00353819 4.87572 0.930075
1845 1 22.5594 17.8818 -20.7215 -5.89532 -4.01634 -4.63769
1846 1 11.6615 -19.7457 7.44612 -1.38874 5.56919 -7.78717
1847 1 20.3365 -17.0393 19.8294 -1.59334 -1.73964 1.25883
1848 1 3.93417 9.24146 -18.6093 -1.37916 -1.22021 -1.26394
1849 1 12.4394 -23.6302 -13.101 -0.479217 2.51927 -0.918474
1850 1 18.2554 -20.8503 -7.84023 0.904058 4.58583 4.96097
1851 1 -5.4849 3.39652 -0.256848 4.72363 -2.46259 -0.454438
1852 1 0.30496 1.3662 -19.5737 1.16281 -1.17425 -3.26813
1853 1 4.45543 -11.2097 6.89732 0.913414 3.23616 -0.498043
1854 1 3.05716 46.5965 13.0418 3.38009 0.372551 1.44271
1855 1 2.7076 20.9101 -15.4778 1.8742 -0.799307 -0.0427132
1856 1 6.62216 -6.21109 -17.9167 3.85689 2.43109 -0.499806
1857 1 -0.936469 -19.6967 0.011712 -0.752728 1.88422 -1.05311
1858 1 2.4389 -17.1559 -14.4013 -2.71595 0.0277213 -0.408473
1859 1 7.71734 -16.2468 -16.6615 2.12028 4.72378 2.71901
1860 1 6.63841 -0.350308 11.0518 -2.23154 1.16361 1.71785
1861 1 -16.4297 -22.006 -18.0125 -1.20618 -0.999181 -1.59287
1862 1 -12.1764 -2.25502 -8.97649 -2.68014 2.35895 0.926149
1863 1 -3.39368 -16.7855 -7.21101 -3.1028 -0.581842 2.90736
1864 1 -7.15822 13.019 20.4693 0.899914 1.13827 -0.431657
1865 1 -10.9875 -4.65324 7.06045 -0.826903 0.274867 -1.65761
1866 1 5.32558 23.3721 12.2638 3.92252 -2.06949 -0.565606
1867 1 6.93008 -9.90352 -2.0587 -0.810839 -1.56228 -0.357397
1868 1 -4.87772 2.88806 16.4613 0.507832 3.52462 -3.68012
1869 1 -1.48216 24.35 16.9892 0.860119 1.79775 4.03132
1870 1 -21.4698 11.0834 15.8457 -0.944577 0.139273 -5.93675
1871 1 16.4792 -13.6139 4.40871 5.22749 -4.46079 2.99981
1872 1 1.0487 -10.9364 -12.0053 1.44953 0.633851 -6.46563
1873 1 -10.5404 18.4771 10.3761 -1.27429 8.80502 -1.56819
1874 1 -7.65056 -17.7214 -20.5298 -0.771015 1.62882 -4.40485
1875 1 22.0916 -7.10252 -9.72194 5.33872 -0.943814 -0.993967
1876 1 -21.534 9.76792 -19.8649 0.176396 1.13643 5.10397
1877 1 -14.2787 -4.63785 9.30998 -0.154885 1.41008 -0.336612
1878 1 19.4032 24.2936 -0.99526 -6.73396 2.96365 -1.28582
1879 1 -17.5377 -17.1417 -20.2313 2.91854 -1.46039 0.668835
1880 1 -2.43406 25.9609 -19.8274 3.90817 -1.73343 0.999887
1881 1 12.9199 4.63465 18.0078 0.825726 0.899529 -1.86189
1882 1 -10.0758 9.89997 18.9774 0.536528 1.80696 -1.39705
1883 1 -8.54904 -13.5154 -5.99159 -2.12014 -5.09837 -1.8281
1884 1 16.2683 17.2318 8.37102 -1.29862 0.719867 6.13282
1885 1 -8.46936 21.1332 20.7835 4.85559 3.66938 6.30726
1886 1 18.351 24.7336 6.60273 -2.46732 0.595027 4.31014
1887 1 17.29 -8.26733 13.9174 -0.82815 -1.35211 0.453909
1888 1 -7.53406 -17.6906 -11.4557 2.17092 3.81413 -2.34295
1889 1 -10.7358 2.56483 9.82866 -3.56244 -0.431032 -2.98635
1890 1 -21.9984 7.58385 22.557 0.0823259 3.29415 -3.03944
1891 1 -7.83889 -13.5922 -21.8764 2.37377 -0.404716 1.03003
1892 1 -0.833531 -16.0524 -16.6388 -1.61312 0.380676 1.3585
1893 1 4.27065 0.0145056 21.2133 0.147856 5.17457 -0.701971
1894 1 2.0245 -17.6498 -3.99977 0.568333 1.43439 1.48908
1895 1 -19.2539 -7.28083 17.2035 -2.95183 1.7975 -1.37055
1896 1 15.411 21.1682 1.09337 1.58405 1.10304 -1.44098
1897 1 -13.486 -24.1106 -7.13556 3.50903 0.210508 -2.30715
1898 1 -21.4542 21.0124 11.375 0.730732 -4.05937 1.75032
1899 1 -7.35199 18.1916 -5.04269 -2.36803 -4.99393 -0.781607
1900 1 -13.4381 1.33543 7.36129 1.13417 -2.22919 2.04577
1901 1 -9.34787 -14.0868 -17.3346 4.75556 -0.978456 4.00195
1902 1 22.086 -2.22046 -19.5687 -0.896477 3.94086 1.99549
1903 1 0.482676 -19.7127 -17.2615 -5.61628 -3.97038 4.55201
1904 1 -9.45767 -20.5683 19.0199 -3.56293 -3.71991 1.07583
1905 1 -12.0665 9.82338 -9.48046 0.947306 2.99934 6.38966
1906 1 -20.6521 45.0465 11.399 -3.15737 -2.81928 -3.39585
1907 1 -21.3709 -8.67553 12.4002 2.09497 -5.91916 0.0870569
1908 1 -15.4986 -3.49634 1.86614 -4.1707 0.80956 -0.958065
1909 1 8.51336 -7.94187 13.4712 1.78839 -0.802295 0.325156
1910 1 -9.45943 -11.4044 13.9671 0.15394 0.378703 -1.35677
1911 1 18.9632 -1.32394 -5.36723 -2.60286 0.132651 2.60693
1912 1 -15.5302 4.73136 -0.598977 -0.355646 -1.7788 2.68418
1913 1 -1.08131 20.732 -0.0590921 2.08906 -1.05109 2.58378
1914 1 18.4171 7.82984 3.89073 -1.65566 -1.21955 -0.840295
1915 1 21.0824 -22.3142 -14.386 -2.21653 -4.6203 -0.907544
1916 1 -3.65507 17.0762 2.47743 2.73652 -2.11807 2.18694
1917 1 22.0033 24.2668 18.1728 -1.32883 1.59931 -0.584493
1918 1 -19.8066 -0.0836519 -20.3702 -2.8908 -1.31301 -2.74486
1919 1 -20.6162 10.2469 -14.7431 -2.75324 -1.2821 -1.06429
1920 1 23.399 -16.4651 1.10259 1.50286 2.48173 7.91846
1921 1 16.5888 11.0021 -9.28262 -0.0485983 2.53135 2.07514
1922 1 8.96125 16.9949 20.6812 1.61988 3.04427 0.609997
1923 1 8.9377 0.610975 -10.7449 1.18726 -0.0705231 -0.0221756
1924 1 -23.3406 -19.1957 1.78371 -0.112932 0.608491 -0.00940849
1925 1 21.0178 -22.3227 18.0137 -2.08075 -1.39202 -3.69417
1926 1 13.2438 -2.44453 -7.36642 -2.87362 -2.76399 -0.700255
1927 1 -4.95609 -23.8518 -21.0657 4.50771 -4.62982 4.14955
1928 1 22.7239 -4.42781 5.10528 0.104734 -2.91473 4.31682
1929 1 7.34023 18.1265 1.94626 2.53752 -1.27845 -3.14519
1930 1 -7.50321 -16.4365 -17.9965 3.7633 3.96578 2.02912
1931 1 -9.06679 7.02221 -2.34606 2.65156 2.652 2.70467
1932 1 -3.20691 20.6893 5.07497 2.67274 -1.48396 -0.915201
1933 1 -1.82017 19.7193 -18.381 -0.479029 2.91683 -0.387365
1934 1 2.74386 -9.06509 -1.931 -0.286328 1.87776 1.4139
1935 1 18.4195 -16.3376 1.82667 -2.81293 -0.641844 -1.11076
1936 1 18.7593 -22.4566 23.0146 -0.244703 0.826822 -3.84894
1937 1 2.64503 3.38187 19.0884 3.86161 -3.93799 -1.85126
1938 1 1.4066 7.02773 17.5981 -5.80621 -1.22589 -0.898931
1939 1 11.3892 10.3125 0.193242 4.10604 9.06263 -0.193137
1940 1 -20.4892 46.2105 8.71482 -5.96271 2.7351 -1.58561
1941 1 -2.23674 45.4095 -13.6388 -0.783825 3.03744 0.715658
1942 1 -2.6828 9.25289 -1.15856 0.222273 -2.46 -1.52572
1943 1 3.14393 16.7625 -6.55356 2.45552 -3.02504 0.23988
1944 1 -18.8929 -23.2142 -2.70491 -2.84328 1.98978 -0.109294
1945 1 -23.1576 -23.7419 19.2058 -0.290259 3.78376 -3.01711
1946 1 10.4809 8.20146 -7.46981 -2.79095 6.60563 -5.45035
1947 1 -16.6781 12.381 -15.7862 3.62103 -0.304827 0.833887
1948 1 10.1901 0.107664 -15.2815 -0.455428 3.08972 -3.5095
1949 1 -8.1301 -5.80822 -8.44263 3.20886 1.58986 -1.87244
1950 1 19.6365 23.2913 -7.37775 0.262767 2.91925 -0.581993
1951 1 -2.32721 -14.5653 15.2828 1.22884 4.03407 2.24157
1952 1 5.07701 -15.5345 -10.398 5.79034 -7.77468 -0.949399
1953 1 17.4801 -20.6115 -0.74696 -0.658654 2.74137 3.43659
1954 1 5.19483 5.82254 9.59194 -0.170261 3.38799 -0.508551
1955 1 -11.4214 -17.1147 21.779 1.22521 0.757356 -0.128774
1956 1 -4.19258 3.63681 8.52101 -2.97549 -3.62478 0.69416
1957 1 13.7871 16.2378 9.14917 0.219271 4.82569 1.44441
1958 1 14.4378 6.80629 16.2285 -3.90168 0.0151853 2.04919
1959 1 -22.5399 -4.12967 -2.38477 1.97208 -0.315461 2.65306
1960 1 -16.6765 -4.59519 -20.2758 -0.567028 -3.10617 -2.80386
1961 1 16.4378 -15.4686 -7.05709 -7.70381 -0.985405 -1.86041
1962 1 -1.67575 -12.0736 -5.36251 3.62759 2.95799 5.11916
1963 1 -0.4276 15.1276 0.846194 -4.69637 -4.20009 4.63687
1964 1 20.308 25.7304 -16.2604 2.21622 -2.20773 1.56453
1965 1 17.2202 -2.4227 18.2715 -2.98063 5.22977 1.49603
1966 1 -17.313 -14.3307 -11.2922 -1.97567 -0.309699 -1.30981
1967 1 -15.7437 -24.0676 17.1528 -1.84155 -5.9117 -0.00513671
1968 1 -22.8235 12.0823 12.0124 -2.10461 -0.865751 -3.81889
1969 1 -4.86468 -9.30327 10.7408 3.93043 0.149576 1.34283
1970 1 -24.0716 -6.74988 -2.66938 -3.04539 -2.21542 0.255539
1971 1 21.1264 -5.00931 7.36513 0.122552 0.493113 1.64495
1972 1 -4.55858 -6.79642 10.0137 3.63853 -1.25204 -0.876704
1973 1 13.9548 -19.4976 18.9886 6.12953 2.90546 -1.27399
1974 1 15.6223 -10.8711 10.9826 -2.38523 -2.76371 -5.74377
1975 1 13.5647 -17.8662 -20.368 -0.229393 2.23973 -3.56206
1976 1 22.982 -9.18762 22.5348 0.597096 3.80679 -1.27151
1977 1 15.4092 -16.799 13.8151 -2.33979 -4.50928 1.66863
1978 1 9.48904 -2.03912 22.3147 1.54978 1.6109 -0.961843
1979 1 -1.15467 24.2489 12.1336 -3.44794 -2.43361 3.98844
1980 1 -23.6364 2.76429 -19.3536 -0.742357 2.54287 2.58829
1981 1 14.5048 23.3043 -2.82289 -0.894355 -3.14865 1.4209
1982 1 -19.7977 -2.14787 23.0592 -1.59508 4.38304 2.76121
1983 1 16.7156 -5.48136 -4.14819 5.23495 4.98029 2.92905
1984 1 1.09017 23.1866 20.2896 2.24463 -6.77711 -2.55756
1985 1 1.27402 -22.8996 -7.81782 3.87615 2.562 -3.93725
1986 1 13.0175 -5.02803 5.04204 3.24371 -2.92844 1.26838
1987 1 -21.9317 2.92309 8.00388 -8.21165 2.57873 -0.738381
1988 1 6.93656 16.72 11.018 0.251094 2.65626 -4.79527
1989 1 -11.677 -14.1225 10.6334 2.42147 0.214257 -0.428077
1990 1 19.7627 -15.608 -4.17525 5.20427 -0.0508088 -0.118254
1991 1 -20.8854 46.495 20.4257 -3.02376 -0.34128 2.13554
1992 1 13.4907 21.9442 5.63939 -3.31997 2.89679 0.630678
1993 1 3.69704 12.3622 -12.6493 5.67802 -0.945062 4.10601
1994 1 23.2601 -17.334 4.03845 -3.62743 0.157515 -2.63309
1995 1 1.62711 5.92828 13.0721 -6.21856 -0.484595 -0.548081
1996 1 -9.21977 6.38987 23.9396 5.80261 -2.96255 3.51324
1997 1 20.26 26.2666 8.03196 1.76687 1.57387 2.08054
1998 1 -11.9961 11.0028 -0.838221 1.12134 -1.79642 -1.07854
1999 1 -3.92367 -10.4952 -23.6308 -5.48841 -3.10693 0.413391
2000 1 2.35599 2.59232 -17.4534 -3.47638 3.96709 -2.11848
2001 1 -7.72191 -13.1589 -3.41948 1.07623 0.0472014 -0.884005
2002 1 23.4911 22.1347 -6.82227 -0.166409 -0.808327 4.76139
2003 1 10.5703 -1.99104 -11.0506 3.84564 1.3644 0.330832
2004 1 0.886565 -24.1728 -23.6146 1.81837 -0.21875 0.59742
2005 1 1.19203 -6.3019 18.6482 -4.35505 -4.61629 -2.12287
2006 1 11.3898 -10.9636 -5.79551 -0.70837 -5.73409 1.17273
2007 1 -8.46824 13.7534 -12.3672 2.3 5.45763 3.08031
2008 1 -11.4621 23.3588 12.2775 1.16289 3.56897 2.17777
2009 1 -2.69668 3.41571 0.690209 -6.27554 3.12694 -2.06288
2010 1 -7.31893 4.53804 23.318 -1.54121 4.0415 1.42969
2011 1 -1.54371 8.25779 19.1733 1.43983 1.64861 3.99407
2012 1 18.1618 -21.1011 13.7531 4.09927 2.26092 -1.59394
2013 1 -15.6841 23.3221 2.79653 0.19713 -0.981124 -0.681466
2014 1 -8.44099 -7.01886 13.8323 4.62736 4.76049 6.14602
2015 1 -3.57364 -5.80959 -2.05216 -0.962354 -1.57523 3.5522
2016 1 -6.23057 -17.0384 -7.00198 -1.74424 1.36667 0.859067
2017 1 12.6056 10.4887 22.9643 -1.61439 -3.50239 -3.64554
2018 1 -18.5984 -2.64987 5.41959 2.0708 2.13481 2.36676
2019 1 0.861242 26.0743 19.9854 0.5904 2.65646 -0.588506
2020 1 9.19689 -14.1804 -14.8358 -1.56331 3.26757 1.17146
2021 1 -3.75242 11.5668 14.1009 -1.53342 1.66033 3.93267
2022 1 17.1726 25.3574 10.1657 -3.84248 6.67532 2.22209
2023 1 -19.4064 -12.7415 6.24544 -2.69976 0.255049 -0.0781409
2024 1 9.70357 10.7151 13.7804 0.0659006 0.368754 -1.41569
2025 1 1.30308 -12.7486 21.782 2.2093 -3.69878 -1.30542
2026 1 6.02226 21.9151 9.97234 -0.868204 0.819231 1.03653
2027 1 5.00706 17.1573 -8.51581 1.68297 -3.36479 -7.75251
2028 1 -0.14419 -3.37756 -19.2412 2.06995 0.198089 1.44
2029 1 16.6278 -9.84921 -1.85735 -2.59998 -1.56697 -3.66368
2030 1 11.1358 -19.0249 -21.6964 -0.454557 -0.772985 -3.03574
2031 1 -5.53059 -20.6304 -11.6933 -1.41817 0.939859 -5.25757
2032 1 -8.63343 4.22557 6.72871 0.90524 2.65635 5.52699
2033 1 10.4555 13.0843 0.264398 0.783054 3.89673 -3.3047
2034 1 -10.5479 -2.85154 -18.8189 -1.67726 -2.75037 -2.73517
2035 1 18.453 -15.8216 22.1279 0.28635 -2.3231 0.340264
2036 1 -14.8992 5.97416 -23.0929 -3.14326 1.09368 -1.75366
2037 1 -18.7812 10.0787 12.3799 -3.50886 -0.632489 -2.41475
2038 1 18.8394 0.362829 14.0865 -2.15293 -2.99254 -3.30009
2039 1 10.0159 -22.4358 -20.702 1.01358 2.62337 5.19808
2040 1 -6.06279 -23.9866 -8.39558 0.0204743 -2.34483 -2.92071
2041 1 -9.53679 -12.602 23.062 -4.79093 1.48801 1.13418
2042 1 7.06241 -19.0791 22.4312 -3.01864 -5.07025 -3.6576
2043 1 16.7609 12.6714 12.9275 2.94967 1.01693 -2.00899
2044 1 3.90558 -8.47741 4.05106 -7.09836 -0.22443 -1.3645
2045 1 7.46704 -18.0656 -18.9745 -3.33465 3.62269 0.4163
2046 1 -7.99786 15.9071 16.6522 -1.52422 -1.19762 -1.53495
2047 1 -5.0252 -13.4374 6.67525 -3.03465 -1.13749 -1.64192
2048 1 2.46652 14.0789 -17.3291 3.3097 -0.917002 0.076813
2049 1 18.2441 25.0529 -19.6556 -0.651483 -3.29438 -1.89158
2050 1 -12.9491 7.19725 -10.2476 -5.00797 -2.51491 4.95911
2051 1 -24.1507 10.2583 -6.11385 -1.80877 0.347918 0.322489
2052 1 -10.9526 5.99963 -20.466 2.00147 -6.2275 -1.50091
2053 1 -21.7639 12.231 -18.1191 -2.55127 -3.5136 1.33627
2054 1 15.0936 2.32319 0.641444 -0.343243 -3.33192 -1.15844
2055 1 4.54383 17.7017 9.1184 -3.34837 -5.2702 -2.42032
2056 1 -6.21219 26.0814 -23.0116 -1.94607 0.427096 2.54721
2057 1 15.7354 -6.26539 5.29463 3.39865 -2.76559 -0.647994
2058 1 20.2582 11.4088 -13.1123 2.59 -3.76618 -2.2227
2059 1 5.76922 -10.5182 17.2115 -6.06957 0.0290286 3.77681
2060 1 -10.2419 -1.90375 -2.08504 3.38561 -1.84314 2.5204
2061 1 -12.3553 -24.1387 -20.5735 3.00135 -2.20018 1.24528
2062 1 -15.3613 20.3705 -9.41175 -1.2195 -1.87832 -0.242444
2063 1 -9.5866 -11.8908 -19.9282 -0.158149 -1.31942 4.80019
2064 1 -13.3734 -17.554 9.34043 -1.57489 0.324613 -0.708077
2065 1 13.0376 -15.5739 20.5864 0.221025 3.56159 0.246819
2066 1 18.1245 5.27017 9.41014 -0.494322 2.64964 0.319628
2067 1 -23.2986 10.8195 19.9927 2.04983 0.374174 2.41758
2068 1 -15.5121 8.14158 -6.42339 -5.08988 0.207006 -2.33031
2069 1 22.4446 -23.2522 -11.8219 -3.00246 -6.84615 1.75628
2070 1 -23.5263 -0.696186 -1.26102 2.23907 1.97725 -0.719607
2071 1 -19.0858 -13.8255 23.0291 2.6996 -1.80496 0.346824
2072 1 -18.674 8.40854 20.774 0.699443 0.790753 1.77729
2073 1 -17.7884 5.20675 -18.7419 -0.582416 1.75128 2.81424
2074 1 0.66976 9.72894 -11.6851 3.20822 -6.99021 -0.874891
2075 1 -7.94466 -20.0479 23.4093 -5.441 3.11598 5.19608
2076 1 -15.0222 26.3326 -9.86681 -1.94539 -0.993203 -7.63431
2077 1 -16.1158 -4.12632 6.69366 0.948672 -4.46557 2.86846
2078 1 -15.8512 2.5114 -22.5111 -1.24123 4.09437 -0.252245
2079 1 4.56491 -12.2239 -20.4875 -1.929 -0.0789509 0.182451
2080 1 -21.568 46.1077 -17.6766 0.620983 -1.97346 -0.261492
2081 1 -23.8542 21.1537 -15.1374 0.307648 -0.677673 -3.50554
2082 1 -10.1927 20.7471 3.81941 -1.44861 5.24241 0.673606
2083 1 21.6078 8.59216 -8.99531 0.765136 2.01997 -2.57538
2084 1 13.8764 19.3844 20.8472 -6.65738 0.299572 -0.922504
2085 1 -19.5997 -19.8476 -9.41766 -0.688762 1.22088 -1.438
2086 1 -11.3005 -10.9353 4.91409 -1.97441 0.374762 2.68077
2087 1 -9.84136 5.27903 -14.8255 0.776414 -0.684333 4.38401
2088 1 7.24761 22.0034 20.8315 -1.08334 -1.31717 2.16246
2089 1 9.07864 13.9771 -18.9582 0.776017 -1.43482 2.59438
2090 1 16.8209 8.49648 16.0814 -3.67314 3.94199 -3.99329
2091 1 -6.745 8.07893 14.3221 -1.28099 2.18578 0.341184
2092 1 -19.4838 24.9113 -22.4801 0.83731 0.775979 -4.38794
2093 1 -2.76466 15.8607 -4.23526 -1.8328 2.68983 -2.31712
2094 1 -24.0891 13.0397 -2.99635 -4.14445 3.03372 2.71673
2095 1 -21.9158 -9.06109 5.59885 0.265376 -3.3742 -2.29965
2096 1 10.8386 -4.48301 0.103709 -3.83946 3.40331 0.4101
2097 1 -5.8013 6.5798 11.9025 -3.19807 -5.70444 -2.51288
2098 1 -14.4235 -15.3552 -4.81562 -0.209474 -0.829488 -0.40113
2099 1 15.6046 -10.17 8.10116 -1.2268 -0.928197 0.188858
2100 1 -1.16388 -5.27968 20.2425 2.79078 -3.34385 -1.16021
2101 1 -22.1088 -7.95917 17.0784 4.33289 -2.29999 2.12463
2102 1 7.76526 6.9815 -7.98933 -0.896784 -0.322637 -2.08491
2103 1 11.8453 -15.6235 -15.9795 -3.59476 0.468109 -5.81351
2104 1 -22.0069 -3.91069 19.4006 5.36294 1.18001 -3.71691
2105 1 14.0581 7.79692 -15.1024 1.79655 -1.70968 1.23227
2106 1 -19.5736 -15.1656 -19.1591 -2.96516 -3.81333 -2.37639
2107 1 -8.82327 5.46338 -12.2678 2.11031 3.34344 1.43396
2108 1 -9.38801 10.9007 0.332106 -4.32488 2.02092 -0.790751
2109 1 -3.65654 11.7921 21.8778 1.01019 -2.87428 -3.73854
2110 1 4.81028 9.71651 -0.121841 6.40156 0.165575 -0.695883
2111 1 22.2829 -11.6291 18.7827 1.57019 0.247602 -0.219026
2112 1 -10.1447 1.83457 17.0006 -4.12296 0.831793 -1.97928
2113 1 -19.0468 -2.96119 19.4035 -3.78143 -4.21009 -0.368673
2114 1 -0.0371186 -24.1305 19.5096 0.775469 1.87968 2.46232
2115 1 18.5377 -14.6443 -11.2998 -0.489331 0.342109 2.23328
2116 1 18.5202 -5.39322 3.33345 3.17811 -2.16966 0.331404
2117 1 23.2064 23.7061 5.27677 1.00559 2.3974 0.634562
2118 1 -13.0929 -2.66932 -5.20417 3.9429 4.68324 -5.2112
2119 1 -11.7703 17.6797 2.42122 -1.65566 1.06493 -0.291786
2120 1 17.1135 -20.0098 10.0307 1.12799 -2.48674 -0.65046
2121 1 8.54856 -19.3585 -23.093 -5.63698 -1.97353 -3.67398
2122 1 11.8171 4.30329 -12.726 -0.373763 -3.29248 4.38119
2123 1 20.4749 -9.49537 -17.7442 -3.87141 3.69929 4.84655
2124 1 20.0471 -5.26012 -19.1323 1.69895 5.78185 2.70877
2125 1 -0.0743923 -16.1204 15.5326 0.851994 -1.35659 -0.200282
2126 1 11.6595 -6.55568 -4.34491 -4.03698 -0.22841 4.67328
2127 1 -23.1325 -11.2083 -21.7518 -4.64311 -0.261784 3.72768
2128 1 -17.737 -20.9968 -4.13344 6.15888 -1.05132 2.40586
2129 1 -12.8685 -22.4854 13.3753 2.52868 -0.360647 -1.70363
2130 1 -21.8408 8.72148 -6.70169 2.91075 -0.2492 1.304
2131 1 16.5863 -5.1641 0.235574 -0.702894 -3.48499 -0.325867
2132 1 12.1597 -23.1726 -22.592 4.49682 -4.40258 -3.09213
2133 1 -12.9669 -10.4101 7.32265 -1.20723 3.05285 7.97572
2134 1 10.5861 24.4455 8.23132 -1.04989 -2.93333 2.11068
2135 1 16.4517 13.7469 22.4891 0.326361 0.66548 -2.20647
2136 1 -2.71145 -20.8777 5.57283 -0.456443 0.319037 0.714621
2137 1 15.8592 18.3184 -23.598 -0.462437 -2.34793 0.577656
2138 1 16.311 23.4467 -16.472 -2.31472 2.48516 0.416211
2139 1 -8.19608 3.54689 -16.6243 0.169187 0.466831 0.614026
2140 1 12.7844 -12.7641 17.2389 4.50875 -0.927852 -2.37411
2141 1 -20.3318 46.5913 1.52035 -1.12531 -1.15271 0.0526669
2142 1 -17.0572 -8.23875 18.8407 0.543001 3.03937 -2.18413
2143 1 20.2505 5.61924 -14.2308 -2.36595 4.27261 -2.3645
2144 1 3.93408 0.77698 7.68334 0.965635 -1.0269 1.41783
2145 1 22.0818 9.98129 23.196 0.952976 -0.804935 5.42653
2146 1 2.36602 9.80241 17.7137 -2.55227 2.87104 3.33051
2147 1 3.76823 5.39109 14.7377 9.64577 -0.998439 1.46506
2148 1 12.5788 -23.0565 20.5307 -0.980574 -2.56554 -4.0404
2149 1 18.0372 -3.34415 -3.02817 4.04322 1.27224 0.252025
2150 1 16.7734 -11.1868 2.77951 -1.57326 -1.47071 -4.38874
2151 1 8.54288 3.4563 -11.2799 -1.44144 1.74654 5.58215
2152 1 7.02738 22.6819 -6.39734 1.85137 4.18286 -2.85763
2153 1 -9.15196 -10.9372 -2.90066 2.00892 -2.81569 -0.585276
2154 1 -10.7146 19.3809 -23.4175 3.65688 2.06182 -2.42659
2155 1 13.4797 1.31603 20.6409 -1.2874 -0.478951 1.97557
2156 1 -22.2415 21.2451 -8.40879 -1.04392 -0.655104 -3.07259
2157 1 -3.53374 18.1865 20.9 0.561087 1.75073 1.34277
2158 1 -17.2943 14.3432 13.3188 3.12256 -2.22865 1.54067
2159 1 5.69155 -21.8207 14.1644 -2.46782 -0.0157774 3.74703
2160 1 -21.9307 0.0107507 19.5813 -2.58093 -0.208176 3.42609
2161 1 0.302306 9.07069 -4.27767 1.19055 1.70718 2.10195
2162 1 18.3167 11.9344 -6.64122 -1.5501 -2.51991 1.59513
2163 1 4.36938 -10.1592 14.6272 -3.1669 3.53529 2.2877
2164 1 11.1204 1.21342 -8.65068 -3.23636 6.2653 -2.04029
2165 1 19.0514 19.5528 -12.9161 6.14103 -3.14091 3.94942
2166 1 -14.4431 20.5393 -13.5053 0.411161 -1.11703 0.811229
2167 1 -13.6154 -10.2932 -15.9648 -0.343692 -3.41678 -3.71516
2168 1 -17.2723 17.1377 2.6158 -2.68714 -3.51377 0.0855724
2169 1 11.1797 -5.43922 -18.2045 3.49906 3.86087 -3.25342
2170 1 -7.72171 -15.8987 2.22459 -2.23687 1.79142 0.270524
2171 1 -3.45292 4.06348 5.79726 0.171686 -3.5245 2.63067
2172 1 0.117319 21.4041 -4.76238 1.329 -1.77773 0.187737
2173 1 21.5266 1.5907 -12.9679 -1.4203 -0.894646 0.806997
2174 1 4.94563 6.68666 -3.76346 1.09357 -0.669364 4.9412
2175 1 12.1366 46.3761 10.8926 0.835347 1.73342 1.75291
2176 1 10.0778 -21.4115 16.8863 -1.10355 5.99277 1.7434
2177 1 18.8359 17.6223 15.9603 -2.03829 -4.2846 6.14261
2178 1 20.0978 -17.0056 -8.44773 3.38241 -2.76399 -2.64792
2179 1 11.9378 -4.85997 7.60106 2.82983 -2.37969 -1.25582
2180 1 10.403 -5.09358 -10.2767 1.54404 -0.869035 2.95401
2181 1 -14.3436 -21.7674 22.2274 -0.275602 3.86902 -1.19601
2182 1 -1.8522 -1.16152 11.1113 -0.263159 -0.571184 5.12871
2183 1 4.43618 -2.35516 14.9755 0.827814 -0.0989715 -5.50904
2184 1 16.2415 18.0379 -19.2354 -1.51024 -5.26012 3.36407
2185 1 6.67046 5.74768 17.7012 2.21209 -0.478928 0.0669345
2186 1 1.37261 -9.2628 -19.2858 1.05002 -4.64481 -5.34577
2187 1 14.4163 -6.35825 8.01043 -1.3862 -5.74161 -1.88165
2188 1 -11.3315 6.81025 11.875 0.310618 -5.80565 3.38004
2189 1 4.30982 21.5102 -10.7137 -2.7518 1.32678 3.64698
2190 1 -1.44478 2.97697 -12.4749 2.20206 -2.28573 -2.17948
2191 1 12.6979 10.0011 3.82589 -3.1649 -2.03883 -1.79714
2192 1 1.17057 3.04879 -21.9246 4.98069 0.108344 5.27163
2193 1 15.5754 -13.3783 -14.401 0.168245 2.32139 3.436
2194 1 -18.8916 4.17499 21.6812 -1.33248 -4.185 -1.28379
2195 1 -8.99262 -19.5318 -9.42415 -0.0662167 0.789961 3.18116
2196 1 -2.47399 7.3474 -11.1877 -4.30311 -0.581434 -4.2496
2197 1 15.1796 21.7624 19.7033 -1.48074 -1.36715 -0.679044
2198 1 5.19091 9.24303 -4.70386 1.20226 2.53624 1.48264
2199 1 -16.4562 12.7969 0.975896 -0.344364 -1.49794 2.81578
2200 1 -3.02523 -23.4686 3.86159 8.47519 -1.91868 -0.641346
2201 1 12.863 -10.2881 -21.3747 1.78765 -2.2221 0.718922
2202 1 19.0988 -19.0595 -20.8055 2.77654 1.10527 -0.758346
2203 1 7.94934 -1.6864 -2.3318 2.60595 1.08091 0.318207
2204 1 6.23608 0.342652 -0.983894 1.83137 0.956035 -2.11116
2205 1 -22.3029 7.88369 -15.6559 -1.32247 -2.15372 -0.376068
2206 1 -2.40625 -10.1265 -13.7257 0.0269094 1.04792 -0.333077
2207 1 -20.6354 -8.75015 -1.66596 2.42117 -2.38603 1.83677
2208 1 15.2664 18.6026 -3.54844 3.93705 1.98385 0.253709
2209 1 21.6269 23.8465 20.8508 -0.43691 1.32013 1.32171
2210 1 -24.2435 -19.6497 -2.56174 -3.1092 -2.07054 -3.72734
2211 1 -19.6964 4.24094 -20.4018 -0.561528 -1.61357 -4.03747
2212 1 -17.9457 -4.62939 -6.39457 -0.0134395 -4.06934 -0.804457
2213 1 18.9494 8.93836 -5.24218 -0.0603869 -0.9727 5.06616
2214 1 12.2155 8.33359 18.5796 -0.325687 -0.984865 -1.09594
2215 1 10.1689 13.4216 -2.63059 1.97467 0.673857 -1.84674
2216 1 1.67848 -0.960812 -14.6058 1.77363 -1.07059 -1.11923
2217 1 13.1552 -13.7668 22.9952 0.498736 2.70747 1.14136
2218 1 -17.8098 -5.01536 21.1464 -1.41537 1.1793 0.607267
2219 1 -11.575 -21.3949 17.2954 -0.885971 1.95068 0.681991
2220 1 0.178801 15.9369 -13.4993 3.23059 2.75584 2.11505
2221 1 17.2952 2.47702 19.1544 -1.50596 -0.724608 -2.59612
2222 1 3.02599 8.80775 3.33272 -2.95327 -2.231 2.19477
2223 1 -21.4753 16.9731 -21.0224 1.98035 -0.849789 -2.46936
2224 1 -14.3548 15.7569 -4.85814 1.17853 0.75857 4.18562
2225 1 1.21329 -19.4991 -22.5033 1.78504 -0.246884 5.01041
2226 1 20.575 -1.78576 14.451 0.179079 -1.07463 0.609111
2227 1 11.229 1.51608 -3.80357 -2.41461 3.31833 -0.576008
2228 1 -7.26115 -7.05079 -22.3385 -0.992251 -1.0783 1.519
2229 1 18.0675 4.15976 16.6368 -4.22109 -3.50429 4.02403
2230 1 3.51186 18.1645 -1.44362 0.650691 5.72393 -1.99034
2231 1 -15.7379 23.1586 11.9647 2.17738 -3.81659 -1.25206
2232 1 -22.5809 25.1195 -14.9487 -1.97993 4.52006 -0.764661
2233 1 -10.3133 1.6958 -15.7714 3.07456 -2.26658 -1.63701
2234 1 -3.18848 1.83187 -4.01443 0.519561 -4.14323 0.608106
2235 1 10.0696 -23.0224 11.626 -0.753814 -0.516121 -1.72077
2236 1 23.2904 4.76284 -17.1857 0.322299 -4.52084 -0.922936
2237 1 0.938646 46.8021 -20.8932 4.16169 2.24619 4.93703
2238 1 16.0108 14.6533 -18.3706 -1.41946 -1.06371 2.26204
2239 1 -13.9369 -9.81181 22.6257 -0.0164167 0.506076 -2.04772
2240 1 11.9534 19.141 14.3848 -2.39574 -1.2955 -1.52909
2241 1 -22.4666 -3.39883 -18.7844 -3.95329 2.36115 -0.637485
2242 1 -9.5593 -17.71 19.7567 1.12934 0.0129009 2.07214
2243 1 10.6568 23.9449 -10.9745 -2.96521 -1.8747 -0.13259
2244 1 21.7442 22.6422 -14.2864 -3.26499 0.997421 -0.176749
2245 1 22.6547 -21.0132 6.87902 -4.72668 1.41585 -2.68389
2246 1 2.75772 16.509 -15.1691 -2.71626 2.16364 2.08793
2247 1 22.1577 -12.9146 8.69665 -2.9725 -3.44731 5.44968
2248 1 1.18352 -6.72881 -12.0117 -3.15199 5.28327 0.0302566
2249 1 -14.4565 14.0425 -16.5896 -4.16066 1.07282 2.12959
2250 1 -1.12192 3.36656 11.5933 4.69595 1.12805 1.53695
2251 1 -8.38846 -9.83612 -12.2439 4.4701 -4.27952 -6.48007
2252 1 -22.6494 -14.33 0.236114 -0.772832 4.40195 2.96172
2253 1 4.98357 -17.4149 -4.78179 -2.48739 2.19064 -2.54923
2254 1 2.32105 18.5821 16.0275 -0.861012 -1.36529 1.64163
2255 1 -1.30593 -0.900932 -15.3307 0.321544 -3.4812 -3.22385
2256 1 14.5262 20.799 -22.8832 2.58396 -0.399606 -1.02034
2257 1 -1.27725 3.1833 -8.35305 -1.42068 5.24814 3.61178
2258 1 -10.6665 16.2076 -23.0861 -1.52704 -0.448032 3.8484
2259 1 -20.352 -10.1763 21.643 3.49218 0.254739 -8.60614
2260 1 19.9335 19.7333 -17.1234 0.705563 1.75698 0.351859
2261 1 13.299 -2.62143 -11.605 4.94959 -1.07553 -1.64361
2262 1 18.0176 46.3265 -2.38434 -2.78838 0.0759071 4.45518
2263 1 3.40919 -14.4353 -2.33078 0.11485 1.73212 0.471097
2264 1 -2.1378 19.6238 2.63851 0.500521 -1.56834 2.90309
2265 1 -1.56463 3.4437 19.9967 0.562117 -3.0358 -5.91286
2266 1 -22.7259 7.38184 12.901 -0.0868711 1.63613 -1.71144
2267 1 -9.6059 -14.3756 1.03751 -5.02122 1.20221 -2.17829
2268 1 12.7475 0.355161 -6.37017 3.66591 -0.467673 2.52402
2269 1 18.3375 12.5753 -23.3294 -6.66479 1.06081 0.21603
2270 1 -6.45526 20.8597 1.84908 -2.70133 1.95492 -0.995689
2271 1 -23.0082 -18.0884 -7.07103 2.47308 1.18094 -3.16357
2272 1 1.26775 11.6273 11.9228 -4.76096 -2.82435 -1.92238
2273 1 -21.2586 -20.8722 14.9855 -0.00816685 2.40373 -3.43145
2274 1 -5.69381 0.0730146 19.3096 2.39006 -1.02834 -0.220427
2275 1 -12.2207 26.5262 -14.845 -4.76623 0.632928 -0.872732
2276 1 1.24649 10.2227 5.02873 -2.74468 4.68557 0.710641
2277 1 -13.9455 4.32671 20.0814 2.81345 6.60337 0.0488338
2278 1 -15.476 -12.4183 -4.63897 -4.17953 -1.73348 -4.36354
2279 1 -11.4124 -0.603084 7.06035 4.22776 0.38155 -1.01764
2280 1 14.3597 -11.1222 -3.08615 -1.05096 -1.42227 0.1493
2281 1 19.2224 15.0788 22.6674 0.748718 1.52348 -0.195334
2282 1 -6.02808 24.135 8.84383 0.349107 -4.41771 -4.88577
2283 1 -23.9128 -14.3882 6.37565 0.321807 0.828183 1.30798
2284 1 -22.4012 24.3555 -22.2584 -0.526891 7.78829 2.8504
2285 1 -21.4126 17.8667 1.13385 4.7999 -1.87789 -4.32521
2286 1 2.18983 -10.8557 4.8098 -0.349734 -1.43503 -2.39478
2287 1 21.5248 16.8771 14.2484 1.79691 2.01894 -3.44822
2288 1 20.7785 -6.3643 -6.34983 -6.50553 2.98174 -2.75403
2289 1 -2.6498 12.6103 -20.0767 -2.1884 2.6019 -2.90152
2290 1 17.6938 -5.18611 19.7705 3.11178 1.79404 -1.21509
2291 1 -1.40675 21.7783 20.027 -3.60352 -0.144032 1.46316
2292 1 -13.8495 -9.79953 -1.44143 -2.8514 0.844221 3.09351
2293 1 3.81435 8.10049 8.59225 0.457221 -1.03788 -2.58838
2294 1 -17.3336 8.37741 -19.4711 3.06673 3.7339 0.548982
2295 1 -15.7917 12.7568 -23.4424 0.110439 2.95515 -1.62734
2296 1 -21.0764 -9.37899 -16.965 -2.78321 2.46445 -4.11051
2297 1 13.2944 5.21406 -21.9687 0.772297 -2.72354 -3.42821
2298 1 -3.8079 -20.3007 -3.90297 0.670547 -4.26894 -2.95576
2299 1 10.3548 -12.0277 -3.23273 1.12118 -1.88415 0.32933
2300 1 7.40779 13.024 0.907438 0.3809 -2.9476 -0.207535
2301 1 6.58563 -23.3592 20.8855 0.164089 -2.46463 -2.62711
2302 1 15.2796 10.4052 -15.2187 2.23952 0.633742 -0.721697
2303 1 -12.3793 15.2338 -11.5907 2.49394 -1.79153 -2.86264
2304 1 7.08965 16.0116 5.78693 2.54125 -0.144632 3.17071
2305 1 -15.0305 18.8532 10.3622 -0.180385 -4.15596 4.01299
2306 1 3.3388 -3.95481 20.9196 4.48448 6.45802 6.01204
2307 1 -16.796 15.0973 23.5006 -1.31706 -0.193355 -3.88895
2308 1 4.93075 3.0938 -18.9633 5.85527 -1.47482 2.11129
2309 1 20.9618 18.8646 -23.6704 2.85232 -0.90854 0.332628
2310 1 4.90915 -16.9406 9.42056 -3.42026 6.38266 1.11383
2311 1 5.8259 -0.242397 1.86676 -6.02196 1.57498 2.90907
2312 1 -18.9888 -21.3431 9.37651 -3.30116 -4.97346 3.22708
2313 1 -9.35492 15.8594 -19.8851 1.01681 3.00617 0.642417
2314 1 -18.1353 6.63338 8.51815 3.89422 -3.75593 -1.21388
2315 1 -13.1183 15.9831 17.8062 -1.94627 -6.05822 5.30489
2316 1 -17.3312 -14.7467 4.60882 4.07594 -1.90251 -3.79267
2317 1 -4.59252 -11.4352 -7.90159 0.83692 -2.6021 4.2649
2318 1 21.9336 -4.79213 -4.1656 -0.514334 -1.43754 -1.26704
2319 1 6.67062 -6.75077 8.44604 0.83426 -5.01006 5.24597
2320 1 21.598 1.73686 -18.857 2.73783 1.76919 0.557034
2321 1 -2.68039 25.6045 23.5936 2.48483 -0.877863 2.71584
2322 1 -5.84054 21.0567 19.2936 3.86376 -3.9592 2.79904
2323 1 3.89342 -4.86573 -2.73867 0.0258874 1.43494 -1.07886
2324 1 9.69259 -19.9775 -19.1169 -1.62074 -1.44912 -2.44887
2325 1 16.917 -22.1581 -16.7254 2.36758 2.57992 1.33837
2326 1 19.9066 -9.21223 -12.049 5.99486 3.78974 -4.04732
2327 1 13.4703 0.322805 -17.433 3.43473 2.32444 -3.08172
2328 1 -9.86478 -7.27864 -3.83699 -5.22773 -0.00329019 1.26212
2329 1 6.03026 7.26014 11.9361 8.29799 -2.0382 0.0558197
2330 1 14.7518 -23.8902 15.7138 -0.240201 4.80209 0.00435254
2331 1 -16.522 -16.3122 11.2108 2.7447 -4.5202 -0.132365
2332 1 20.2361 -16.2913 9.66345 3.20912 -2.43038 1.74036
2333 1 11.6089 -19.9117 -14.8921 0.751458 6.46761 0.000589422
2334 1 -9.71852 21.1534 15.5766 -1.8374 1.87183 2.60434
2335 1 -6.57096 19.7735 22.4894 -3.90888 -0.854548 -3.58203
2336 1 15.658 -12.6999 -22.5916 1.60346 -3.11262 -1.23539
2337 1 9.1216 1.38598 -0.840844 2.04236 1.3206 4.09517
2338 1 -0.179572 -2.55056 -22.0582 -3.30762 -2.87614 -1.92397
2339 1 9.57471 9.22573 -5.01154 -3.04531 4.48921 -1.67909
2340 1 8.14949 7.5898 16.0303 -1.3299 1.03803 -2.35176
2341 1 3.44782 -16.3766 -18.8498 -0.963789 -0.274228 1.71942
2342 1 9.4065 -14.3848 0.450486 1.81725 -0.881251 -2.95778
2343 1 8.7278 23.4843 2.65763 1.71616 0.687369 2.22503
2344 1 13.1462 24.4493 4.35591 2.69175 -1.77859 -2.33608
2345 1 6.98272 12.9714 -14.6407 3.467 -3.81774 2.51288
2346 1 -3.95905 -20.4018 10.8578 2.37206 -3.96589 -2.90434
2347 1 -12.2854 13.0795 -14.6147 0.638409 -2.2782 2.6049
2348 1 8.34609 -0.995355 5.17616 -4.06476 1.45661 -2.59837
2349 1 -10.2635 23.7406 14.6899 -3.78815 -1.34298 4.33143
2350 1 9.86556 5.75502 -14.3589 0.954133 -1.30508 -1.1463
2351 1 17.5868 12.7401 -13.2473 0.169329 2.16846 1.60721
2352 1 -2.25803 23.2167 -20.4032 -1.7144 -2.30471 1.35045
2353 1 14.3164 -2.50668 4.61407 -2.3272 -1.20758 3.04119
2354 1 21.2568 -18.8207 22.106 -1.48454 -1.40355 -5.21253
2355 1 -7.40294 0.956525 4.71277 3.42821 0.649291 -1.18906
2356 1 15.8991 -23.0544 -10.4614 -2.31947 -1.59298 1.89311
2357 1 -2.8601 0.397885 0.915939 -1.95473 -0.150976 -4.49781
2358 1 1.57253 -13.5312 -10.8249 1.66434 2.26139 2.02923
2359 1 10.0271 10.7606 7.19058 -0.115336 2.33088 -0.270151
2360 1 12.8206 16.9537 4.81821 -1.28949 1.7571 1.64895
2361 1 -21.7249 12.4058 -13.058 -1.82485 -0.00272561 -1.94993
2362 1 -20.388 12.3912 13.2375 -0.548908 4.70689 2.92408
2363 1 19.2127 -12.0087 -0.708332 -0.242025 -2.30481 2.13027
2364 1 2.89993 -3.90024 -0.106626 2.07704 0.906986 1.94643
2365 1 -23.0201 -8.88503 -3.79602 -2.26581 -2.81417 -0.0854888
2366 1 9.77773 2.00605 2.58488 -2.53396 0.76428 -1.37064
2367 1 2.57058 18.0311 13.4399 -5.09756 -5.4824 2.00031
2368 1 -6.58458 -21.2074 -7.48127 -1.20066 -4.65602 -2.43691
2369 1 19.5221 3.07907 14.2609 -0.878732 2.04387 0.890236
2370 1 -23.1308 -10.0038 -8.80142 4.23542 -0.989075 -0.000848815
2371 1 17.3276 -20.6502 2.16877 -1.72175 2.32316 0.635477
2372 1 -24.1917 4.48573 -0.278506 1.14645 2.50455 -0.268767
2373 1 14.1862 12.0299 13.8626 0.736631 -0.925306 -4.79869
2374 1 -6.40627 7.81151 -1.82862 -1.83975 1.01947 -3.90624
2375 1 6.59263 25.8674 12.6491 -2.01898 -2.34976 -1.2277
2376 1 -15.4804 -1.29421 21.9353 -3.3457 -2.60111 -3.30028
2377 1 -6.15821 -6.43556 -4.79196 1.38154 3.95757 -3.13922
2378 1 7.68115 0.931848 19.3856 3.37136 3.25306 -1.17873
2379 1 -23.175 13.2246 9.45912 -0.517173 0.979092 4.38124
2380 1 8.62291 -14.4149 21.6697 -3.04968 -3.24756 4.50669
2381 1 13.7869 -8.45448 -3.6151 1.98863 4.9934 2.41889
2382 1 -15.2689 17.5421 -16.4125 2.07219 -2.63142 1.54007
2383 1 21.32 -19.5849 3.8959 -1.15924 1.38425 -0.34184
2384 1 4.06139 -13.4822 -22.9907 -1.25418 -1.69778 3.87103
2385 1 -0.289814 7.66141 2.16155 -0.321072 -3.04446 -4.34477
2386 1 4.12465 -2.89428 5.44155 -2.49379 -1.36794 1.1509
2387 1 -11.7326 -4.46484 15.4815 -2.03553 4.62321 3.69708
2388 1 7.49991 24.8817 21.0127 -0.822519 3.54328 -3.16904
2389 1 6.90361 -11.8502 11.6389 -0.129217 -1.41005 -0.273536
2390 1 -22.0651 -8.06337 -6.72618 -0.216723 5.54829 -0.10544
2391 1 -7.45707 -2.03859 8.55864 2.30583 4.22117 -2.46478
2392 1 9.08658 -20.991 -14.7215 -0.611429 4.43323 -4.86091
2393 1 4.98305 -15.2582 20.0616 0.755359 4.61422 0.0983496
2394 1 15.8715 13.3112 -6.05571 2.04472 0.0401842 -7.22492
2395 1 3.30802 20.1072 19.3563 2.16813 -0.945839 -4.32424
2396 1 -15.3675 -20.3909 -2.54918 -1.9962 1.91809 2.12906
2397 1 -15.3176 -6.06836 20.1868 2.95684 -4.80638 -6.44941
2398 1 -8.01879 -1.75256 14.3451 -2.98016 -8.41137 0.311293
2399 1 -13.7625 -9.84289 10.9005 1.83069 0.699636 -5.61761
2400 1 11.6543 -7.61547 17.8551 -0.0330186 0.484919 -0.218986
2401 1 -17.9124 20.6538 -4.16815 -0.283395 -0.829275 2.89681
2402 1 18.1833 16.1307 -20.0114 -0.704658 -4.50064 -3.15699
2403 1 -12.3539 1.33825 -22.2376 3.34775 1.4261 -0.956973
2404 1 -19.9407 -9.73876 -23.268 -0.160523 -0.197218 2.29461
2405 1 -4.31752 -8.81462 -19.8521 0.79116 2.72747 -1.19282
2406 1 23.0337 10.3898 -13.4628 -1.50754 5.08906 2.14069
2407 1 -13.8839 -13.4934 14.0321 -0.922805 0.521785 2.50066
2408 1 -20.6838 -2.50423 -12.0992 -4.97509 -2.99642 0.639007
2409 1 4.68469 11.6913 14.3701 -5.13983 1.85573 -5.46117
2410 1 9.70418 -21.9395 -23.6755 3.00037 -1.3358 3.52438
2411 1 10.0869 11.4297 -18.5833 3.43161 0.510436 -3.26529
2412 1 7.54315 19.8547 14.2721 -1.52985 2.56355 -1.1242
2413 1 -5.85184 21.4624 4.67199 0.494544 1.05875 -1.56724
2414 1 12.1139 -5.9929 -7.19935 1.47251 1.67676 -3.45588
2415 1 23.345 -22.4513 -23.4844 -3.15634 2.38463 -0.211906
2416 1 6.59058 11.7845 10.5259 -0.88318 0.776115 -4.41091
2417 1 -3.05027 -3.8273 -0.179793 -2.99617 -2.41231 -2.61012
2418 1 13.8592 3.91883 -10.2274 -2.56693 0.934428 1.27256
2419 1 22.6935 8.34615 -20.8814 -0.0715859 -4.63359 -1.77956
2420 1 -0.842962 -4.88185 -6.34602 0.904199 -4.22113 -2.81821
2421 1 -22.6525 18.2731 -7.9029 2.63527 -1.52876 -8.23319
2422 1 -18.2722 6.64741 18.4696 -0.529053 0.613732 0.448959
2423 1 13.5562 23.665 8.65122 -1.15378 -7.50179 2.7771
2424 1 -23.6915 17.3754 7.87245 1.14456 1.32761 3.98667
2425 1 -17.2365 9.10313 -23.3849 -0.523759 1.80669 -0.0544316
2426 1 -1.05211 19.3228 21.5951 0.00759917 1.00976 5.52131
2427 1 13.6951 4.27708 3.76603 0.942674 2.94127 -0.556478
2428 1 13.2955 -17.3448 15.4162 -0.846878 4.64817 -4.03234
2429 1 -6.91627 -7.33546 -12.704 -3.78993 -0.0573282 -2.58799
2430 1 -12.9699 -6.38938 17.4007 0.280301 -4.40921 -3.42579
2431 1 -20.2176 19.0644 -9.0853 3.47472 -2.99827 -1.61006
2432 1 19.2938 15.5446 -15.1905 -0.433842 -4.14574 -0.488675
2433 1 19.4959 -23.8738 19.9347 1.65855 -0.286693 1.74705
2434 1 0.312922 -21.414 -1.75668 -0.398979 -5.63912 -1.08947
2435 1 -16.5424 24.2677 9.50028 -0.295165 1.37333 5.84192
2436 1 -7.64096 11.0496 18.4506 4.38217 0.93223 -1.02223
2437 1 -14.3203 -5.35253 12.0286 5.27255 2.33605 0.533175
2438 1 -1.42779 45.0272 -20.1056 -0.234141 3.6374 0.395823
2439 1 -14.0564 21.4701 10.4294 2.0998 -3.8433 -3.18057
2440 1 5.5947 -2.8044 -14.9351 5.14212 -1.62587 0.272994
2441 1 22.9862 15.2499 22.1728 -5.24366 -1.02052 -4.45108
2442 1 -1.6655 -9.97746 -16.6809 -3.57659 -2.8347 -1.84039
2443 1 8.73635 8.91495 23.5825 -1.82383 -2.38455 4.64954
2444 1 11.7558 21.6543 18.336 -5.03422 -0.824204 -6.0296
2445 1 1.98621 4.07843 22.9937 -5.17747 -2.88284 -1.18333
2446 1 0.658285 -3.71919 13.8494 -3.89323 -3.4828 -1.78606
2447 1 -3.13326 -15.4734 18.0643 -2.8533 -2.35826 -0.459314
2448 1 -0.842927 -16.6789 -11.0729 -1.05652 2.43255 1.66253
2449 1 17.4205 45.4427 12.3965 -2.98022 2.86502 0.365134
2450 1 7.99173 11.1681 22.0826 -0.241434 -1.54765 1.34217
2451 1 8.8291 -22.5658 4.67475 2.21343 2.43928 1.74307
2452 1 12.3444 16.2887 -15.5085 3.27126 -1.8958 -2.18865
2453 1 0.117682 10.5515 14.478 -1.19656 -3.83694 1.42372
2454 1 -5.36363 9.80173 -19.0375 0.504336 -4.24581 -2.54201
2455 1 12.0368 10.1716 14.8494 1.46648 -1.02222 -0.69853
2456 1 18.9393 19.8395 19.9565 -1.65483 2.35065 2.33932
2457 1 -4.02139 2.36158 11.4014 -3.26947 1.58629 6.98175
2458 1 23.327 21.1815 -2.44526 3.88768 -2.86073 6.256
2459 1 -19.277 16.2881 -8.34996 -4.75778 1.39935 -1.60254
2460 1 9.2598 8.16474 -16.2683 2.07463 1.33209 -3.80644
2461 1 -22.6923 20.6314 -4.75998 -0.346021 -2.80208 2.74653
2462 1 -13.59 25.5548 1.95682 0.0379733 -0.989128 -3.2672
2463 1 -11.5139 -22.0912 -22.6667 -5.92604 0.927847 -1.23345
2464 1 5.38532 16.4034 -13.5923 1.68226 -0.626173 0.0476417
2465 1 -5.61901 -14.1484 -10.7453 -1.88499 -2.64317 0.21064
2466 1 3.63075 2.5272 -3.43236 -3.83812 4.98227 2.17958
2467 1 2.37156 -18.2092 9.292 3.40503 -2.99932 1.02064
2468 1 -19.8824 45.6111 -5.57438 -1.14448 -0.848845 -4.38071
2469 1 12.827 46.6034 22.7831 -2.65105 3.29429 2.67514
2470 1 12.8001 -19.7471 -10.1994 2.63089 4.93831 4.25693
2471 1 -3.78648 26.9957 -22.0547 -4.86164 -3.56237 2.78792
2472 1 -18.7189 2.51719 12.5041 1.72984 0.727424 4.49068
2473 1 11.5166 10.4506 -9.41516 -3.21352 1.88077 1.6513
2474 1 -4.5765 -6.61827 -18.116 -0.0392613 7.32448 1.41353
2475 1 -17.5667 10.9517 9.96211 0.361275 0.0403922 -0.663208
2476 1 -4.02749 -19.5302 -18.7234 -0.978583 0.311108 -0.226736
2477 1 13.9661 7.3387 -3.68109 2.7141 5.84024 4.71028
2478 1 -3.71041 -23.3532 -4.01252 4.52938 -4.47918 5.72751
2479 1 -20.5515 -3.51704 1.40609 -1.23038 -0.564107 -0.119307
2480 1 -0.289797 18.6993 -5.37889 0.572194 -2.32841 -1.46931
2481 1 -14.6948 -7.90723 -9.76448 1.45336 0.0154478 0.882043
2482 1 8.77065 -7.61532 0.691884 2.84419 -4.11485 2.17918
2483 1 -1.21741 11.7302 -10.7183 -0.0982241 1.96629 -4.43973
2484 1 1.71434 -15.9321 -9.30445 -1.96438 2.65275 -0.688003
2485 1 0.0662287 -18.0114 5.16806 -3.27915 -4.65499 -1.10769
2486 1 -4.02609 -19.6073 8.13565 1.65654 2.987 3.62661
2487 1 1.25926 18.8598 -0.0397361 -0.898564 2.73323 -1.87442
2488 1 -9.96496 20.6127 18.2655 0.929525 -1.34926 0.000563242
2489 1 5.75038 22.7392 -13.0947 -2.49403 -3.9401 1.53892
2490 1 -11.7369 23.9578 21.1291 2.01795 3.1815 -2.55872
2491 1 12.1021 -22.0679 -4.21749 -0.346327 -3.41116 -0.430368
2492 1 -23.9784 13.989 4.69542 2.30976 -3.04121 0.216269
2493 1 20.4638 23.749 -21.3056 -2.17056 -1.47098 1.40803
2494 1 -10.1548 -14.7641 -19.9622 -3.58317 -0.569219 2.04958
2495 1 12.9166 -13.2177 -9.30644 1.40019 0.834995 0.274603
2496 1 4.1736 2.34699 -22.5756 0.522181 0.0772876 -1.98371
2497 1 3.80219 7.71559 20.2089 1.55856 0.751479 -0.0444238
2498 1 -5.01449 6.47435 5.59964 -2.65973 -0.298848 -5.11602
2499 1 -23.6361 -17.1056 7.68511 -0.115188 -1.27705 -4.20448
2500 1 8.95137 22.2798 7.38954 2.12366 -1.50159 -0.947922
2501 1 5.90921 14.017 7.7032 1.17468 1.87944 -1.4056
2502 1 -4.68056 -13.3639 10.6865 -3.78974 -1.02388 -1.63932
2503 1 17.1849 14.2543 -3.48903 -1.18657 -0.299872 -2.11162
2504 1 8.98857 10.539 9.86892 2.60047 2.10508 0.186527
2505 1 -10.6267 19.3143 21.6293 2.45633 1.67364 -3.86372
2506 1 22.5299 11.2106 -8.55366 -4.52325 -1.98807 2.53676
2507 1 7.89845 -2.52294 -16.4462 -2.57141 1.11368 -4.52417
2508 1 11.2464 23.9139 -6.34941 -1.41782 4.56767 2.5748
2509 1 -4.8126 -7.63765 2.09906 -2.22374 3.02438 -1.69515
2510 1 -21.967 3.48145 -2.00515 -3.22587 -2.63693 -1.97766
2511 1 3.92332 5.89204 17.795 -1.25746 -3.15149 -2.72874
2512 1 -9.04494 13.0096 14.5081 -6.70738 -0.290928 -2.48903
2513 1 20.2209 5.87626 7.65893 8.12082 -0.937016 -2.33226
2514 1 -22.035 15.4461 22.7563 3.41295 0.233942 -2.99694
2515 1 0.661816 -19.1164 2.30196 1.88882 -1.5635 -2.31042
2516 1 6.02918 11.1598 -17.9637 -0.358245 -0.970346 3.15041
2517 1 -11.0282 -13.4866 14.7933 5.60739 1.36373 3.83557
2518 1 -0.826498 -0.662185 -0.970536 -2.32135 -5.13184 1.46608
2519 1 -24.4567 23.2263 14.285 -2.3267 0.926088 -0.124268
2520 1 -23.8419 -0.563999 -8.63009 0.426235 0.0173833 1.36102
2521 1 10.5686 5.6833 13.8974 4.93876 -3.95679 1.64444
2522 1 -2.11596 11.6535 2.16838 1.57085 -0.479865 0.142382
2523 1 -14.9049 46.7153 -22.1998 -2.01822 -2.09965 -2.43371
2524 1 11.2895 22.8435 -19.6139 -0.60553 0.991001 -0.579356
2525 1 -12.0939 -14.2059 -8.15698 2.41453 -0.455042 2.15976
2526 1 -10.978 -2.54999 -15.8201 -2.79981 -2.13383 6.63818
2527 1 3.67881 5.03865 6.19896 -3.88473 4.01038 -4.02631
2528 1 -8.17212 13.5412 6.83502 2.58575 -6.10396 1.40712
2529 1 -18.5142 -8.45202 -3.51173 1.08261 -1.9317 -2.49402
2530 1 5.37111 -14.6188 -16.9024 5.6241 4.29005 -1.87733
2531 1 -18.1579 -9.28301 -15.9611 -3.71976 4.2691 -2.45548
2532 1 -15.142 -13.5288 3.18809 -1.15443 2.61581 -4.32238
2533 1 -15.4994 22.6924 -1.78268 0.196995 -3.12958 -1.6262
2534 1 -18.2236 -10.9414 -1.52348 -1.01037 2.55052 1.11771
2535 1 15.4177 -6.15355 13.9572 5.72011 -0.238018 1.77626
2536 1 -21.0201 -18.4491 -21.9073 3.42635 -5.30208 2.07143
2537 1 -2.22379 46.8537 15.5842 -0.602444 2.81014 0.618005
2538 1 -5.3682 4.75055 -22.638 -0.671868 -2.04332 -2.4929
2539 1 13.1384 -12.5789 20.2064 0.910781 1.01797 2.43968
2540 1 20.2648 -8.59575 16.165 -2.81097 2.46543 4.30081
2541 1 5.20003 7.64477 14.7531 2.9578 -1.84633 -1.10514
2542 1 -11.2166 -9.0558 -21.1059 2.56894 -3.27944 -2.06197
2543 1 -15.5592 -5.6639 -7.69774 -4.55653 0.422455 -2.68254
2544 1 11.3481 3.32223 6.8045 -2.20292 5.51902 -4.61313
2545 1 -10.9424 8.9715 -21.1432 2.76726 -0.0366736 0.385045
2546 1 -15.9805 6.79404 13.3891 -2.04771 -3.29555 2.14726
2547 1 -11.4503 -1.64771 3.73626 -2.23483 -5.41231 -1.49812
2548 1 15.9118 -5.30944 -8.35429 3.6854 1.11593 -3.18634
2549 1 8.53783 11.0148 -16.3448 3.93108 -1.25269 0.271406
2550 1 -21.5576 -17.654 -19.243 1.13489 0.756978 3.30528
2551 1 -6.49232 11.9364 -15.0807 4.49953 3.76724 1.27749
2552 1 -0.874341 -14.9428 8.40545 -2.80144 -4.5752 -4.70936
2553 1 1.23237 23.9571 15.8264 2.38196 0.886425 1.71468
2554 1 17.7264 24.3297 -5.78968 -1.44478 -3.46436 -3.24041
2555 1 5.42607 12.6424 -7.7172 3.75339 1.7443 -1.21617
2556 1 -7.47361 -13.4247 9.61496 3.19887 5.02636 -0.157619
2557 1 17.653 46.0951 -13.9166 3.8067 -5.93162 1.50022
2558 1 -19.5076 8.99508 -21.6064 4.85069 -0.755916 -1.55023
2559 1 -16.5597 7.15805 6.12311 -3.3446 -2.66541 -3.00425
2560 1 22.3033 -23.6453 8.2823 4.5231 -4.13717 3.36936
2561 1 -9.28003 -1.04323 11.6178 -2.0098 0.575541 -1.94447
2562 1 -22.564 -4.92315 -11.7715 2.57232 -1.92657 -2.82999
2563 1 19.7989 -5.39277 -22.1416 3.02961 0.863418 -2.09253
2564 1 -10.0351 -14.0377 -9.89112 -3.96364 -0.711613 2.12174
2565 1 10.5927 17.3798 12.5672 -0.723021 0.186247 -0.880377
2566 1 -24.2831 -11.5803 13.566 2.35893 4.30255 1.68581
2567 1 -13.7782 0.287912 -18.3319 1.28253 -0.868719 -6.1457
2568 1 18.6662 -10.8031 -19.6435 2.06423 -6.74266 0.881123
2569 1 23.169 -19.2171 -14.3121 1.52313 2.71789 -1.02402
2570 1 -22.0396 17.4919 -15.4611 0.266621 -2.67767 -2.22872
2571 1 13.6777 -1.72238 21.234 -1.2267 -2.85448 1.78689
2572 1 -20.6929 -19.699 -6.87784 2.39817 0.580254 -1.73703
2573 1 20.0064 45.9415 -4.65597 -0.420504 -6.76846 -2.87413
2574 1 -20.0984 46.163 -10.0506 -2.11213 2.84086 2.66411
2575 1 4.5084 17.0915 2.28354 3.78111 3.28827 -0.731529
2576 1 20.7286 19.5955 13.1624 -4.86532 0.184812 -7.4275
2577 1 12.7585 19.0953 -4.58278 -0.430895 -0.928403 -1.77195
2578 1 -15.6771 -15.5217 -1.98987 -2.25885 3.6524 -0.477512
2579 1 -9.31335 13.3284 4.09818 -0.362546 5.35945 0.783852
2580 1 -23.8661 13.5518 -19.6074 5.1096 -0.869022 -0.441505
2581 1 -8.66743 17.1984 21.2664 1.16511 -4.17912 4.35844
2582 1 10.5156 25.988 10.4677 -3.41358 -0.637319 -2.38265
2583 1 5.85755 19.3688 -0.339955 1.02338 1.96851 -1.55658
2584 1 -11.7985 -21.6426 -11.2717 -0.606857 -0.850908 -2.82113
2585 1 16.9993 -16.8345 17.4018 0.0959233 3.17525 0.429243
2586 1 -13.894 15.3208 13.8931 -4.54119 1.75974 -3.35013
2587 1 18.0548 -21.1044 7.6273 -1.2931 0.686595 3.45704
2588 1 18.9709 1.83974 -17.2993 -0.437704 0.67095 -2.01934
2589 1 -2.13701 -5.39331 9.51272 2.21373 -0.942087 4.04954
2590 1 11.6952 1.6776 -13.3801 1.90269 3.48848 -3.03591
2591 1 -5.08658 -23.5112 15.2258 1.18351 -1.76775 4.63919
2592 1 -1.757 -17.7085 7.53827 4.47169 3.33966 0.246967
2593 1 -21.1956 -7.77517 -21.6748 0.649567 -4.81219 2.50973
2594 1 22.6898 -7.61929 17.7559 2.67908 -1.22046 0.789693
2595 1 -0.439097 -18.7234 -19.8605 -2.29539 0.964153 -0.86052
2596 1 -12.759 12.9292 -19.9979 3.63184 0.599628 7.54515
2597 1 -19.9145 -2.57603 -16.9853 -3.96409 2.22838 -3.82803
2598 1 20.8883 -0.752042 -2.82095 1.52431 -0.578724 1.47413
2599 1 -7.06917 4.35642 9.08881 -0.262326 -3.61346 -0.334957
2600 1 4.0293 20.8484 1.3583 5.00249 -1.28582 -1.30603
2601 1 -3.13232 8.47534 5.12013 5.56568 3.50431 -2.01149
2602 1 -5.00982 -10.5764 -3.41705 -0.754474 -0.79809 4.81136
2603 1 20.6423 20.6914 -3.44577 -1.65547 0.594833 2.29578
2604 1 13.9306 -12.8143 -0.907166 1.66561 -5.42113 6.05226
2605 1 -17.6176 8.51887 -4.54967 2.80416 0.399416 -3.81319
2606 1 15.0335 16.802 20.0414 -5.1573 4.07897 3.50922
2607 1 11.8211 1.69225 -23.4808 3.89631 -1.67222 1.33996
2608 1 15.0855 -19.1971 23.2673 3.75937 -1.97183 -3.94301
2609 1 -12.933 -6.17373 -17.9562 5.28177 0.386352 -3.12329
2610 1 -0.392457 3.88979 -18.2759 0.239574 -0.237677 0.0463419
2611 1 -21.8575 24.0718 -19.3798 -2.2895 3.79089 0.81994
2612 1 -15.3067 -18.4466 20.3084 2.5834 -0.285397 -1.87541
2613 1 -23.3209 3.26331 11.7945 0.756003 3.74046 3.61129
2614 1 -10.2907 11.4837 -20.531 -0.506242 -0.574303 -4.02096
2615 1 -2.56451 1.88565 15.0772 2.10018 -1.39701 -0.035747
2616 1 22.6088 -4.7544 -8.32788 -4.20499 -0.0472963 1.27184
2617 1 -8.8991 15.327 -16.0436 0.967502 6.2818 -0.158773
2618 1 -5.00188 -16.5235 -12.0581 0.358781 -5.72063 -3.03192
2619 1 1.31655 13.2419 -23.2674 0.397738 2.9617 1.66003
2620 1 -9.1972 16.2068 6.98825 -2.3056 -4.15425 5.65714
2621 1 2.65063 -21.6153 3.51654 0.694611 -1.55281 5.4758
2622 1 0.30522 -20.1042 22.6158 -4.26537 2.14083 -1.19865
2623 1 -22.7055 19.5456 -21.8258 -1.56101 -0.290558 -0.443637
2624 1 -19.3442 18.6006 -6.22623 -0.389049 0.0880167 0.0889851
2625 1 -5.41194 -3.15232 -23.3727 2.16871 2.74732 -0.307318
2626 1 -1.65204 5.40546 22.7881 -1.42807 -0.380685 -1.86922
2627 1 13.9007 27.7004 8.74744 0.952974 0.149274 4.15653
2628 1 12.2646 -7.64032 -21.6477 -2.0605 -1.10231 -3.25733
2629 1 -21.0889 -3.37709 4.21164 0.745666 -2.14773 -0.770583
2630 1 -13.2103 -8.3688 19.55 -1.91078 -1.41326 2.75792
2631 1 18.4831 15.8073 1.31185 0.138165 0.679368 6.97439
2632 1 17.3584 -0.481213 -17.9139 0.478263 2.48162 3.47398
2633 1 -2.44142 -17.149 -18.4118 0.355748 0.0967635 -3.90041
2634 1 -4.77188 11.2249 -21.445 3.28887 2.08152 -3.03329
2635 1 -0.858979 11.8656 21.953 -2.9089 0.00418667 4.4461
2636 1 -15.9966 -20.0396 14.1204 -1.42632 -0.349479 -6.70745
2637 1 11.2821 -16.3716 -18.6259 -2.79522 -1.31827 -0.490898
2638 1 14.4123 2.70346 -7.44993 -3.64975 -5.454 1.7111
2639 1 -2.19673 -9.77584 19.8968 7.6307 -0.923622 1.66093
2640 1 4.90924 13.6025 -18.7951 -0.150854 0.738467 -3.15198
2641 1 22.9576 8.93906 -15.8768 -2.86291 -5.70341 0.753899
2642 1 -5.20267 -19.781 4.65268 2.24172 6.35964 2.0831
2643 1 -1.51491 -15.8269 -21.9123 0.328317 4.8902 1.02232
2644 1 20.2302 -19.7495 -14.9368 -0.408407 -7.12694 2.22976
2645 1 8.26555 46.1408 14.5906 4.66871 -0.807623 -1.2287
2646 1 -4.23246 11.7835 -4.28371 0.975166 -3.20311 -1.45152
2647 1 -8.80809 4.9646 3.93492 3.93338 0.299678 -2.29433
2648 1 20.1406 -0.665986 4.54549 -5.8649 4.57247 -4.16846
2649 1 -18.2034 21.1683 -8.54865 -2.44135 0.347926 1.04128
2650 1 -2.5143 9.21074 14.898 -4.25162 7.26767 -0.265342
2651 1 -17.4489 -19.9294 16.7228 -0.171904 -0.696399 -3.02846
2652 1 -21.6099 -6.2089 -14.3043 -2.24767 -6.0487 -4.92532
2653 1 -9.06051 9.91358 -4.91564 -6.27767 -4.09315 -1.7682
2654 1 19.0601 -8.39287 -2.37348 -1.2548 2.00157 4.8896
2655 1 -5.26906 -10.5404 0.970415 2.76393 -0.0748126 -1.68668
2656 1 -7.01374 7.56034 -19.811 3.922 2.14696 2.40087
2657 1 -10.9339 -7.58101 11.171 2.99004 -0.237357 -0.570343
2658 1 -3.41441 1.52006 18.6486 1.87826 2.9758 -2.53199
2659 1 16.0056 -6.54332 23.4586 4.81394 -0.107738 -0.56101
2660 1 -13.8084 25.236 12.2844 0.441517 0.473205 -2.80537
2661 1 7.60857 6.49068 20.6187 -1.26026 -0.417802 -1.74199
2662 1 -21.8157 -23.924 12.5219 3.36309 0.523594 0.200223
2663 1 -7.45587 11.9664 23.0298 -2.17972 0.091666 -3.30303
2664 1 -16.2662 19.085 21.9296 0.13047 3.73159 5.56592
2665 1 -19.9411 3.53651 1.57018 0.600044 2.41211 -0.282988
2666 1 19.8567 46.684 1.23385 -5.56766 -1.67557 -4.82605
2667 1 -8.31122 -2.56738 -4.33553 1.73746 -2.95425 2.43289
2668 1 -6.37094 -15.854 -22.1318 -0.903294 4.35136 3.71097
2669 1 -0.460317 -7.79032 16.6387 4.0196 0.581599 -0.144972
2670 1 22.6662 24.3915 -16.2285 5.2378 0.781287 4.409
2671 1 9.98572 21.4058 20.4591 1.5055 -0.40468 0.707273
2672 1 7.48483 -4.06738 8.73651 -2.44037 0.452097 -4.42282
2673 1 -13.9368 -22.812 -1.84139 0.846177 3.97324 1.06007
2674 1 -7.18513 -21.4787 -3.12698 3.08299 -5.78985 3.24776
2675 1 17.1405 5.90171 -10.5082 1.85602 -1.89987 -3.49245
2676 1 20.4905 21.8589 -19.0697 -3.47033 -3.22836 -0.22747
2677 1 -1.40796 -21.7285 2.25805 -1.88725 3.37139 4.06529
2678 1 5.47848 -19.7075 -16.8987 5.24379 0.940488 -0.703791
2679 1 6.99022 -2.5884 1.99514 -3.89717 3.23079 -0.327364
2680 1 9.14096 -6.71597 -7.94556 -2.14719 1.84899 0.409452
2681 1 -15.6193 -8.10489 -15.9123 -0.336765 0.107363 -2.70144
2682 1 -20.8132 4.48592 11.0526 -0.527516 1.64389 -1.6576
2683 1 -15.2131 6.62098 -18.4025 0.248329 2.38665 -0.585036
2684 1 22.4119 -12.157 2.61999 -3.50623 -0.580532 -1.4157
2685 1 -3.48563 -7.55208 6.17436 4.18674 -1.61862 -2.2827
2686 1 7.19437 -22.46 -19.9972 3.59735 1.51532 -3.28667
2687 1 18.6509 -16.6685 -16.7913 5.28472 -0.961799 0.535341
2688 1 -17.2378 -2.17101 -0.108527 1.07973 -1.73625 -3.69668
2689 1 -7.78787 -1.08322 -7.50689 -1.21326 -3.40156 2.41998
2690 1 -12.6401 -14.1749 -20.6059 6.10963 1.05925 4.99262
2691 1 -18.1244 -24.0494 20.9555 -4.99406 -3.33785 -1.09575
2692 1 4.51558 -0.54074 -15.9598 -0.22834 5.07903 6.02901
2693 1 7.53102 18.5077 -15.9287 -4.17255 3.68309 -0.483001
2694 1 -6.02023 -9.39279 18.9374 -0.670798 -3.8868 -1.57149
2695 1 14.5793 7.38886 11.9729 1.07694 4.41651 3.43812
2696 1 -22.529 -15.5222 22.1465 -2.69554 1.12732 -2.36696
2697 1 6.17874 -3.33267 -4.17118 2.56279 -1.82836 1.37844
2698 1 15.6443 -15.6614 21.5169 -0.266635 -0.689524 -5.6006
2699 1 -16.114 16.0162 -2.3617 0.777466 -0.252205 -6.04553
2700 1 -8.51267 -21.1689 1.48568 -3.4891 -3.18558 -2.82777
2701 1 -20.8553 22.2821 -0.40548 1.78838 5.70969 -3.95294
2702 1 -8.09787 18.5464 -19.872 5.49691 5.69254 2.51901
2703 1 11.8563 -6.41346 -13.6964 0.167518 -2.47027 0.775515
2704 1 0.984263 -23.2374 1.94255 1.33811 4.77016 1.27091
2705 1 -1.64234 -5.41693 6.35999 -0.111731 -0.584223 -1.25437
2706 1 3.82248 -22.9783 20.1646 -0.896934 2.3175 0.418957
2707 1 -10.0257 -11.9907 2.46649 -1.3869 -6.44689 -0.185832
2708 1 -14.9191 -0.354808 -23.2564 -3.34165 -6.04176 1.99855
2709 1 22.078 -2.05932 19.279 -0.0776299 -2.34006 -1.72321
2710 1 -4.25802 16.7988 18.2433 0.585939 -2.70318 3.28045
2711 1 -13.3982 -6.93374 -22.1114 1.3288 0.322378 -4.57716
2712 1 17.0967 14.5056 7.41341 2.28133 4.05345 4.98222
2713 1 21.9009 3.12574 -6.97109 1.00692 -0.902297 -0.909237
2714 1 -18.5015 5.16129 -10.2386 0.65822 0.637269 0.873376
2715 1 -13.7276 13.1713 19.8344 0.161435 2.783 4.39424
2716 1 18.6545 13.1204 0.32265 -3.5533 -2.5603 -0.346685
2717 1 8.73051 21.0649 10.1344 2.91999 -1.91334 -1.1789
2718 1 10.5478 -12.3474 -21.287 3.18768 -5.41096 1.16392
2719 1 19.682 -11.8316 2.41207 4.77131 -1.73519 -0.839787
2720 1 -13.4945 -13.5399 -17.9061 0.130158 1.79853 -0.837591
2721 1 4.40932 -11.6781 12.3126 2.0034 2.33246 -2.84125
2722 1 -8.66 19.2741 -9.37249 0.16047 -2.42769 1.2787
2723 1 -5.34653 15.4016 14.0466 2.37613 0.622304 -2.09942
2724 1 -5.97278 6.91915 8.10346 0.728126 -1.21965 1.30999
2725 1 -2.80437 8.97791 -17.8145 -1.65729 -2.24032 1.48039
2726 1 -10.8614 -7.53666 -23.4892 -1.90611 -1.37263 2.14011
2727 1 -10.5619 -18.6924 -2.67242 -0.0275307 -0.311666 -0.315204
2728 1 21.6244 -1.80293 10.7897 -2.85664 1.55771 0.958533
2729 1 -2.97839 44.24 -17.8802 1.54932 -5.24193 3.68503
2730 1 -7.48038 -16.0549 10.6587 -0.122188 1.57495 3.88074
2731 1 22.0801 24.5824 -7.48068 -1.65327 -4.86337 3.36981
2732 1 -0.939981 4.92769 4.72009 -1.49969 -0.26936 0.0442193
2733 1 -7.89027 9.24011 -17.4004 0.947402 -3.78401 -0.465892
2734 1 16.4941 -7.68553 18.8561 -0.978729 1.81437 -0.665364
2735 1 -4.06557 7.94175 -15.5757 -3.00759 -3.16631 2.51472
2736 1 17.3925 17.3924 21.8743 -1.58911 1.81924 -1.06781
2737 1 -19.2506 -19.5546 -2.16869 -5.80454 -3.03323 -6.70505
2738 1 -6.35734 10.6738 13.6782 -0.690817 -0.896282 -1.87772
2739 1 -11.7498 -6.72781 21.608 -2.66826 -0.177986 1.27854
2740 1 -11.2377 -17.212 -19.3679 -0.534597 -2.28968 9.68926
2741 1 -6.70039 6.65536 3.15208 -3.26519 1.2162 0.479521
2742 1 -13.3827 14.0339 5.14943 -5.11208 -2.40535 -3.6276
2743 1 2.75424 -18.6888 -8.9476 -0.41992 0.996245 -1.88676
2744 1 -15.0028 -18.2267 -19.2291 -4.23086 -0.109699 2.5118
2745 1 -11.6412 22.4086 0.980394 0.75701 1.35217 2.5912
2746 1 5.39338 -11.6234 -4.12268 2.74681 3.47471 -0.759906
2747 1 1.88166 3.35728 16.1802 -1.90572 -0.681439 -0.655487
2748 1 -6.34803 -0.898418 -11.3065 3.7923 -2.14235 5.43733
2749 1 -14.2356 -7.01665 22.7291 -1.28102 -1.01844 8.81633
2750 1 -14.4594 22.7917 -20.7427 0.586186 1.37715 0.953018
2751 1 9.50998 -22.1457 7.14412 -1.34208 5.50509 -0.171072
2752 1 -6.82698 17.6458 -10.9296 5.03251 0.554596 4.1941
2753 1 -0.273216 -5.90717 12.0192 -5.27223 -4.77838 -2.35884
2754 1 -13.3705 24.0539 -0.537129 -5.02693 -0.598355 4.20651
2755 1 1.88791 -14.2409 15.7269 4.06609 0.586235 0.686382
2756 1 21.0948 11.3915 18.8916 -0.212312 -2.21873 -2.34408
2757 1 16.378 -17.9742 19.9682 1.32079 1.79257 -4.65204
2758 1 -19.4647 -15.2065 -9.09967 -1.11392 -2.44461 -6.14096
2759 1 -17.7288 -14.8849 7.48739 -1.22079 3.00841 0.684476
2760 1 -1.1873 14.8621 -18.8998 1.26886 -1.18332 -1.62632
2761 1 -5.75259 -12.4861 18.8541 2.83054 2.04994 -1.21139
2762 1 -11.2202 9.80198 9.44722 4.8868 -1.97011 1.37738
2763 1 -8.08077 -10.888 16.3419 2.6808 -1.93871 -3.95594
2764 1 9.58089 19.5168 -14.0695 1.28239 3.80069 0.925334
2765 1 8.84899 -15.547 -19.1077 -1.62126 -3.46734 0.987381
2766 1 10.7015 6.19884 16.7698 2.62703 3.27595 5.96792
2767 1 -13.4004 -16.916 -21.4243 1.5445 0.800119 2.47014
2768 1 -7.69377 23.2318 0.371666 -3.68358 3.66492 -1.02326
2769 1 -14.3682 17.6341 15.7605 -1.10426 -4.44556 2.95601
2770 1 -23.4941 11.3346 2.995 -3.77297 1.44195 -1.18684
2771 1 -17.7621 -15.334 -16.8517 3.04409 -0.939333 -5.95715
2772 1 -15.674 20.082 -17.6574 3.0365 -5.07923 -1.59526
2773 1 8.45373 24.3772 5.27277 -0.632295 1.53955 -3.33213
2774 1 22.1844 -0.939186 -16.9215 1.14545 -1.15527 3.89336
2775 1 -2.82401 -18.7622 15.0342 1.48369 -2.16475 -3.17449
2776 1 10.9922 6.97269 -11.8016 0.730758 2.87381 0.47272
2777 1 -13.1324 17.067 6.41534 -3.51535 0.871841 -0.29358
2778 1 -21.0107 19.2228 19.2149 -3.63405 3.66335 -3.26395
2779 1 17.8583 17.2401 18.6936 1.38009 6.99304 -0.600035
2780 1 -11.444 0.645489 -6.22831 -1.11955 -1.01034 3.12835
2781 1 9.30264 25.0508 12.8874 2.80256 -2.3239 -1.46127
2782 1 8.89129 -12.5875 13.572 3.32422 0.326831 -0.463196
2783 1 11.6175 -9.80092 -12.0903 -1.26713 -2.52854 4.92918
2784 1 -10.4084 3.25552 0.331516 5.70098 2.14824 1.81172
2785 1 20.8774 -7.1046 -14.8742 -0.624764 -0.540276 -1.42992
2786 1 8.23375 -3.94888 4.35793 -4.47123 -1.54162 0.759499
2787 1 -14.7783 14.8211 -0.22656 -0.568852 -3.91223 2.67943
2788 1 -22.1793 16.576 12.7457 0.563097 5.81332 -6.87893
2789 1 9.83777 -8.35756 -5.6099 2.69156 -2.52293 -3.90623
2790 1 -8.18048 -5.51055 -16.07 4.91245 -2.06881 7.23226
2791 1 23.1158 16.9202 -4.65984 1.67034 -1.0527 -5.88435
2792 1 -5.55589 -4.24872 4.78436 1.76678 0.531794 -3.10982
2793 1 -0.698108 1.25857 6.85715 1.60032 -3.51734 -2.1057
2794 1 6.32602 19.06 -6.69926 -2.26429 3.42145 1.84728
2795 1 20.8361 15.4237 -17.6122 -0.191531 -4.92099 2.95608
2796 1 18.0975 -17.4199 11.1426 -2.53598 4.03238 1.60752
2797 1 19.2322 -10.9908 21.5717 -3.41665 0.280675 -0.0612372
2798 1 -20.0672 0.921369 -4.73905 4.60492 -1.71524 1.77351
2799 1 1.27701 -17.3653 -6.74396 3.06816 3.38823 8.13975
2800 1 -10.6626 -15.9449 -15.5796 -3.69243 5.69649 1.34085
2801 1 1.88213 18.33 8.35378 -5.79459 3.49636 -0.418801
2802 1 7.97816 10.1907 -11.3527 -3.02972 -3.59563 4.79473
2803 1 23.3863 -7.47251 -16.3934 -2.20832 0.204677 -0.0848792
2804 1 -16.4736 16.5934 -7.65382 -4.52901 2.31399 0.977758
2805 1 -15.8699 6.69384 -10.6155 0.335358 1.59866 3.82525
2806 1 -4.32028 19.7556 -16.6006 0.417234 -1.441 0.570765
2807 1 -21.1579 18.331 -1.8231 -4.53923 0.412926 -4.67398
2808 1 4.30685 -24.0885 -12.8019 1.2109 2.16303 -1.5557
2809 1 -12.4889 19.459 16.9541 0.616111 -3.72644 -2.20711
2810 1 5.34248 25.9199 -15.8423 6.05325 4.02389 -0.636448
2811 1 -12.6796 12.2379 3.25204 -5.66175 -3.25882 -3.81085
2812 1 -8.74849 -0.990629 23.392 4.25484 3.49844 -1.51986
2813 1 1.24583 -9.70029 -16.3016 6.02946 -5.95915 0.664425
2814 1 20.7682 -3.22154 -6.78405 2.1536 2.57419 0.854477
2815 1 23.1511 4.6267 4.33052 1.82861 0.264234 3.27215
2816 1 -0.460598 -15.8959 20.248 -0.0233123 0.377816 0.0544652
2817 1 8.55036 -14.5785 -21.6626 4.90081 -2.52284 1.71962
2818 1 3.04306 -5.89798 3.30356 0.46166 3.87797 1.8234
2819 1 17.454 14.7817 15.0832 -1.31093 1.38874 -2.34823
2820 1 -16.3712 24.5998 5.22877 -2.1105 0.113922 -3.05013
2821 1 12.6694 -7.1365 -11.1211 0.93948 2.09388 -1.32496
2822 1 -13.3608 -3.49548 5.49985 -5.41625 1.5158 0.266151
2823 1 12.4757 -16.1179 4.2683 4.14415 4.11716 -0.631108
2824 1 8.35418 15.0097 16.4284 3.16378 -0.249733 1.03986
2825 1 14.2321 18.9026 -9.01313 1.27633 -0.474772 -2.2931
2826 1 6.96144 -18.7373 -2.99458 3.66775 -6.82451 0.758306
2827 1 4.34424 -8.81701 20.3754 -3.26459 -2.57338 -5.31202
2828 1 -0.519219 -6.10228 -18.0144 0.0224247 -1.20081 -1.88155
2829 1 18.1189 -24.1157 8.78255 -3.78128 0.00421544 -3.54522
2830 1 -22.9926 7.23942 -0.396789 2.76984 -0.166588 1.19779
2831 1 18.9263 3.54081 -12.9493 9.3536 -2.28899 -3.75971
2832 1 -21.7478 -21.8847 -10.5697 2.9163 -0.373719 1.77481
2833 1 -20.4742 1.58858 4.53655 -3.35027 1.12729 3.00011
2834 1 -9.54 -17.4285 -23.847 -0.622902 1.25337 -0.849671
2835 1 -2.67765 5.94189 2.35373 -1.38528 0.645958 0.111369
2836 1 -12.4877 20.0889 -5.7659 1.89319 3.16247 -4.05066
2837 1 -14.9396 9.20223 -9.09907 -0.514946 -1.07034 0.896415
2838 1 19.9089 -9.95686 18.9037 -0.0970145 2.35504 -2.75788
2839 1 -19.7685 -2.81071 -21.8631 1.56547 -2.03883 0.906798
2840 1 4.59218 -20.13 23.4818 -0.0284785 1.62889 0.0428108
2841 1 19.1784 -18.4021 -4.15745 1.61005 0.0268746 1.22943
2842 1 -3.21135 -12.9017 -9.91965 2.52329 -0.129741 4.88709
2843 1 17.4712 4.54196 -22.2324 3.79652 -0.128783 -2.34986
2844 1 21.4752 16.0405 7.40468 -1.89306 2.49802 2.90446
2845 1 21.0273 4.9353 -22.4358 0.87109 2.56454 -3.23755
2846 1 -21.0328 0.708961 1.93515 3.64642 -2.99771 -4.78307
2847 1 7.32793 15.8304 -0.0555884 4.0436 -6.77081 -1.62476
2848 1 -17.4529 46.8302 -9.35318 2.78475 2.1116 -2.04828
2849 1 -21.4173 -23.5593 15.2563 -1.29235 -2.0604 3.90861
2850 1 2.77654 3.05775 -9.72149 -0.0112982 -0.0650598 -4.18864
2851 1 -7.41904 23.7835 19.8524 -0.629802 6.75985 -0.333415
2852 1 2.09523 -6.40948 0.673101 -3.23599 -0.24334 2.88806
2853 1 -3.65948 25.4212 20.9893 -5.07447 -4.74857 0.56916
2854 1 5.44012 -8.12745 -5.68193 2.23724 1.01994 -3.13792
2855 1 -18.2398 -7.74773 -20.6248 0.712712 -1.54228 1.04726
2856 1 17.4152 -16.8989 -0.993437 1.17098 -2.28325 0.953144
2857 1 18.5895 7.94076 10.2784 -3.992 -3.21783 2.5581
2858 1 12.0865 -1.87541 -21.3571 1.84783 3.10864 -1.05446
2859 1 -21.1704 -23.7475 -20.2244 4.58315 2.95886 -1.26609
2860 1 -22.5034 7.13492 18.1337 -1.28167 4.1998 -6.65603
2861 1 14.0675 12.6066 19.5336 -3.55686 -0.534987 0.0270966
2862 1 10.4747 -2.95541 -18.9567 2.47663 -2.33038 3.30278
2863 1 20.844 -19.4263 -18.6479 3.84295 1.83757 -2.22895
2864 1 -17.8637 11.7797 14.7175 -2.40786 3.67601 -2.29691
2865 1 7.1136 10.8765 -1.174 3.84855 -3.1886 -1.82585
2866 1 -19.496 25.6782 -6.82933 3.59516 -3.3151 0.391932
2867 1 -20.1265 19.9564 -11.8543 -2.13605 -6.28781 2.05058
2868 1 4.24394 47.06 17.3616 -1.53283 6.71598 -2.07859
2869 1 -21.3094 -18.3858 16.3503 -2.72644 -2.15956 -6.02326
2870 1 -10.3521 14.3702 -9.85326 -1.39263 -3.22967 3.18911
2871 1 -14.661 21.095 22.9773 -0.128366 1.69981 -0.0248922
2872 1 8.20094 7.97071 10.2715 2.71095 1.35109 -1.50855
2873 1 -10.2253 0.964318 4.82743 -2.58021 3.46596 3.79363
2874 1 -0.558846 -12.2623 -13.9167 4.46565 -1.27285 -6.44742
2875 1 19.3754 -6.63557 -8.91496 5.9324 -2.11201 -7.20909
2876 1 20.6998 -22.5455 -22.7819 2.63175 0.639459 0.286838
2877 1 9.31397 -7.87335 6.05675 0.112709 0.690957 4.68207
2878 1 -17.9765 21.5806 -11.5017 -1.71857 -0.499685 -3.40391
2879 1 2.40302 17.672 5.6853 -0.409514 2.36281 -2.11763
2880 1 -1.5876 -0.462753 17.6916 1.83305 -3.33583 3.1575
2881 1 -17.3712 16.6408 -20.5429 3.56893 -0.421115 3.57851
2882 1 -18.5998 -16.3231 19.212 2.72873 3.4728 2.41459
2883 1 12.2479 -14.7535 0.190588 -0.236366 -1.26576 2.23365
2884 1 8.2336 -5.15353 -22.9071 2.30277 2.75104 8.86125
2885 1 -8.54754 3.4052 -5.33875 0.661035 -1.68322 -0.825354
2886 1 12.757 24.5731 1.50258 2.66737 1.84371 -0.195243
2887 1 23.0591 17.1446 20.1626 2.1123 0.754182 5.18424
2888 1 -11.998 5.37882 -23.1372 2.76936 3.66581 3.35784
2889 1 4.88111 -3.41899 8.10175 -1.13117 -1.06005 0.52263
2890 1 -2.16862 -6.14273 -22.5899 2.99938 1.23301 4.09178
2891 1 8.21116 -2.93001 17.6294 -1.40005 -2.03678 -3.9102
2892 1 22.154 19.1851 -8.41145 -2.36393 -0.958319 1.08753
2893 1 -10.1286 -14.7388 -23.048 -3.0632 2.79019 2.59227
2894 1 -9.49944 6.92654 16.4139 0.272994 0.916191 1.07368
2895 1 -18.9842 22.2505 18.0274 2.40978 -1.79677 -0.552578
2896 1 -13.3482 4.4619 15.8567 0.513168 -4.78603 -1.8439
2897 1 -3.47041 15.6584 -1.40156 -3.40235 -2.03408 -0.945312
2898 1 -8.37745 -9.65839 -21.2032 -5.5302 -3.45772 -2.33042
2899 1 -2.86529 -21.3568 19.6333 -0.87674 1.83229 1.59653
2900 1 16.3081 3.30425 22.5463 0.848316 3.60645 0.985113
2901 1 -10.0936 -18.5964 -17.0298 1.826 -1.03941 -6.11401
2902 1 -23.997 -0.0497888 -20.4437 1.35813 -2.4806 -1.38999
2903 1 -13.2813 -14.4724 6.39528 0.737813 2.32574 0.612173
2904 1 -4.72298 12.4077 0.717598 -2.07445 -2.78848 -2.53046
2905 1 -17.4998 23.7452 20.1329 3.76532 0.947279 0.148038
2906 1 13.4082 2.53254 16.1201 -1.26625 4.02266 -2.95654
2907 1 -17.7567 23.4396 -6.85185 -2.39818 1.98591 2.73702
2908 1 -1.31332 11.5588 18.9955 3.17689 -2.69845 -0.618178
2909 1 -9.64498 -5.29111 -21.872 0.421534 3.23521 0.515955
2910 1 -14.7467 10.4686 18.583 4.90932 -6.07652 -1.14641
2911 1 1.74682 5.15231 -19.8353 -0.634889 1.04647 -4.1408
2912 1 10.8935 -15.0248 -6.6555 -2.39913 -2.0355 0.182434
2913 1 17.2242 5.3242 -1.94438 -0.0766517 0.190701 3.30724
2914 1 -0.658105 0.820618 13.3738 -0.35165 5.2968 -1.93718
2915 1 -12.9822 -12.2701 23.7805 -1.90418 1.61883 -4.07388
2916 1 17.4895 16.8654 -4.85141 -4.60651 0.423834 -1.79677
2917 1 -7.55658 8.96965 7.04063 -3.03536 -2.33413 3.00567
2918 1 18.4011 6.11723 -4.42146 -0.383307 5.36386 -0.275973
2919 1 -24.05 -16.8783 -1.87313 -0.921515 -1.96251 -1.83249
2920 1 22.1082 13.1993 8.56563 -3.46856 5.52234 -3.24727
2921 1 -16.7133 18.5574 8.20372 -4.60238 0.610019 1.93126
2922 1 -13.1312 -19.7853 -22.3079 -1.89992 2.6915 -1.72375
2923 1 -14.7168 1.38516 20.6582 1.13178 1.4049 0.841941
2924 1 -2.63955 -17.3038 22.1726 -3.14647 3.28704 -1.99917
2925 1 18.2598 -10.6689 12.467 7.48234 -3.15599 -1.58905
2926 1 -7.76648 8.13196 -12.5294 0.699014 2.51499 -4.50531
2927 1 10.3697 4.41688 1.09097 6.80038 -3.19208 2.40746
2928 1 22.0958 44.7672 -11.8067 0.934511 -4.22455 0.122207
2929 1 6.13147 -13.2946 3.74872 -1.68831 1.66227 -6.33708
2930 1 -18.8318 8.12713 -0.28093 -1.32245 -4.55904 1.3621
2931 1 0.439811 -11.2373 19.5562 1.6674 -3.956 1.25817
2932 1 6.9804 19.4889 16.9463 2.52441 -4.51761 -0.100467
2933 1 20.2008 -5.95856 11.0633 3.15022 -5.76625 -4.52804
2934 1 11.1963 1.92379 -20.5461 0.0911822 -2.08194 -1.6102
2935 1 6.09819 22.7911 1.72464 -1.85346 0.0858674 -2.79174
2936 1 -22.2858 7.69942 -9.35406 -1.97539 -0.292493 -2.02127
2937 1 -18.6358 5.06116 -13.2786 -3.8142 3.19642 2.118
2938 1 -8.59594 -4.15977 -0.899812 -6.24323 0.603959 -0.635575
2939 1 -12.7109 19.3183 4.62685 -2.39364 -1.53137 -0.621425
2940 1 16.5229 15.6104 -1.13653 2.8113 -0.45685 6.78025
2941 1 -6.08727 4.39995 -11.3499 3.72714 -2.25943 -2.32359
2942 1 -21.0247 14.6155 20.1366 2.4765 -2.52007 -1.39813
2943 1 23.0683 5.87579 11.6778 -1.41197 -4.2769 1.28894
2944 1 10.7817 46.0417 13.5311 2.37113 2.68037 0.0229663
2945 1 -6.94399 11.3805 -8.19452 -3.04569 -0.552329 -2.24823
2946 1 11.5483 0.296221 10.1564 -2.2112 0.420279 1.83228
2947 1 19.3515 -14.5112 -23.0946 0.726831 -0.305536 -2.26392
2948 1 2.69641 -20.1898 -2.8135 2.48432 -2.55485 -2.29316
2949 1 -5.67197 -21.3157 -22.6402 0.900763 -0.238163 -0.727014
2950 1 -18.5712 16.6902 5.40441 3.14968 4.79859 4.54998
2951 1 14.0144 -17.8411 -12.1697 -1.79028 2.28926 -6.43429
2952 1 -11.8675 22.8499 -19.851 3.35328 0.956161 2.10014
2953 1 17.5052 4.28326 0.759546 5.07627 0.801617 -2.85238
2954 1 -15.7641 -1.79394 8.43402 0.803752 0.827487 2.84315
2955 1 13.3375 -10.8108 15.2368 1.98438 4.22319 3.01478
2956 1 -13.571 20.3406 -2.02372 2.676 2.29053 3.06921
2957 1 2.54758 -18.9374 14.0963 -2.60914 2.50504 -0.586724
2958 1 6.60845 -7.78273 -11.2556 -1.6433 3.96278 -0.126536
2959 1 -17.5014 19.4005 -21.3993 -0.746351 6.06723 2.31981
2960 1 -14.0321 -2.85223 -21.3161 2.32264 -0.927963 0.633045
2961 1 -12.1172 -11.6952 -21.5238 3.3008 1.02127 1.44726
2962 1 -8.84446 -0.82283 -15.7219 -2.21851 1.34342 2.37359
2963 1 -22.8551 12.9041 -5.58595 -1.9043 1.98087 -3.09626
2964 1 0.209002 -21.5159 -20.3398 0.464837 -1.8895 -6.26803
2965 1 17.4858 -0.304166 -14.9795 0.464912 5.26085 0.643449
2966 1 -1.45285 -22.7187 17.5519 -1.81733 -2.14015 0.505618
2967 1 0.744925 12.0698 9.07093 1.83201 3.70366 0.426507
2968 1 -4.52885 -15.1163 -0.00510781 -6.53306 0.177271 2.01953
2969 1 -4.05391 -1.97614 17.9519 2.9564 3.54428 1.64737
2970 1 20.1077 -12.1576 -11.8128 0.65807 1.1157 2.73894
2971 1 -5.72693 20.7288 11.2401 0.0530911 -1.71313 -3.17295
2972 1 -9.20305 9.82008 -10.6991 -0.795586 3.51989 0.55495
2973 1 -13.1551 16.0249 20.8215 -2.21039 -1.03473 -4.78001
2974 1 22.7223 0.693719 19.5827 -3.14129 -1.17251 0.446059
2975 1 14.6403 11.1526 -1.35813 -5.16005 0.687362 -2.25827
2976 1 -17.3575 20.4837 -14.1468 3.92993 1.25915 1.91449
2977 1 2.66142 -9.24118 1.32054 -2.35616 -3.75397 1.05233
2978 1 11.8656 19.005 -15.6373 2.37921 -2.23633 0.929471
2979 1 7.0524 3.55518 16.1651 1.8856 1.66286 1.68415
2980 1 -3.14246 12.6994 -1.72714 0.191816 6.12375 4.05119
2981 1 -14.5541 8.88226 16.238 1.50339 0.512096 -0.969619
2982 1 -12.2181 -6.58164 8.94792 -1.85869 -4.20942 -4.1722
2983 1 -9.47418 13.7437 -22.0808 -0.441431 -3.52194 3.10066
2984 1 0.446858 -0.990166 23.4253 -1.67045 -2.02909 -3.95056
2985 1 -13.8759 -12.6332 11.3761 -2.66912 1.50854 -2.83419
2986 1 -6.49004 21.334 -22.6224 -2.7947 -3.52321 0.406742
2987 1 -21.6088 45.5384 -7.82081 -2.85959 0.456835 0.145176
2988 1 0.514872 -22.7087 -4.99149 2.9003 2.52234 2.95412
2989 1 20.9713 20.5709 -10.5588 1.28341 5.35311 -0.276548
2990 1 11.7655 -20.2967 15.035 4.8547 3.37395 -2.68668
2991 1 3.74569 2.6289 11.2946 -1.63857 0.170364 -3.39369
2992 1 21.9236 13.838 -12.693 -1.08032 -1.34798 2.78917
2993 1 -24.1122 16.2066 15.7982 1.8036 4.52227 -2.83893
2994 1 19.02 -0.450292 11.2064 -1.21807 0.768696 1.60539
2995 1 -2.31335 9.99388 -5.25734 0.840586 -3.78511 0.210087
2996 1 11.569 5.8895 5.08611 -3.43053 -3.73768 -4.57803
2997 1 -6.35487 -18.2759 6.73043 4.08764 -0.195721 2.06876
2998 1 4.02562 -16.385 16.3691 1.01046 -1.303 2.61589
2999 1 14.1038 -18.535 -3.40342 1.0497 -2.89389 1.2069
3000 1 -1.16761 13.7688 15.4245 0.5612 -0.172432 -6.41921
3001 1 10.5339 13.4756 8.01519 -3.21047 0.473309 -3.02211
3002 1 -19.8567 14.3572 17.5902 -0.731868 -1.58222 1.36417
3003 1 14.7962 14.8081 11.6888 -1.32053 4.52637 -2.03462
3004 1 17.1204 18.9907 -16.7162 0.0401083 -0.919106 -0.604384
3005 1 2.40275 4.235 -5.50081 3.27723 1.8732 -0.47127
3006 1 19.8474 6.16199 -18.4425 0.50077 -2.03272 -1.81786
3007 1 -7.08873 -22.5303 20.6953 1.67048 -2.90627 -1.51136
3008 1 -2.24932 -21.8863 22.3478 0.364571 4.36628 -2.85394
3009 1 -14.9667 -21.7266 9.71796 -4.47084 -6.31503 -3.02354
3010 1 -16.9608 -20.2927 -15.9747 -0.93839 6.04825 -4.68071
3011 1 -8.9296 -1.20071 -12.641 -1.76817 -0.108071 -0.79389
3012 1 3.80515 -24.2454 -20.4396 -5.16447 -0.101396 2.78939
3013 1 10.565 -16.7481 21.9112 5.71086 -2.05407 -2.22975
3014 1 20.9636 13.8035 20.4933 0.107258 -1.93966 -0.239
3015 1 -2.33384 12.3818 9.04806 3.33807 2.46376 -1.99033
3016 1 18.3009 -11.8175 -23.527 -0.483056 -4.43731 2.90443
3017 1 -13.0521 9.49928 -23.0333 0.664342 1.16966 0.873723
3018 1 -22.1752 -0.254488 -13.1407 2.53728 -0.984589 6.23254
3019 1 -19.1434 -22.6156 11.9214 -3.72213 -2.05791 0.088736
3020 1 -14.7105 -8.24656 8.72882 3.44231 -2.63219 -0.700406
3021 1 -18.8605 24.6122 -3.37194 -2.79207 -1.99339 0.647207
3022 1 16.6001 -12.898 0.342437 0.668468 -2.23375 -3.52572
3023 1 5.25386 19.4605 -4.21173 -0.289574 2.97747 3.48544
3024 1 -22.3655 7.98928 2.16202 0.866532 0.440565 3.07091
3025 1 5.41346 46.6617 10.2636 -4.25759 3.33906 1.22321
3026 1 0.0267517 -21.9543 7.54024 3.4988 -0.619982 0.890951
3027 1 14.0571 4.24251 10.7553 0.571232 1.32788 0.538156
3028 1 -18.1139 14.3523 21.232 -2.46736 -2.83855 2.41785
3029 1 6.79603 4.65626 11.8677 -0.190294 1.05617 -3.73205
3030 1 -18.1633 17.9698 -12.7337 -1.5335 -3.35294 -2.47074
3031 1 21.6937 -12.1913 -18.3419 -4.2525 -0.483891 -2.35095
3032 1 18.6259 -11.0813 -6.98698 6.18756 0.278854 -2.04224
3033 1 -11.0324 2.91157 6.798 -2.85282 2.17275 -4.11095
3034 1 -10.4805 -7.48144 -16.4192 6.57052 -0.243616 0.29109
3035 1 19.7566 14.5635 5.62671 2.07922 -2.06748 -0.457452
3036 1 11.502 19.3769 22.1516 -2.72607 -3.55507 0.891965
3037 1 -3.42245 -10.0669 7.11732 -2.72103 3.57488 1.3292
3038 1 -16.4609 46.6275 -17.2146 -3.52507 4.50582 -1.71032
3039 1 18.5652 -23.7807 17.0366 1.17186 -3.06348 -2.64328
3040 1 8.10061 -18.0753 13.8261 -8.2461 -2.18418 -3.54469
3041 1 -20.599 20.808 -3.00754 1.4519 2.38869 -2.57382
3042 1 -7.14157 22.3302 13.1181 -1.261 4.84568 -1.41555
3043 1 6.34429 -11.9592 -16.8243 -1.4625 5.55747 1.95006
3044 1 -7.34694 15.5542 -3.95773 3.02292 -5.5645 -3.04558
3045 1 1.3376 -3.83504 4.91156 1.94797 0.682931 6.74291
3046 1 17.0153 -11.9096 -16.277 -4.86565 -3.27475 4.99162
3047 1 9.0074 21.0167 4.02314 0.254569 2.62949 0.799331
3048 1 6.44572 -10.9161 19.9813 -0.555059 2.04489 1.40343
3049 1 -10.3253 -23.4135 -15.3686 3.58592 -1.80353 -3.92704
3050 1 1.62708 45.7088 17.4857 -2.58021 0.564999 2.20376
3051 1 -17.5054 0.420205 -14.1776 6.43688 0.961598 6.28347
3052 1 -21.4856 14.9341 -14.2555 -3.9327 -5.28972 -1.24485
3053 1 19.7074 -22.8306 -1.11757 -2.80658 -3.7383 2.3425
3054 1 19.1982 -2.44916 20.5862 0.570654 -0.305563 -1.43519
3055 1 19.2926 3.06075 5.10045 -1.71236 -0.260554 3.0025
3056 1 -23.8198 14.1574 13.5377 -5.91833 3.19561 0.00893814
3057 1 17.747 8.76357 23.3739 -2.8561 2.62841 -1.75972
3058 1 11.2556 -6.7139 9.98791 3.6757 -0.667229 -0.809755
3059 1 -10.5265 -21.5904 -6.0224 -0.967648 2.4641 -4.53736
3060 1 -23.1297 24.7366 -3.19714 -0.753267 -0.814248 -3.191
3061 1 -10.2146 25.0958 -16.373 -1.84511 3.20103 7.50795
3062 1 -11.6832 15.1888 -16.6854 0.979641 -0.705311 4.12854
3063 1 8.97717 21.4656 -11.9737 1.48548 -2.60326 -2.22866
3064 1 -0.419716 11.5731 -21.4574 5.50166 -1.47864 5.96865
3065 1 5.99923 -11.8877 -11.8391 3.00666 2.60282 0.159561
3066 1 21.7197 -3.81905 0.834617 -1.8045 0.0155869 1.20134
3067 1 16.1759 19.1031 -14.0277 -1.58405 0.745717 -3.68026
3068 1 19.2214 16.483 -1.71453 -0.756454 -1.50765 -1.31934
3069 1 7.4713 -7.84725 -3.88727 -2.8337 -4.52802 -1.16095
3070 1 22.5498 -7.96553 -0.231751 3.81847 2.02948 -5.68095
3071 1 -2.96596 -1.10174 -3.94448 3.1312 3.0624 0.550961
3072 1 1.27919 10.6073 20.2171 5.8059 -0.999478 2.58871
3073 1 1.8744 21.5778 0.0279858 -1.05973 2.72597 -5.79387
3074 1 -8.44763 -8.475 10.0477 5.05631 -1.58254 3.63105
3075 1 19.8875 10.2615 -22.8753 -3.49099 -0.743049 -6.4211
3076 1 -11.8701 20.455 11.9021 8.77665 -1.76519 -3.52949
3077 1 -13.429 45.3798 -9.3324 -0.661813 1.41521 0.772302
3078 1 -20.3114 5.45461 -15.8933 3.48555 6.69192 1.68541
3079 1 13.0386 -4.33583 -2.89805 -0.766013 -3.81207 0.992385
3080 1 -20.3614 10.9053 -8.09558 1.04753 2.20938 4.99624
3081 1 -18.7085 8.78395 6.68311 1.47532 -2.61823 3.30286
3082 1 -3.21596 3.11853 22.3817 1.12018 7.82922 1.36799
3083 1 7.81795 -13.2188 -9.55217 -7.61876 0.776748 0.314961
3084 1 -15.4153 -20.8324 6.94374 -1.5963 -2.4174 -1.03476
3085 1 -16.9802 -1.8565 -7.12755 2.15464 0.100933 3.27008
3086 1 15.1792 18.7445 5.96436 3.84141 -3.4008 -0.624182
3087 1 -10.8823 -19.7569 11.5319 -1.78348 -7.28958 -1.82849
3088 1 8.84342 3.53286 13.9836 3.1066 2.80627 0.00433679
3089 1 9.74964 -20.4462 13.0457 0.858128 1.38524 -3.6941
3090 1 16.1927 -2.38586 -6.63117 -5.50004 -2.47082 -3.07473
3091 1 -5.41753 2.8161 20.5329 -3.99549 3.44072 -2.88956
3092 1 -9.22803 -5.26477 22.0549 2.52666 -1.84546 -2.31479
3093 1 -12.9809 3.76768 -20.7741 -2.12088 -2.786 0.308636
3094 1 14.8501 3.79602 19.9178 3.78566 -0.225229 0.275075
3095 1 -15.5521 -13.4354 0.281528 -4.85229 1.88623 -0.137997
3096 1 8.79774 5.25779 -22.7129 -2.88323 0.830466 -2.74856
3097 1 -6.50432 -12.1596 -19.4744 -2.47951 -4.57215 -2.09715
3098 1 -8.06272 -19.226 3.75828 -2.39292 -5.37125 3.83251
3099 1 -21.3414 10.0515 -23.8414 0.313944 -4.73342 -2.05978
3100 1 20.3194 -10.3506 -22.0418 2.39052 0.438805 -0.285424
3101 1 22.3901 -14.315 -20.3202 2.47865 -2.99685 -3.94481
3102 1 4.98866 3.49778 22.6359 4.76922 0.103856 2.78931
3103 1 -6.8794 -11.3501 -23.4969 -4.88987 0.841506 0.462792
3104 1 -20.9106 -7.368 9.81693 -3.79231 -4.28277 -0.43391
3105 1 -23.851 -6.07511 20.4165 -3.35754 -5.32036 -2.03057
3106 1 0.9699 -10.7035 -6.05653 1.15326 -5.84722 0.957153
3107 1 21.9307 -11.9255 21.5742 1.18472 3.88909 1.70971
3108 1 8.36479 -16.7034 -6.70553 2.8479 -4.37863 4.07538
3109 1 1.82952 -2.55441 2.35901 0.398536 -3.89492 1.54987
3110 1 8.73122 6.0282 -0.894199 -0.175392 1.26853 -1.07769
3111 1 11.8852 -19.062 -17.6052 0.953479 5.28869 1.91784
3112 1 -2.10519 -10.0435 -21.038 0.718246 -2.35808 0.335231
3113 1 8.88466 -13.0986 -17.6974 -0.386929 0.797698 -1.81549
3114 1 5.10136 6.63566 -18.9544 -1.77124 2.72287 0.0796071
3115 1 -20.4888 20.0564 -14.7407 1.1589 -3.51368 1.38731
3116 1 -10.1882 16.1075 -0.777618 -2.55358 2.52469 0.957069
3117 1 16.9335 -11.499 -4.33182 2.54108 -1.6898 -2.91461
3118 1 4.64952 6.39112 4.0167 3.31296 -1.39755 -2.54292
3119 1 -7.42017 -7.98146 3.76865 2.1469 -3.1779 0.013568
3120 1 -12.0195 -9.06313 -18.305 5.0485 1.39953 -0.818977
3121 1 2.4368 -23.0017 15.4789 1.43024 -0.0443862 -2.52056
3122 1 -13.5635 24.7036 19.0746 0.3271 4.06777 0.32024
3123 1 13.5688 16.9197 13.3712 5.60647 2.09464 0.446411
3124 1 -15.4063 12.0685 -9.49593 3.419 3.96639 -2.62788
3125 1 -2.00536 -14.6424 -3.69226 -4.08627 1.10701 -3.62071
3126 1 1.14715 7.36674 -8.27479 -2.48347 1.30087 4.33842
3127 1 17.3529 6.91999 1.53311 -3.16072 0.0295307 3.21697
3128 1 4.7593 8.97898 -15.8978 -2.57193 -0.492786 3.5517
3129 1 -2.33963 -11.6912 11.0274 -3.30161 -2.35242 3.45411
3130 1 22.3431 -9.98025 9.91937 -2.19368 -0.747992 -1.5308
3131 1 -10.8105 13.3653 1.52406 0.668176 -1.36982 0.143148
3132 1 4.76818 10.772 2.52859 1.81993 -1.76681 -4.77098
3133 1 -2.23692 14.2127 -13.9087 5.07662 -1.10683 -1.41898
3134 1 20.4471 6.92901 -2.69474 -6.53264 1.66202 1.73232
3135 1 -16.9645 -13.192 -2.56104 -2.01929 2.22667 -1.07401
3136 1 -17.1419 -23.7619 5.38546 5.57924 -2.69029 -1.25178
3137 1 2.49219 -6.7693 -17.9864 -0.855439 1.51648 2.12656
3138 1 17.0799 -3.80183 22.3356 -0.66216 0.580254 1.15948
3139 1 6.00052 10.4645 -13.3358 -0.838511 -0.556207 5.82768
3140 1 2.10146 17.1651 -18.1689 -1.1381 -3.78583 4.71632
3141 1 8.04222 -4.4595 -6.30008 3.81899 -7.79104 -0.428748
3142 1 1.58637 24.6068 -18.7563 -1.09808 -5.09818 2.10121
3143 1 23.0287 22.9374 -21.7476 -0.561538 -1.29923 -1.67822
3144 1 -0.111421 12.4389 3.91472 -0.78466 -4.21266 0.561077
3145 1 20.3035 -19.3033 8.74373 -0.360528 -2.2815 3.47142
3146 1 0.414795 6.75968 -11.012 -0.458016 -3.67369 7.66701
3147 1 -2.24007 -16.9058 -0.512876 -1.84329 -4.73866 -1.29625
3148 1 9.08618 -9.92783 4.12464 -7.17232 -4.45071 1.64275
3149 1 11.4527 6.21597 -16.7068 -0.62925 -2.29754 0.337359
3150 1 -20.4357 14.204 4.55966 1.47393 1.87406 -0.667433
3151 1 -11.8807 45.2087 -15.8201 -0.314046 3.60676 2.02792
3152 1 -13.5928 19.0746 -23.1584 -0.650439 -0.549223 1.57772
3153 1 17.2036 7.18215 -21.0589 4.14546 -1.96918 1.68018
3154 1 10.123 19.3438 1.89956 0.738141 -5.32229 -1.11272
3155 1 -5.32735 -12.1466 3.16109 -5.18017 1.43831 0.0306549
3156 1 18.3974 -4.43859 7.63936 -0.747397 -3.22683 -5.344
3157 1 11.963 1.86418 4.47103 0.095741 2.61744 -2.5087
3158 1 22.063 -18.8193 -7.72317 1.73383 -1.27346 5.68291
3159 1 18.2102 3.42249 -5.65419 -1.51089 1.30281 -1.27952
3160 1 -9.20051 45.5654 -23.4213 -0.6555 1.53929 -3.36335
3161 1 -8.60981 -16.8649 -2.94252 -2.10358 3.46494 -1.97619
3162 1 -13.6089 -14.7151 -13.2493 -1.17922 8.16976 -1.04986
3163 1 23.1113 -0.201019 14.2341 3.59922 3.46305 1.98962
3164 1 -20.1702 3.1657 19.3103 2.38474 3.31187 3.61449
3165 1 -6.7907 21.2556 -15.9863 0.848386 -3.03572 -2.8106
3166 1 15.8729 -9.24423 16.4002 0.01305 -1.42358 4.54933
3167 1 19.0434 -16.33 -20.6521 1.61022 -4.18959 -2.90508
3168 1 -15.7822 -21.5185 18.3116 1.96846 1.90388 -3.99174
3169 1 14.1272 -23.2353 -20.508 2.33963 3.12149 0.866632
3170 1 5.27579 22.9608 -23.5668 -3.54382 4.64422 -1.35413
3171 1 -7.14357 15.8356 -22.1702 8.23876 -7.33151 3.52224
3172 1 -7.46554 1.72746 7.39467 -2.63321 -1.46881 -5.13275
3173 1 9.3464 18.2984 10.2744 0.289414 -5.63342 -0.601766
3174 1 -23.9885 12.3617 -10.9993 6.57459 4.80924 -4.13202
3175 1 19.5918 1.44251 -4.07745 0.959761 6.93416 0.613142
3176 1 16.4778 -1.15774 15.2488 -3.20884 -0.0491226 -0.368281
3177 1 -0.999088 -9.70133 23.8617 2.7987 2.97856 0.383216
3178 1 14.1165 20.3834 10.9027 -0.52498 -1.49319 2.67114
3179 1 2.16268 1.08328 22.3863 4.36544 0.513686 0.864512
3180 1 1.63185 14.0952 2.85129 -5.34783 0.51488 0.535231
3181 1 -21.3477 -19.5004 20.7878 -4.12007 -0.180045 -3.02604
3182 1 -16.0658 46.0026 23.1104 3.28322 -3.09309 -1.97419
3183 1 -21.9275 17.8466 -5.17975 -1.5648 -3.6032 -2.77243
3184 1 13.741 -2.28532 1.82375 -2.35294 3.72603 -1.04579
3185 1 -14.6202 19.9099 -20.4654 0.976396 0.13196 0.892885
3186 1 -6.95075 20.2062 7.02513 0.587164 -2.73503 5.22738
3187 1 -20.6767 -17.9539 1.44561 -3.01888 -1.51126 -3.27416
3188 1 -19.9885 13.4964 -9.40307 0.790967 0.725109 5.05999
3189 1 13.9057 11.6458 8.55337 -2.9273 0.892854 3.97389
3190 1 -21.541 22.4828 -15.8056 -2.85614 -3.78462 2.5344
3191 1 5.47644 -5.78992 -7.49014 -1.07605 2.61509 0.965854
3192 1 -23.5361 10.8057 -1.32661 0.268321 -4.22283 2.72392
3193 1 -18.72 24.1997 -0.648499 2.12893 -4.00588 -2.85022
3194 1 -17.521 -5.71536 2.67225 2.84801 -4.07166 0.0454716
3195 1 -16.0952 2.07736 2.91148 2.29878 -3.57385 -1.27602
3196 1 1.01667 1.57645 -3.20472 0.637533 -1.41361 -1.51619
3197 1 -4.40762 10.052 2.92327 1.45294 -0.959335 -1.14751
3198 1 9.88495 4.27784 -18.0364 1.23512 -1.06288 2.35977
3199 1 13.5209 -23.0633 5.14926 -0.620445 -1.24649 2.14417
3200 1 -23.2649 -3.97857 -4.95872 -1.41837 -4.35374 -0.259609
3201 1 -14.4921 -2.27508 19.3999 0.435027 2.0135 1.12367
3202 1 -16.6596 -12.7316 -8.92053 2.08777 0.510834 1.68963
3203 1 17.5171 10.193 20.8689 2.61182 1.68411 2.25861
3204 1 -16.6465 -9.11155 10.9228 -1.91457 3.34655 2.17802
3205 1 -12.2081 3.57115 -5.84856 -3.36314 0.403006 -3.47265
3206 1 14.1509 10.9975 -6.01443 -0.305995 -1.53424 -0.0241504
3207 1 -2.43287 -7.39156 -16.3704 4.57371 1.36284 0.548931
3208 1 6.51805 -7.51742 5.64103 -0.593304 0.0944251 -1.18251
3209 1 10.4361 -14.1444 -24.0958 2.77594 0.964705 -5.36731
3210 1 -13.7961 11.0476 -2.86655 1.6814 -2.1794 -2.08699
3211 1 -3.02697 20.1443 12.261 -1.16872 -2.47017 0.555293
3212 1 -13.5118 9.04915 -19.296 -6.81154 -1.19288 -0.600219
3213 1 -2.577 1.367 -14.442 -2.72051 0.0660802 2.58616
3214 1 -1.72244 16.1244 16.9891 0.625515 -0.430233 -1.52313
3215 1 9.17695 2.82724 10.5065 -2.91562 -2.82626 0.103424
3216 1 22.2115 -2.60794 8.38216 1.17566 5.7674 4.45578
3217 1 9.67174 1.24829 8.08861 -3.48742 -4.54175 2.76953
3218 1 -3.79252 23.0923 -9.63596 -1.27069 -0.110846 2.87253
3219 1 -6.16993 -20.9997 -17.0757 -0.247255 2.38664 2.98031
3220 1 -4.61346 -8.48115 16.6199 0.506376 -4.97003 3.07483
3221 1 -6.44196 -6.11229 -1.85082 1.21367 3.50236 0.111812
3222 1 -12.8048 -17.9587 -0.652682 2.25402 -1.83276 -0.52673
3223 1 23.0046 8.85511 18.2324 -2.40132 -1.81364 0.193462
3224 1 -7.59056 -6.748 1.05023 1.74749 -3.13611 3.40818
3225 1 -8.37124 -6.2226 16.4729 5.00193 -1.63942 -2.68955
3226 1 -22.8623 26.1873 -10.0848 -3.74567 -3.05647 1.17297
3227 1 6.28167 21.3617 -2.00116 -2.54356 -3.7963 -2.88152
3228 1 -10.4708 11.3413 -12.5983 1.8696 2.06783 -1.49827
3229 1 -10.2254 2.76538 -2.25457 3.52268 -5.2992 -1.26059
3230 1 -23.4301 14.8733 -22.2018 2.01499 1.5743 4.10592
3231 1 -17.3601 -17.6301 -0.983 3.08902 0.71643 5.8
3232 1 -22.3481 16.3909 5.26346 2.24701 7.81706 -1.09795
3233 1 -0.490244 17.0892 5.93921 0.739331 4.26677 -3.58846
3234 1 8.4015 -5.54183 -12.0398 2.25057 -1.57718 2.97262
3235 1 -5.6297 12.6251 -12.6167 -2.69368 1.02228 0.360421
3236 1 17.3058 20.6381 8.68489 -3.79439 -3.704 -2.22005
3237 1 -2.47517 -13.2141 -23.1529 1.37159 -3.35602 0.888207
3238 1 18.5039 21.9628 -2.37313 2.1964 -0.460835 2.82593
3239 1 -11.3332 -15.7552 8.30146 -5.56544 -4.14346 1.39185
3240 1 -12.784 -22.0057 -16.0499 -4.49757 -0.095538 -2.00742
3241 1 3.03161 -21.4612 13.023 1.95852 1.13204 0.338372
3242 1 21.3767 -13.9186 -15.7492 -1.56368 4.85618 -1.45051
3243 1 6.78517 17.4503 22.1794 -2.65592 5.00485 1.25648
3244 1 19.2512 15.2096 -12.0458 4.84615 2.49719 5.37186
3245 1 -9.3078 21.711 11.3435 5.44886 3.07963 -1.44788
3246 1 20.3517 5.80302 4.76233 -0.77789 0.524586 -2.91988
3247 1 -6.21139 10.4405 -11.0298 -4.1476 3.84576 -3.38561
3248 1 9.13423 -2.17127 0.215901 2.34604 0.829443 -4.42428
3249 1 8.3167 -3.86018 13.2687 -1.28035 -3.30413 -2.32796
3250 1 17.0068 3.05676 -19.0121 1.41278 4.19412 -3.05179
3251 1 -0.323435 19.1687 12.9657 4.06427 4.55487 5.24852
3252 1 20.0569 46.0557 12.6635 2.85942 -3.31896 -0.842732
3253 1 9.40978 15.5494 4.10735 0.295075 0.466076 -7.84094
3254 1 20.0264 5.22549 -7.26536 -1.86555 -1.94338 -1.56491
3255 1 -17.6947 12.6412 -20.0067 3.17555 0.274075 -1.73185
3256 1 -4.05475 18.4547 -10.8478 2.32995 -3.25993 3.18516
3257 1 -14.3486 8.08769 20.37 4.53146 0.024343 1.42943
3258 1 -20.8753 -6.74528 19.5606 3.00304 -2.97935 -5.06008
3259 1 18.0429 19.9185 6.00605 -0.568087 -0.0758492 6.66538
3260 1 19.6716 44.9784 -7.54923 -3.03866 2.88853 0.880049
3261 1 -14.9066 -2.93976 -16.4854 0.385372 -5.11997 -3.71083
3262 1 8.74674 8.0309 13.1192 4.10265 -5.59383 0.626321
3263 1 20.894 1.6102 17.6407 0.236769 4.21224 -3.41286
3264 1 11.7899 8.18664 21.381 -6.95254 1.2331 -5.38163
3265 1 4.36096 -4.04952 -12.415 -3.45343 -3.00874 0.869651
3266 1 9.95898 -0.596653 -23.0404 -1.61433 -1.57478 -6.36925
3267 1 -15.6842 9.5126 2.13923 4.96951 0.546736 -0.606494
3268 1 8.20245 -19.9404 10.7492 0.774806 -4.12226 2.65087
3269 1 7.10988 17.8428 -2.74519 -2.17626 -4.94595 -4.55142
3270 1 16.7968 -18.758 15.2757 0.416213 -0.924575 2.43215
3271 1 8.30551 -11.6649 21.8672 2.67533 -0.508409 -1.7502
3272 1 2.62334 12.3887 -7.73768 0.911526 -0.910663 -0.0659595
3273 1 -15.9085 7.67818 -15.751 -0.360646 1.50756 1.01611
3274 1 13.2488 -20.1709 5.12144 3.05103 -1.76579 0.36697
3275 1 20.3565 7.07086 12.4614 -0.048924 -0.446793 -0.000349479
3276 1 9.90906 1.15384 12.5744 -0.986666 -0.556662 -3.03051
3277 1 -0.0771321 -16.1147 2.84559 3.03271 0.969243 3.16074
3278 1 0.638632 -5.32016 -21.4748 -1.47654 -7.23711 -2.37957
3279 1 6.78374 -1.02058 16.0042 -4.32729 0.313479 -1.02966
3280 1 7.57006 15.0758 13.4328 0.505549 -0.170321 -4.552
3281 1 -3.77923 -15.26 12.6896 -1.57088 -3.49636 -1.17128
3282 1 1.78414 -2.95596 -16.7602 -2.47553 -2.24144 -3.39657
3283 1 -4.22105 -0.575123 15.0589 -4.03365 0.234592 2.20836
3284 1 13.3002 24.7441 -19.9036 2.90572 3.16871 0.106063
3285 1 2.1436 18.859 -13.2531 3.73784 0.356227 -0.203388
3286 1 -17.1941 21.7272 4.86986 -1.03695 -1.09775 -3.33178
3287 1 -4.66098 -12.828 16.089 2.11785 -3.77912 -2.51128
3288 1 -0.290609 8.51417 -21.3445 0.044622 -1.31522 5.32959
3289 1 -17.0359 -24.2876 12.6279 5.40403 2.8512 0.228021
3290 1 -13.8885 21.811 16.8913 -1.02015 2.34233 5.82351
3291 1 20.6924 24.631 -11.3374 -2.38504 -1.36914 1.59316
3292 1 -22.8172 22.5225 1.75424 -6.03239 -1.29682 1.93346
3293 1 -10.5297 12.7137 23.1005 -1.69114 0.215077 4.06504
3294 1 -22.511 -1.03278 -16.7195 1.34139 -4.52669 -0.456403
3295 1 4.33975 -22.7361 1.19137 4.01155 2.94345 0.939602
3296 1 -18.0959 -12.7531 15.7407 1.91186 -0.104483 3.34515
3297 1 -17.4109 24.2394 23.1453 1.72988 2.57712 0.12423
3298 1 4.73876 -8.29842 -17.1311 -1.809 -0.210675 0.0852737
3299 1 -13.8474 23.7554 -5.13996 -3.2823 1.94851 -4.24553
3300 1 -1.10526 5.86456 -7.34223 -1.25611 2.83273 1.28421
3301 1 -21.5949 10.5068 -10.4538 -1.67509 6.72424 1.81765
3302 1 -18.7942 -11.5107 19.4402 2.21818 -6.28519 5.09113
3303 1 -23.5806 46.5434 -16.0373 0.994515 -1.84046 1.08812
3304 1 -1.7948 16.7455 12.5602 0.453417 -0.426989 2.44447
3305 1 3.49751 5.97698 -7.3919 7.73744 3.46579 -2.84211
3306 1 -7.74161 11.4179 -21.9828 -2.74872 0.56551 -0.514714
3307 1 -20.5914 11.7733 19.8724 -3.66356 -4.34325 0.586074
3308 1 -16.4521 19.184 -2.05382 0.219804 0.583166 -0.404769
3309 1 1.99203 0.718341 12.8902 -2.45644 3.68638 0.357747
3310 1 15.698 25.2196 7.7533 -2.43005 1.7605 4.1325
3311 1 11.1319 3.72153 -10.0123 -2.63303 -2.31701 0.67466
3312 1 -23.6063 6.3284 15.5661 -0.139886 1.24004 -2.45397
3313 1 13.5587 10.2625 11.3353 -1.61616 -5.9795 -3.36882
3314 1 0.906335 -2.27659 10.2566 1.56567 -0.784741 3.21007
3315 1 22.4595 -11.5369 -23.4987 4.01655 1.11141 4.30734
3316 1 3.31484 -6.17653 -5.37868 1.07209 -2.00622 3.81054
3317 1 2.19911 0.196128 9.88294 -1.06538 1.18609 0.980072
3318 1 -9.38989 1.7222 19.5851 1.26217 -2.8169 2.72123
3319 1 0.594879 3.8193 -14.069 -1.62126 -1.65166 0.0487124
3320 1 4.61869 6.86416 -11.8102 4.05513 0.80123 -0.0928856
3321 1 -7.03528 -16.5998 20.5351 -1.13316 -1.42849 -1.59749
3322 1 13.5165 -11.1838 -23.9781 7.52881 -1.73176 -3.92898
3323 1 -4.1312 17.946 13.5538 0.542702 -2.29912 5.9774
3324 1 15.7016 -15.5876 -11.4533 1.90325 3.86936 4.53441
3325 1 -10.9289 15.8025 4.97147 3.9908 -1.00959 -0.616279
3326 1 -22.8862 6.52669 -21.399 -0.467131 3.13651 0.674637
3327 1 6.5395 -22.5863 -9.45708 -0.908072 0.69282 -5.56219
3328 1 3.16004 -17.7379 -11.5588 -1.39261 6.9042 4.59658
3329 1 15.7839 4.4729 -16.7112 0.826622 -2.4867 4.7547
3330 1 -8.23416 19.1096 -14.5481 -0.507032 -0.443448 1.33885
3331 1 -18.1852 -4.53177 -1.62845 -0.677562 -1.604 2.17593
3332 1 -5.02941 9.30465 21.724 0.329844 -0.607965 3.5274
3333 1 6.50202 -7.3729 21.8023 0.187644 -0.0251189 1.85818
3334 1 23.1945 20.4245 16.4718 -3.04854 0.302355 -0.0671461
3335 1 23.3399 0.00125508 -4.01118 0.106059 -0.508079 -2.75645
3336 1 14.215 -16.7864 0.872291 2.41188 1.08524 -2.25709
3337 1 -14.8685 10.5147 9.24816 1.60163 4.08713 3.45244
3338 1 10.1834 22.6475 16.3676 -5.71462 -0.837845 -2.99492
3339 1 10.4357 21.396 -21.7283 3.38757 -1.7341 -1.50102
3340 1 19.7111 -0.603972 -19.4112 -1.4824 3.30865 -0.519583
3341 1 19.3198 21.5317 -15.1189 -1.50911 -0.765843 5.01266
3342 1 -1.1944 -1.3893 2.52386 -4.61714 1.71715 -1.23006
3343 1 -23.331 -4.69078 -16.1853 2.29618 3.53194 2.60312
3344 1 18.517 -20.6585 16.7912 2.65745 -0.886144 -0.983632
3345 1 13.4049 24.9207 23.6446 -0.339835 2.51335 1.56618
3346 1 8.90885 -23.0005 -1.02946 -1.02208 -3.61886 -4.00776
3347 1 -24.2195 14.0963 -15.0917 -4.33082 -3.47666 -0.325539
3348 1 -10.5392 -19.4139 0.251419 -4.83586 0.986871 -1.51374
3349 1 13.6955 20.0767 -13.2232 1.14772 4.54912 -2.54643
3350 1 -3.56422 -7.137 14.1498 -3.10112 1.18648 -5.82792
3351 1 -20.8701 -9.79043 15.1749 0.417308 -4.1068 -0.209496
3352 1 5.0744 14.7911 3.97242 5.32502 4.19875 -1.38481
3353 1 -22.7327 3.68454 16.5372 3.81084 -5.54928 -1.15963
3354 1 -16.1223 8.72908 -0.523454 0.552313 -1.09023 1.02797
3355 1 -16.4624 -20.6794 -6.73008 2.39568 -2.27271 -0.642282
3356 1 -9.45643 23.2333 6.46671 -0.269083 -1.57964 3.37251
3357 1 7.11802 -6.46006 18.5316 1.83786 -4.92374 0.679764
3358 1 -2.26434 22.5018 13.6983 1.22597 1.97154 3.22895
3359 1 -5.85462 24.7294 13.4919 3.076 -1.11636 -3.61972
3360 1 -7.6835 -15.4576 16.7446 -1.88335 -1.80342 1.04181
3361 1 -2.95814 25.5529 10.1257 0.828926 0.0524928 -2.5227
3362 1 -6.06172 3.14292 -14.6008 3.62833 -1.53582 2.04361
3363 1 11.8982 -1.97957 -16.6221 1.52725 3.21904 1.49755
3364 1 -19.6737 -8.73584 1.19232 -1.6486 0.887526 0.280842
3365 1 0.300479 -8.4818 10.1062 -0.525519 2.70267 2.10339
3366 1 -18.4691 -24.0736 -21.3738 0.742694 2.67204 0.83134
3367 1 4.108 -20.3692 -21.5102 -4.02176 -0.3119 1.07561
3368 1 21.4878 -19.9785 16.3746 3.29892 0.435048 1.46792
3369 1 -3.21973 -3.61502 -7.8077 1.46908 0.667246 6.47166
3370 1 -18.7765 -14.757 -14.1247 4.76944 4.95802 1.73191
3371 1 -9.21223 4.17238 15.6575 -1.33769 -5.32769 -0.345058
3372 1 4.86034 -3.05519 -7.03604 -1.88966 -1.05364 4.76265
3373 1 14.1393 -6.29117 18.9821 3.12437 -5.50554 0.105179
3374 1 22.1267 -14.3019 -23.0995 -4.12626 1.50498 2.499
3375 1 21.2715 -10.1544 -1.72581 2.35973 4.82924 0.450941
3376 1 -16.8588 9.13561 14.5389 3.49458 -3.97617 -1.58886
3377 1 5.14975 -15.1562 14.0149 1.29158 -1.43797 1.22069
3378 1 -6.31143 -16.9394 -1.33224 -3.56971 -3.86724 1.14334
3379 1 11.6992 -9.93931 6.32299 -0.361535 0.983499 -0.368267
3380 1 0.952777 18.7002 23.8244 -0.280265 -1.59708 -2.65075
3381 1 -3.98437 -15.499 -20.346 -1.39576 0.85499 0.131115
3382 1 -19.9775 15.2675 13.6609 1.68393 -0.929793 -1.1187
3383 1 -20.6738 25.523 -17.065 -4.89273 4.31656 -3.11378
3384 1 18.1297 -19.4248 -12.8803 -0.00315062 1.48844 7.45853
3385 1 -1.10428 -18.8232 -6.6724 1.33375 -2.68821 -2.2791
3386 1 7.72909 -7.82107 -23.354 -1.54657 2.85448 -7.33925
3387 1 -18.0998 -2.7163 2.46544 -2.16693 -2.05195 2.40179
3388 1 -19.961 -1.7414 14.7102 -1.87389 -0.441981 2.93887
3389 1 -13.2802 -11.2865 -13.2202 -0.919776 3.22183 4.7919
3390 1 22.6232 -22.4145 13.9999 0.129857 -1.78057 -3.26553
3391 1 -8.07551 -16.4327 4.98899 3.30342 -4.22795 0.506341
3392 1 -7.86173 0.893503 -17.9256 -2.75295 4.44894 -1.86415
3393 1 -15.2236 15.8523 -18.7338 -8.1265 -7.5177 -1.19526
3394 1 -10.3917 -0.147994 14.9786 0.0605881 -1.21965 1.84741
3395 1 15.243 -16.4061 11.0028 1.95834 -0.383211 3.43088
3396 1 -19.1141 7.39999 -6.84352 -2.45674 2.69514 -1.04005
3397 1 -4.01223 5.07173 19.5014 -2.18035 0.09487 1.68404
3398 1 -6.25162 -19.5552 -5.26544 2.01114 -6.50901 -4.55446
3399 1 0.245027 -6.6721 4.43212 -1.89287 0.843645 0.210696
3400 1 16.2142 -24.2765 -21.8138 2.83252 -0.186812 4.21604
3401 1 -18.9403 -22.895 -13.711 -2.53224 2.55602 -5.25616
3402 1 14.5498 -19.763 -18.1195 -1.98053 -0.519108 -1.72211
3403 1 -15.754 -22.8469 0.476979 2.142 -0.245467 2.08678
3404 1 -17.2775 -9.53356 2.68526 -2.55984 1.5229 1.28461
3405 1 16.3234 5.06495 12.8313 4.94749 0.50399 0.487584
3406 1 5.5527 -5.09128 4.54033 5.72043 0.68051 -0.441424
3407 1 12.5052 0.27004 -11.0036 4.61992 -9.74568 -5.74666
3408 1 -19.1171 16.2418 -22.8871 -5.67475 6.66722 -1.31223
3409 1 -2.07546 -18.1814 17.7714 3.34329 -4.02592 3.94255
3410 1 -19.7363 -7.15352 14.1665 -3.62479 3.77268 -1.57948
3411 1 -3.56938 -3.4639 20.269 -1.6477 1.5943 3.29109
3412 1 6.36743 -2.30739 -9.56672 -0.341749 2.08119 -4.67012
3413 1 -1.01175 -23.8439 -18.7287 -0.00322982 -4.38138 -0.0641725
3414 1 -18.8965 4.51064 -6.47119 2.83777 -4.93372 -1.48609
3415 1 -17.5882 1.76312 -16.6502 -0.597161 0.35764 3.89447
3416 1 20.9484 -21.4214 -7.42889 0.959837 2.64503 -0.898127
3417 1 -23.0257 -11.4445 9.18236 1.26608 -1.85383 1.48321
3418 1 18.2843 18.0581 13.0255 2.12053 -0.868459 0.234092
3419 1 -10.7172 -9.5841 1.03063 -5.16018 -1.08796 -1.91651
3420 1 -20.0082 10.2445 8.56306 -1.33764 -4.7911 -1.65354
3421 1 11.0789 14.757 -13.6152 0.451254 -1.60323 -3.958
3422 1 7.23716 -15.1351 -4.50871 4.29569 -3.2401 -3.41191
3423 1 -13.38 3.3652 0.888215 -3.78358 -0.670316 2.45963
3424 1 -1.66807 -10.9677 2.74379 -1.2966 0.414624 -2.46124
3425 1 -23.181 -10.2363 18.3914 -1.76126 0.286354 -1.24172
3426 1 -21.0166 -6.14337 5.43424 -0.994898 -3.69009 -2.05487
3427 1 -23.1797 11.4996 -15.7065 -0.369347 1.82659 -5.1832
3428 1 -3.51073 12.4916 16.8262 1.84722 -0.0246041 -2.24014
3429 1 7.71754 -17.4291 16.6736 2.38745 3.77652 0.403377
3430 1 -11.7457 -15.7594 19.2747 -6.25299 -3.10481 2.15301
3431 1 -8.52453 -3.80222 1.98742 1.05274 -2.05918 1.80741
3432 1 -3.00391 9.52556 9.00891 1.99903 0.0317783 -4.52797
3433 1 -8.91621 -0.744367 -20.0659 -1.26234 -0.675989 0.423911
3434 1 13.0338 16.0475 -11.8253 -5.36587 2.75895 -0.824322
3435 1 -1.26876 20.91 -15.4884 -1.72328 2.02588 -0.780454
3436 1 -3.41691 9.74891 17.694 -1.25247 -2.15725 -2.07562
3437 1 12.1721 16.3532 -5.84413 -0.153409 -0.531135 0.72877
3438 1 -17.562 11.1935 3.1342 0.221717 -2.97095 2.45366
3439 1 2.62144 -13.7938 13.1079 2.17818 2.81645 4.4355
3440 1 4.86856 24.1695 -9.31974 1.85762 4.34511 -0.209588
3441 1 6.66488 -13.0559 -6.88951 -7.3496 -1.42423 -4.47003
3442 1 -4.84951 0.520744 6.88986 0.420667 -0.0542554 1.18431
3443 1 -23.4257 1.87925 0.229588 2.3957 0.810152 5.44846
3444 1 -17.9853 14.1064 3.06661 -0.618285 5.21505 -1.2898
3445 1 -12.4598 1.82053 -10.5693 -1.79158 4.35577 2.85922
3446 1 -4.09676 -24.0394 -18.1896 -0.748568 2.75558 1.60243
3447 1 -5.95655 4.04817 -5.74585 -0.372044 0.460197 2.36537
3448 1 -20.6261 5.51724 13.7328 6.20599 -4.79986 -3.088
3449 1 8.01726 24.5532 -16.0755 4.25701 2.3346 0.44553
3450 1 -2.09324 -14.8016 -14.4489 -4.06015 3.54823 -0.36145
3451 1 6.23792 -9.95302 -18.9516 -1.80361 3.06466 0.05676
3452 1 -12.0424 -0.697712 -13.3341 -4.96557 -2.74538 -4.3714
3453 1 16.0156 9.93815 -20.3882 1.20704 3.8521 0.63639
3454 1 -24.2248 20.7531 12.7704 1.02625 -1.15572 -6.76274
3455 1 -17.6797 16.0035 18.8387 2.00126 1.38009 -1.68404
3456 1 9.91122 24.4549 -13.741 4.32386 0.0127679 -1.77028
3457 1 -22.814 18.9457 21.3331 0.739392 -4.04925 -0.97777
3458 1 15.485 8.53523 -22.745 -2.679 -3.45196 -3.42575
3459 1 -3.29762 18.7221 16.2305 -1.69449 -0.0989598 3.01329
3460 1 -1.95163 21.3499 17.4016 0.172629 0.320715 -4.45996
3461 1 -13.7153 46.2722 18.89 -3.57167 1.09469 -0.799791
3462 1 -12.7089 22.473 -7.45777 0.809452 1.72103 7.08943
3463 1 23.4328 7.6725 -23.6505 -0.408963 -1.39156 -4.20776
3464 1 -19.1523 -18.9729 12.2001 -1.77309 -0.818107 7.15033
3465 1 2.47302 -4.67505 11.4318 -3.40533 0.908 -1.87364
3466 1 -10.8465 4.85493 -8.105 -7.30719 -1.78787 3.1548
3467 1 12.3514 14.1737 13.7843 1.61792 3.78058 -0.444962
3468 1 -6.41474 -5.48063 23.0864 4.08451 0.129876 3.61558
3469 1 -2.54362 -10.5867 0.074583 6.48729 0.650752 0.889661
3470 1 -17.2273 -21.5529 -9.36275 2.94864 -0.164142 0.416411
3471 1 -15.8134 -17.4616 -16.4054 0.205766 -1.72029 1.44662
3472 1 -13.4403 11.3661 -17.7476 -5.93482 4.24476 -2.62919
3473 1 23.3718 23.4926 -18.7924 1.94061 -1.27377 5.65715
3474 1 16.8708 -3.76065 12.6884 2.6879 1.2253 -2.3684
3475 1 -19.3732 -13.9252 17.8926 -0.245223 -2.74828 -6.95733
3476 1 3.26204 13.844 15.7568 2.18044 -2.03069 2.36402
3477 1 -20.2037 -0.0252806 -15.1315 -1.99706 -2.08507 3.17953
3478 1 11.1842 -13.96 2.96266 -0.735002 -4.74965 3.48182
3479 1 13.5144 -5.47497 11.6644 -4.9676 -4.37189 1.44811
3480 1 22.33 24.9381 -4.56555 0.73108 1.69293 2.15541
3481 1 3.5623 -22.8375 23.2161 6.5978 -0.0660715 -1.10946
3482 1 14.8169 18.5999 2.78727 0.91092 -1.97462 1.48253
3483 1 10.5839 20.6642 -0.553654 1.82663 -4.40573 3.1485
3484 1 2.91318 10.7781 7.18621 -1.26917 0.372833 4.50804
3485 1 2.1037 6.68127 -3.8537 -1.45847 0.883085 -0.0415607
3486 1 15.4016 24.119 16.4431 -4.03259 -3.39065 5.7599
3487 1 9.70835 -10.9235 -9.99885 -4.75195 0.205689 3.93088
3488 1 14.6448 16.681 -14.0396 2.11063 1.06012 4.67751
3489 1 17.9945 1.59307 -9.7866 -4.99612 -2.5981 -0.653375
3490 1 -20.7293 6.1523 4.1471 2.40602 6.00242 4.24764
3491 1 -8.33545 8.59347 -22.1928 0.800577 -1.20461 0.609435
3492 1 16.9646 -3.61672 5.21786 3.39198 -4.05381 2.59522
3493 1 6.38799 9.97848 16.1034 0.0181722 5.04115 3.54395
3494 1 -16.4982 2.8634 22.7465 -1.81913 5.59881 0.391749
3495 1 23.0261 -4.55828 15.5625 4.12122 -0.881518 -5.22995
3496 1 -10.229 7.75937 -16.5057 -2.64691 2.57566 3.00429
3497 1 -16.899 12.3009 19.3687 1.15514 1.12669 -3.51266
3498 1 -16.7105 13.1798 7.11406 -0.197467 5.08124 3.66961
3499 1 -21.0307 21.9065 -21.478 0.653196 -0.418096 3.83563
3500 1 18.8102 14.2781 -8.1988 -2.95419 -1.21388 0.180997
3501 1 -16.6009 19.3782 -6.64432 -1.81477 -4.41574 0.638126
3502 1 -8.34087 22.3336 -3.77421 -0.461054 -2.5857 -2.72553
3503 1 18.3922 -23.0988 3.18003 0.867169 3.43832 -1.74279
3504 1 18.1031 -0.730103 2.19878 2.04321 -2.30903 -2.27634
3505 1 0.935496 -13.5075 3.80066 -5.66424 -4.25747 -1.2282
3506 1 -22.1397 23.5963 -5.68104 0.180515 -2.97247 5.12195
3507 1 8.20782 7.24305 -10.8133 -0.474565 2.9649 2.43626
3508 1 -3.74369 -12.4725 -20.6304 -2.28534 -3.79995 0.989132
3509 1 -18.5805 -19.7219 -21.7982 3.80197 -5.22145 -5.9336
3510 1 -11.253 4.62549 13.6761 2.59045 0.330616 -0.20845
3511 1 17.0715 9.79364 -1.90612 2.94319 1.01665 -0.846803
3512 1 -17.0542 4.49447 2.008 -1.23698 -0.802034 -3.96381
3513 1 -18.919 -21.6033 -19.8836 1.1622 5.61819 1.58583
3514 1 -1.27814 17.3607 -11.0958 -1.71533 -0.5008 -5.57186
3515 1 15.0269 -18.6317 9.07951 4.04542 -1.57108 0.486244
3516 1 -21.7155 4.52835 -18.2589 -3.22183 5.51868 -0.496261
3517 1 -7.94438 18.752 17.5567 1.8985 0.526226 1.62304
3518 1 1.39552 1.02673 -0.149843 4.35507 0.0497057 -5.72157
3519 1 -4.00701 5.77427 16.7929 -0.762016 0.649585 3.42244
3520 1 -5.51797 -12.9301 21.7865 -1.09882 1.73835 -0.126101
3521 1 1.96163 13.6823 -14.5131 6.43135 3.29013 -0.315185
3522 1 22.1016 16.3631 -23.1064 -5.5111 -0.675218 -1.47401
3523 1 -13.4915 -18.6934 6.45996 -5.26782 -2.23201 2.15645
3524 1 -1.70404 24.9134 -1.40104 -2.71466 -0.734422 -0.840652
3525 1 -15.6795 14.1038 -20.9766 -4.41131 1.19582 2.26257
3526 1 10.5695 21.3628 -7.33269 -1.26611 2.19587 -1.52781
3527 1 -2.00463 12.5006 5.96669 3.68882 -3.1034 -0.506651
3528 1 -22.5898 -23.7484 0.340692 -1.10304 2.34135 -0.429467
3529 1 -21.322 8.88038 20.1365 -0.300035 -4.37666 1.11288
3530 1 -11.9483 10.4536 6.98489 1.41783 5.73 2.13225
3531 1 5.05993 6.5236 22.3138 2.6666 -1.04044 4.71995
3532 1 -6.11333 14.2068 -8.03294 -4.3769 -0.549241 -0.620019
3533 1 15.2876 11.7217 2.89543 0.910115 1.68918 3.96597
3534 1 7.00891 -1.17713 20.9553 2.80609 -0.99336 2.95065
3535 1 14.2385 -22.538 -17.7036 0.0974017 1.14229 -2.47839
3536 1 22.599 -19.6911 10.8482 4.27805 -2.5111 -1.03138
3537 1 19.1482 24.9562 17.0527 1.12233 -0.387623 -0.074565
3538 1 4.49459 -7.12642 15.3526 -2.69327 1.8709 4.47129
3539 1 14.306 24.8606 -12.5517 1.34805 1.97096 1.76729
3540 1 -0.804073 13.3754 -3.85612 -1.61673 1.46369 3.9011
3541 1 14.6813 -3.14481 -21.1383 -2.41551 5.22159 2.56514
3542 1 17.7587 -1.1471 6.26671 -1.045 -3.9047 3.24285
3543 1 -16.3736 14.3157 -6.25277 -2.44678 0.518408 0.773009
3544 1 -8.85081 19.6783 -3.10899 0.343107 0.416318 2.05221
3545 1 2.15166 20.9205 12.5228 4.085 -2.65218 4.70061
3546 1 17.1191 13.6952 -10.5122 4.06417 1.49591 -1.6485
3547 1 9.94086 -16.8864 -8.99944 -2.9952 -0.914058 7.69891
3548 1 9.35832 -10.5883 -18.9945 -3.30977 -1.11621 -3.86108
3549 1 -9.73031 7.04275 6.90213 0.90116 -0.176611 5.42562
3550 1 -12.895 17.6043 9.02111 0.220077 4.68496 -3.53557
3551 1 13.6063 0.518739 -20.4535 -5.50596 -0.0935577 -0.294053
3552 1 14.4364 20.8991 8.1924 -0.111836 2.3172 0.599576
3553 1 -10.4361 18.3146 -5.04829 1.92585 -4.07002 -0.168929
3554 1 12.9997 12.3767 -14.2289 2.93858 2.61605 2.39874
3555 1 -19.2722 -20.4683 0.622999 -1.71503 0.894758 -0.748354
3556 1 -8.29918 -13.1707 17.8526 -3.52228 -4.35918 1.4924
3557 1 11.7826 7.31865 -19.7813 3.69736 0.127653 0.584481
3558 1 -18.4077 -13.797 1.07154 -3.00974 -2.39114 1.86973
3559 1 9.71883 -4.43448 10.7143 2.70662 1.94204 -2.06237
3560 1 -19.0647 17.8916 -16.2019 -3.99591 -0.403854 -0.398
3561 1 -19.9046 21.0425 4.19266 5.20759 2.48031 1.27024
3562 1 20.0655 12.0797 2.36608 2.6159 0.643724 2.93056
3563 1 4.08734 -22.4253 -6.89047 1.40787 1.85641 -1.80942
3564 1 19.44 12.7301 -15.8078 0.072083 0.805064 1.4711
3565 1 16.5076 -18.8803 -5.18802 6.99134 -1.82685 -2.94697
3566 1 -12.2021 -13.5807 3.84527 5.848 3.02834 1.87985
3567 1 1.75082 -8.42384 6.49993 2.37359 1.7815 4.64111
3568 1 19.5813 -3.33529 11.9845 -7.82595 1.4942 -1.23914
3569 1 -3.35464 5.07754 -12.4782 0.826829 2.99085 1.57384
3570 1 11.4551 23.598 22.2072 -0.674097 1.01935 7.34989
3571 1 2.75477 21.3472 8.76287 -0.0965826 -2.23435 2.14474
3572 1 -13.1482 -16.4345 -17.1428 -6.74098 -1.92003 -3.23918
3573 1 20.5718 -3.8272 -2.01253 2.52346 4.12642 2.06746
3574 1 -15.9156 -4.08487 -12.0967 -0.354245 0.592659 1.26668
3575 1 -11.003 -11.6593 -11.3865 -3.08913 0.35616 2.57738
3576 1 15.6001 4.32561 15.5213 2.38645 -1.56182 0.515868
3577 1 -6.67126 9.35846 -6.42117 2.50423 2.39213 -0.0857202
3578 1 21.165 7.49019 20.0839 -3.27418 3.06021 -3.41361
3579 1 -18.62 -10.1884 -7.29991 2.38664 2.08546 -3.37181
3580 1 -1.42143 -10.1864 8.9791 2.46356 1.56239 -0.283953
3581 1 -11.3228 9.65076 4.24676 -0.977075 0.386133 1.31128
3582 1 -15.4531 -22.8405 14.3793 -0.565232 -3.34437 2.56951
3583 1 -18.4293 16.1686 8.17606 0.645661 -0.303007 -0.790551
3584 1 13.6167 5.99506 21.94 3.68295 -1.28662 -2.4328
3585 1 11.15 -2.30786 9.36932 0.447866 -2.97169 1.37113
3586 1 15.0766 -0.172242 -8.26705 3.06969 -3.24707 4.08644
3587 1 22.1973 -16.9324 -18.1227 1.93392 0.464701 -2.60678
3588 1 -22.8261 -7.01848 -10.1003 5.16977 -1.86479 -1.94928
3589 1 -13.3484 0.328701 -8.2181 2.10552 -0.73088 0.859903
3590 1 11.6288 -0.580326 -1.91376 -3.52185 -3.14775 0.562986
3591 1 -8.18515 -8.70068 23.3767 0.466807 0.656664 -5.51432
3592 1 -5.59337 -16.911 -4.14071 0.471827 -1.52077 -1.9156
3593 1 14.8936 -12.7558 -11.6513 2.975 0.276395 1.98051
3594 1 15.6894 -0.117871 4.01343 0.0600502 -0.483897 -1.35034
3595 1 -3.7911 -14.949 8.62569 1.57774 -1.6774 0.248548
3596 1 -7.25842 -8.40846 -8.48675 -4.33448 -0.0133354 0.275853
3597 1 -4.52499 11.7051 5.27978 -3.5206 2.08902 -4.07132
3598 1 -12.7544 -11.4402 -3.75221 4.55455 -2.09359 -3.32859
3599 1 13.9135 14.6832 -7.71489 -3.12744 -3.81444 -1.18
3600 1 -21.4964 24.1915 -8.43696 2.44642 0.894937 -0.256979
3601 1 -21.912 -12.3694 -4.36638 1.60945 -0.780864 5.55734
3602 1 2.10242 26.0649 22.3344 2.49805 -0.813021 2.78212
3603 1 -4.28854 -0.285864 12.2821 -0.71046 3.64489 -2.23904
3604 1 11.0406 14.1775 -23.74 0.979279 3.51591 4.50338
3605 1 13.8866 21.0723 13.6579 0.276684 0.393505 4.08795
3606 1 2.22698 7.65973 -15.3734 -0.114726 -0.760596 -0.444246
3607 1 -20.2484 5.12019 17.3722 0.147227 1.70638 0.454657
3608 1 18.9505 23.567 -17.3353 -1.46604 0.71026 -0.208348
3609 1 11.4605 -12.5467 7.45872 2.82933 -3.65472 1.04464
3610 1 15.7249 12.2537 -22.0888 -1.8316 2.76194 5.43011
3611 1 -18.805 23.4302 -15.642 -3.71791 -0.499236 2.35917
3612 1 -4.04392 17.9904 -7.68634 -1.66128 -2.14373 0.206498
3613 1 1.40902 25.8207 12.6745 -1.14566 -2.3178 3.92496
3614 1 -0.0979 -4.28933 -2.50706 -5.50915 1.25919 -1.87873
3615 1 3.77491 19.6752 3.95701 -1.45316 3.7606 1.37885
3616 1 -10.1831 -11.9773 20.0557 -0.0805227 -2.92773 -0.27325
3617 1 16.1564 -0.498927 -20.8357 1.89555 -2.36022 4.81787
3618 1 0.674731 -8.32697 -7.46998 0.119903 5.16723 3.58532
3619 1 -2.53164 19.9375 9.53859 0.298506 0.607261 -2.74403
3620 1 -1.76154 14.5701 -10.1853 1.92301 4.48693 -5.19938
3621 1 -7.42747 14.1667 12.2197 2.53811 2.22571 1.64054
3622 1 7.0851 -12.6179 6.48477 0.534598 0.134605 -2.16889
3623 1 11.6822 -0.854915 16.0799 -2.17974 2.18562 -1.42697
3624 1 23.177 -8.84255 5.53675 0.339796 -3.2369 5.04229
3625 1 6.3624 -16.2749 22.311 3.75272 1.23092 -2.74914
3626 1 -14.8168 4.04767 -7.17548 2.35007 -0.134515 4.09513
3627 1 -2.4253 18.7445 6.8315 3.29779 0.175565 -6.30799
3628 1 8.4141 -1.35298 9.01861 -0.963034 -2.73651 -0.355372
3629 1 -1.44351 -4.26421 3.5787 -0.99681 1.20969 -0.715847
3630 1 4.71123 -12.7845 -0.0403292 1.19958 -4.18291 1.19257
3631 1 7.67688 9.2526 19.9475 -1.26866 0.70234 -1.42522
3632 1 -15.199 -16.0817 13.8224 -2.51493 2.29949 -2.98364
3633 1 12.3532 5.34425 -4.80634 4.44058 1.12435 -3.23807
3634 1 -2.2697 5.20662 9.76791 3.07648 5.54777 -0.97476
3635 1 0.706724 -16.1661 -20.171 3.49382 7.66341 -4.50951
3636 1 3.77354 -19.8197 -14.5327 0.469384 -0.507493 1.83594
3637 1 -4.66727 15.5937 -23.5861 -1.22526 0.981497 -1.53324
3638 1 -22.6005 -8.87768 20.7636 -0.139361 1.39669 -1.45639
3639 1 6.09117 -18.8003 3.63517 -5.84769 -2.54118 -2.48273
3640 1 19.6246 -17.4515 -11.2726 -1.99478 -3.17139 -1.60246
3641 1 3.95895 12.0088 20.1631 -4.69473 -1.65788 -1.75694
3642 1 -2.27 -15.8291 5.23922 4.46473 -5.46482 1.3087
3643 1 0.339117 4.50586 8.56131 4.38062 -1.12624 -1.07058
3644 1 18.0762 20.2917 -0.0417621 1.11407 0.907469 0.320429
3645 1 -16.7027 -14.2461 -6.49319 -4.54556 -2.85267 -3.01964
3646 1 19.5896 3.93944 -20.139 -1.61141 -4.94415 3.19755
3647 1 19.8925 -21.7058 5.40406 2.91908 -0.427603 0.538257
3648 1 -22.0223 -21.0006 -0.0970726 -1.72959 3.48226 -0.240134
3649 1 -18.0815 -0.700711 -18.1279 -2.63275 2.04621 0.808236
3650 1 6.54175 -7.39917 -15.2386 5.73774 0.952909 0.792886
3651 1 -9.8457 8.43836 13.8614 3.31481 -1.29868 -4.26028
3652 1 21.5005 -13.534 13.6877 -3.89124 -1.21912 -0.258047
3653 1 -1.2272 17.4439 -0.589013 0.991751 1.4137 1.27674
3654 1 -19.8907 22.7782 12.891 -1.74106 -2.20815 0.796495
3655 1 -9.22864 23.6687 -13.8058 -5.04076 2.94198 3.65843
3656 1 -12.179 -20.0881 21.3717 -1.28154 -0.0109968 2.45078
3657 1 22.2598 26.3326 -9.44707 2.71166 0.0086046 1.65412
3658 1 20.2053 14.7674 15.9544 3.00469 4.39786 -2.15552
3659 1 22.4936 7.14448 -18.1213 2.6866 -0.264142 -3.05063
3660 1 15.8266 8.82913 9.75051 -4.77635 -1.94186 0.894403
3661 1 21.3301 11.1463 -20.469 -2.31473 -1.60533 -0.213593
3662 1 -0.942342 0.785714 -22.3602 -2.25407 -1.80609 -2.89534
3663 1 -20.515 -13.6856 -11.7953 2.66375 -0.111803 -1.274
3664 1 5.50647 18.3347 12.8553 -1.43298 -3.36952 0.5469
3665 1 10.6622 -9.13439 -16.6172 0.951086 2.86456 1.73772
3666 1 6.10854 -15.3336 -22.9122 0.0670394 0.932625 0.037951
3667 1 13.4214 14.0973 -17.1211 -2.77185 4.76069 1.05815
3668 1 -12.7817 -2.96837 22.6521 1.07797 3.30906 -2.15999
3669 1 0.174492 21.8578 4.43791 -2.58822 -2.04018 3.24018
3670 1 13.5064 7.0361 -10.4234 -1.02871 -2.26836 -2.08159
3671 1 -3.05062 11.6898 -13.1468 -0.689983 2.94558 -3.16811
3672 1 -12.726 11.4644 11.3287 -1.19831 -4.06959 4.53982
3673 1 -2.57142 46.0699 20.4303 -1.17329 -5.951 2.15844
3674 1 0.537029 -0.741962 -6.70716 3.78802 -4.60148 -3.12807
3675 1 -12.8859 19.3052 -8.36952 1.94772 0.567032 -1.68982
3676 1 15.4956 13.8944 -14.9202 -0.4049 0.618157 -0.245319
3677 1 -5.59629 14.4996 16.5954 -0.501372 -2.13886 6.57881
3678 1 -18.6962 7.14751 12.2552 -3.89858 -0.860866 0.182304
3679 1 9.15131 -18.6651 -4.51034 -0.373246 -0.745802 -2.09242
3680 1 15.3687 5.854 -23.7692 -0.555113 2.86518 2.33135
3681 1 -6.57405 0.84908 15.2091 3.84144 0.66877 0.0848558
3682 1 -24.1435 -22.7598 16.7963 2.79088 2.45605 -1.52492
3683 1 6.09001 12.0849 5.09926 -1.80935 -1.12277 0.86629
3684 1 13.6583 16.4654 -23.0593 3.16314 -0.804097 -0.900602
3685 1 5.01515 -4.58572 1.61918 0.279008 2.14149 -1.85023
3686 1 -21.412 11.0359 0.563183 0.158915 -1.29677 -0.704114
3687 1 7.80465 -16.1808 10.2951 0.918667 -3.78945 -3.76393
3688 1 -11.267 -22.943 -1.00056 3.31525 3.95954 -1.0795
3689 1 20.8962 17.9684 -14.8091 5.45925 0.562033 1.19596
3690 1 -7.73686 7.03597 -8.19447 4.63287 -1.41233 -1.35653
3691 1 21.9067 45.152 -8.94139 1.50426 3.87916 -0.468181
3692 1 5.23142 -1.21172 -18.8632 -5.69416 -1.60346 3.53806
3693 1 3.6577 22.6249 -1.73834 -1.91329 -5.76494 5.14633
3694 1 -22.1003 1.28789 -6.97894 -1.63145 -2.13008 -0.676529
3695 1 -5.77422 -2.58679 2.20593 -3.44619 1.8466 -3.57815
3696 1 8.38089 0.0719696 -17.4478 -0.291849 -1.15765 3.55826
3697 1 8.94606 5.14277 6.52937 -0.537619 1.33857 5.41791
3698 1 -22.8037 2.0529 14.2689 0.83081 0.496194 -5.45174
3699 1 -9.31498 -3.45617 16.3833 3.34572 2.66915 1.603
3700 1 -3.99313 -22.4546 -15.6148 2.02144 -3.4882 0.0536251
3701 1 12.7194 -2.61259 11.9711 -0.916796 4.9979 -2.83052
3702 1 -7.18184 0.685208 -13.6396 1.65083 2.77005 1.25213
3703 1 19.8532 15.1094 -22.2873 -2.95307 -4.13088 -3.364
3704 1 15.8072 -4.61357 10.1053 -1.28941 2.82119 5.39867
3705 1 3.7426 -0.727577 3.62938 -1.16047 -1.58377 3.0573
3706 1 -13.6382 4.49099 -16.8392 1.34315 -0.0695678 1.09608
3707 1 18.5778 7.94814 -13.7131 -1.13147 3.53293 -1.95789
3708 1 5.2214 3.33265 7.90597 -2.74893 1.47924 6.02414
3709 1 -20.9148 17.0383 9.45535 -4.30338 0.8937 1.5489
3710 1 -8.03775 -3.34777 20.3136 2.53104 -7.28005 0.204624
3711 1 -12.4545 11.9587 15.3798 -4.48338 1.6926 -2.13736
3712 1 15.0456 25.0967 -4.94396 -1.79221 1.02705 3.00874
3713 1 0.597012 19.0645 3.84801 0.397815 -0.539261 -5.88315
3714 1 -12.6119 0.158665 22.6595 -2.42702 -1.54466 -0.26484
3715 1 18.2545 20.3539 17.0576 1.11143 3.97436 2.14102
3716 1 6.33572 5.2114 -1.82642 3.87703 1.42967 3.71315
3717 1 -5.98239 18.6426 -21.8535 3.2903 -0.308742 1.80933
3718 1 -16.0614 6.97909 3.35786 -0.536224 -3.62618 -2.17155
3719 1 -0.0916925 16.6589 -2.98471 -1.40415 -2.49576 1.60863
3720 1 15.8348 18.5828 16.5752 -2.9268 0.617147 3.23828
3721 1 -1.1596 17.4447 -7.95922 -1.30337 -4.25052 5.97022
3722 1 18.2833 -9.11403 7.83718 -1.79856 1.41089 3.58742
3723 1 6.04018 6.29042 -16.1531 1.50406 5.24857 2.4742
3724 1 -3.82484 -1.33707 -1.20791 -0.435572 0.114711 1.01951
3725 1 -11.5718 21.9207 -3.68213 0.447841 -0.475612 -1.27579
3726 1 -8.0067 -13.3156 -14.2524 -1.24452 -3.49022 -0.863254
3727 1 4.66592 -7.70402 -22.2447 -3.18371 -3.66844 1.57464
3728 1 16.8502 -9.40553 -23.4712 1.40787 2.31418 -3.09904
3729 1 -22.6784 -8.39122 -12.7006 -1.94261 -0.626022 -5.47459
3730 1 11.7976 -4.93471 14.1844 3.9704 3.17128 -0.433199
3731 1 5.08258 -17.4248 -20.9545 0.87554 1.81831 -1.02797
3732 1 20.3266 18.316 5.87492 -1.06874 1.31672 0.125255
3733 1 6.43071 -13.9197 -2.19475 -0.705606 5.71383 -4.46182
3734 1 14.3233 13.9589 -10.49 -1.56452 -4.63101 1.48414
3735 1 -8.23261 18.7205 3.15483 -1.73577 -0.215741 3.47999
3736 1 -23.3239 16.1425 -9.93137 -5.78953 1.78072 -1.53006
3737 1 2.60162 6.66085 1.80286 -3.85546 -3.62009 -0.879521
3738 1 -5.7189 -5.58702 17.2693 -1.1625 1.12489 -0.539319
3739 1 1.81051 -3.78392 7.93343 -0.0283736 0.258426 -0.99888
3740 1 5.91018 1.06415 -20.5091 -0.15032 -1.45382 -1.8659
3741 1 -19.7734 12.5917 -5.63946 -0.739612 -1.99869 -0.328672
3742 1 -1.28014 -21.9435 -16.5196 0.80159 0.287817 6.27033
3743 1 7.75687 -12.5654 16.2719 -1.3997 -3.74559 1.21538
3744 1 -15.0099 17.3367 4.27723 1.47594 -3.82494 -1.19313
3745 1 4.20215 -8.41669 10.7536 6.67369 3.25265 -2.33339
3746 1 4.92578 -20.4389 -4.60601 3.39783 3.23124 4.18577
3747 1 -19.0977 25.4063 -19.5526 0.441233 -0.514941 -0.888684
3748 1 -15.7169 -1.70033 -19.1735 0.632103 2.84409 -2.6771
3749 1 -20.8156 0.541706 12.9756 5.50672 -4.40788 -0.862603
3750 1 12.65 24.635 -14.7773 3.2254 5.12478 -2.30339
3751 1 -5.30752 0.261099 2.78633 2.29023 -0.529105 -2.10071
3752 1 -18.9052 14.3065 -15.2415 -2.51236 -2.18485 2.39819
3753 1 4.2235 -3.74129 -19.7662 -0.055437 -3.69831 0.996602
3754 1 -11.8303 6.94834 8.91626 0.0605727 -0.202981 -0.58874
3755 1 17.7291 6.85791 -7.8871 0.991425 5.40248 -1.34455
3756 1 -11.1775 44.415 -21.6134 -5.06597 0.308086 3.87272
3757 1 0.110753 23.0518 1.78586 -4.89815 2.13905 2.69297
3758 1 22.401 -7.26787 -12.4446 -4.25304 -0.810884 -1.52657
3759 1 -12.2881 6.83639 -18.0725 2.37134 0.674284 -3.29204
3760 1 15.9879 21.0995 4.17668 2.34505 0.1512 -0.107739
3761 1 17.8492 -13.1312 -18.7524 1.0509 -2.15717 2.55767
3762 1 7.84366 -13.4225 9.15035 0.869891 -0.923603 0.940106
3763 1 12.5908 9.82903 6.93593 -5.1601 -0.0295525 0.125492
3764 1 15.9809 -12.8753 20.7928 -6.19123 -0.400169 3.29538
3765 1 -23.3481 -24.1798 -2.2909 1.10356 -3.29144 -1.37953
3766 1 -11.2105 19.0206 14.5254 -1.73581 4.71044 -3.7094
3767 1 -11.3988 -21.6878 1.47062 4.00509 -1.47616 -5.34693
3768 1 -0.499106 7.7425 -16.8844 1.01085 -0.88392 2.56412
3769 1 -19.9613 -17.0945 7.78207 3.44054 -3.78972 6.45446
3770 1 -8.89425 -4.49309 9.00816 -2.07565 -0.803832 -1.68839
3771 1 -17.0593 20.1582 19.1974 1.01439 -5.02897 -3.27739
3772 1 16.1397 -14.7253 -2.01794 1.05985 -3.15518 -2.00796
3773 1 2.52231 -1.98084 12.8357 2.50784 -4.18711 -0.511613
3774 1 -6.39562 13.7674 4.61858 0.235621 3.09099 -0.461948
3775 1 2.50301 -1.92758 -12.1658 -2.21947 0.370303 8.49229
3776 1 5.65237 -2.89842 19.1222 -2.94463 3.64791 1.4043
3777 1 10.7329 -7.07946 -1.18585 -3.13195 -3.61831 1.13523
3778 1 5.76782 14.7767 -9.2698 -1.54277 -2.38446 2.05494
3779 1 -9.33697 -0.0133668 8.83508 0.963848 -3.35938 0.429123
3780 1 23.2733 16.5026 -16.3725 0.840747 1.18515 0.777363
3781 1 -1.81824 -2.58513 8.62808 2.12112 -3.27052 -0.0152469
3782 1 0.389206 -13.9309 -18.2338 -2.32388 -1.89892 -2.82176
3783 1 21.285 21.0151 3.68007 -5.04367 -5.51178 2.46848
3784 1 17.238 1.99599 2.49963 -1.63967 1.2899 0.398123
3785 1 -1.77699 46.5087 23.2566 -2.0542 -1.12581 4.76673
3786 1 19.3526 6.12277 18.1639 1.45806 -4.07938 -0.0152069
3787 1 7.98453 22.1137 -14.655 -4.06461 5.13034 0.846348
3788 1 4.67588 15.6672 13.7547 1.42847 3.57625 -1.60504
3789 1 19.2604 24.5754 -13.8738 1.5179 0.925661 -0.539586
3790 1 3.47942 -17.3441 -1.37137 1.08226 1.57683 0.78472
3791 1 -10.9174 17.5569 -12.6185 2.58985 -0.357143 -0.985629
3792 1 -13.4572 -7.87052 13.1253 -2.97165 -0.291935 0.285867
3793 1 -13.9338 21.169 2.38914 -0.628083 2.41147 -1.9326
3794 1 -1.98694 -20.4648 -11.0681 -5.21506 0.741325 -3.40393
3795 1 12.9795 23.5619 19.8092 -2.31729 -0.175301 -3.47632
3796 1 -12.2578 -8.52115 -8.3994 0.0652915 -3.82378 -3.84023
3797 1 -15.1192 -12.622 7.38952 2.00971 -3.84168 -1.58789
3798 1 4.9353 2.97417 -0.805403 -0.918216 -0.230543 2.47139
3799 1 17.6611 20.3525 -8.46815 1.89721 -2.00906 -1.66543
3800 1 15.0057 1.25993 -1.9574 0.639129 -1.77209 -3.48423
3801 1 1.0241 15.1481 -7.75819 -2.20594 0.561564 -0.297315
3802 1 7.31177 0.679784 -23.0113 0.413382 0.588108 -0.492238
3803 1 -20.4773 -4.82164 22.0376 0.665604 -1.49139 -1.02104
3804 1 12.2249 18.3299 10.2609 -3.80328 2.05514 1.02159
3805 1 -3.97446 17.7458 -19.913 -4.02114 -1.79411 0.485365
3806 1 -0.935688 3.57153 -4.13045 -0.438444 -2.18911 2.57648
3807 1 -8.6081 20.9261 -18.3981 2.18738 -2.94275 9.71906
3808 1 7.42033 -11.7676 -21.1637 0.511911 -1.32562 3.44051
3809 1 5.39362 -23.0493 -22.2554 3.92541 2.07479 3.73616
3810 1 -18.2409 -3.12098 12.8918 -3.1051 -2.13907 -5.00356
3811 1 15.4289 -15.7051 -23.4023 0.353857 0.542663 4.02147
3812 1 -5.03795 -19.0257 1.95418 -0.708741 2.34086 3.84806
3813 1 17.4812 2.48621 -2.33219 -5.8089 -0.348269 5.94388
3814 1 6.02648 11.0371 7.88978 4.20069 -3.37025 -4.76345
3815 1 -1.73972 19.776 -23.6228 -5.95754 1.97523 1.34079
3816 1 -15.3969 -7.56442 2.68938 2.70346 0.147624 1.22006
3817 1 10.0848 8.11855 -2.48134 -1.70049 2.8304 1.97049
3818 1 11.5341 17.9547 -23.2312 -3.33161 1.54095 0.497192
3819 1 2.63921 26.3528 15.1844 -0.387951 -3.87131 4.08671
3820 1 23.0523 14.9615 -6.57047 5.73687 4.59135 2.11681
3821 1 10.4008 -10.1173 14.3828 3.22979 2.3889 -3.25967
3822 1 10.0576 6.24628 9.09267 2.26664 -3.08361 -1.42714
3823 1 -5.98842 -19.1542 -9.21344 5.36977 -0.938375 -4.63123
3824 1 -8.57736 46.1976 -7.31441 -7.14321 0.665675 0.0924488
3825 1 20.0542 -13.4963 11.0337 3.28278 -2.16834 -1.06014
3826 1 -1.13724 18.0012 -14.755 3.14389 -2.96041 0.223549
3827 1 0.862831 7.86149 20.8484 2.73792 -2.00575 -0.540584
3828 1 -18.4774 20.8258 -17.0509 3.5754 -3.07365 -3.47703
3829 1 -13.6712 -19.9592 -6.79007 -3.09738 2.77396 -1.25215
3830 1 17.4643 -11.7642 -10.5009 -1.58665 -2.24955 0.494935
3831 1 -3.77679 21.2987 0.536868 2.15929 1.10498 -0.109529
3832 1 20.7675 -3.10304 3.47748 -1.91991 -1.25955 -0.336312
3833 1 20.6521 -2.19265 -12.4201 2.55337 -4.40132 1.95246
3834 1 6.83874 5.22661 2.11657 -3.98872 -2.57588 0.169142
3835 1 21.5402 -23.8805 -2.89275 0.0753883 2.0044 -4.58193
3836 1 22.8331 12.0747 0.90961 1.14745 1.67147 -2.44135
3837 1 11.4093 12.5789 3.16009 -3.04332 -3.16649 -1.36433
3838 1 -5.38595 3.19834 -2.97216 0.5213 -0.370699 -2.60055
3839 1 21.6432 5.20449 1.88209 2.21302 -1.29014 2.95901
3840 1 -11.1475 -20.4802 14.6196 -1.71854 2.84316 -1.09761
3841 1 21.4794 2.10242 10.202 1.00908 -3.53313 0.280244
3842 1 23.0434 3.84672 21.373 -2.39897 -1.78682 -4.3095
3843 1 -0.319671 -19.847 14.2358 -1.1899 1.28018 -3.3767
3844 1 -21.3371 -14.216 4.64935 0.0902451 -0.718853 0.107191
3845 1 -3.05991 3.14695 -22.4889 -1.47685 -0.952842 1.91314
3846 1 -21.5255 21.9724 19.2093 -0.735288 4.04022 0.46179
3847 1 -15.1622 -17.3219 -13.6986 -0.682611 0.36079 -4.04294
3848 1 6.48968 -15.3424 7.11236 -5.1631 -2.77119 -0.673448
3849 1 18.0745 13.0431 -20.0252 0.43807 -5.56188 3.67139
3850 1 20.6415 -21.3503 20.9886 -4.35111 -2.73927 4.55029
3851 1 -0.668198 6.28453 -0.555592 1.64276 4.56267 2.3931
3852 1 -7.07531 20.2782 15.2426 0.341505 -6.99804 0.30237
3853 1 19.2963 -14.1812 3.78191 5.55996 4.72149 2.22421
3854 1 18.5651 11.621 -3.59516 1.30269 -0.506945 1.34993
3855 1 -1.55626 -7.15175 22.3925 0.981312 -3.11635 -4.60573
3856 1 14.0481 -18.4347 -6.75986 1.61803 0.730462 0.606393
3857 1 -12.4768 46.9453 -11.4089 -1.1813 2.97426 -2.88245
3858 1 16.197 7.47157 5.94374 -4.24861 -0.542122 1.7469
3859 1 20.6719 23.1135 9.97488 3.26101 0.144891 4.31375
3860 1 14.493 -18.9534 -15.06 -3.97302 -1.67854 -2.54112
3861 1 -17.0047 -12.298 21.4548 -2.46678 2.3429 0.111777
3862 1 -3.91674 -1.59099 -18.8375 2.66488 0.872471 1.87465
3863 1 -14.332 -3.08364 15.1875 3.36562 -3.81922 2.3535
3864 1 -5.05796 -3.3127 -13.9321 -2.40996 4.19114 -0.68896
3865 1 0.690508 45.7989 14.7882 -1.59416 -2.58609 -0.268017
3866 1 10.7518 -17.0658 6.22037 0.957724 -0.27739 1.07645
3867 1 -23.4121 -1.00021 2.54952 5.06898 0.513035 6.38015
3868 1 7.39833 3.78082 -4.1812 -1.42697 -0.370595 1.54004
3869 1 -9.85817 5.26816 10.2671 4.00491 -1.25615 0.826605
3870 1 17.1889 -20.6465 -10.3476 4.73843 0.877877 -4.11034
3871 1 17.824 -0.331584 22.1271 -3.24718 -6.38599 -2.65712
3872 1 22.2826 -23.3526 -9.00397 -0.912999 1.53135 1.40776
3873 1 -3.81084 6.67141 14.0763 -0.626743 -1.96102 -2.56078
3874 1 -19.256 -24.1219 -16.4123 2.92407 2.8983 1.49189
3875 1 -22.9619 0.773097 6.04969 -2.65711 0.392613 5.80945
3876 1 -21.7623 -12.3857 19.3226 -0.025044 3.01674 -4.02887
3877 1 -22.3848 3.04399 -4.56702 0.582398 -1.73132 -0.785472
3878 1 8.01333 -16.7545 5.34387 -1.06725 -1.50229 -2.63032
3879 1 18.8743 -13.4295 20.3857 0.638025 3.14238 3.30259
3880 1 -8.27176 17.8062 -23.7783 -1.62735 0.73317 0.54616
3881 1 -15.089 3.31103 -14.6013 3.3777 1.21383 -0.855963
3882 1 -23.7563 16.9019 -2.116 0.183348 2.53676 -3.9843
3883 1 21.8187 16.0919 -10.7586 -6.59577 -6.96962 -5.21736
3884 1 11.4149 -18.9045 -7.87665 2.405 2.50148 -4.52924
3885 1 10.9194 25.1177 15.0898 5.50167 -1.86577 1.60967
3886 1 -11.5796 -15.4825 -5.7872 0.0306085 3.72958 -0.960081
3887 1 0.105968 -11.7567 -20.2423 1.25196 0.700525 4.46139
3888 1 -6.7961 4.9509 -18.9544 -5.65265 3.53149 4.84573
3889 1 -16.9328 18.1031 17.1352 3.47828 3.66215 4.02046
3890 1 -0.134256 21.3276 14.9892 2.1069 -5.59702 1.96893
3891 1 6.44938 -15.0199 17.6769 2.62333 -2.07134 1.87009
3892 1 -13.741 24.4102 6.72388 1.87801 1.53333 -3.08866
3893 1 -7.02097 11.5413 11.1299 0.830831 3.64158 -0.337151
3894 1 11.7038 9.54627 -15.042 -0.907996 1.4299 -0.406098
3895 1 13.0113 -7.26427 3.10766 -3.50507 0.776533 0.72031
3896 1 -7.49464 -8.7303 -2.585 -0.0946567 -2.21934 -0.572205
3897 1 5.19267 12.2317 22.9216 -4.3296 0.8018 -2.20093
3898 1 16.7977 -4.21373 15.7096 3.19268 -6.96316 -2.02394
3899 1 5.2858 10.0122 18.8341 3.27331 1.47122 2.28922
3900 1 11.3995 -17.1432 -13.3531 -3.65083 4.98748 -0.10693
3901 1 -16.3895 13.9772 -11.6067 -0.614844 0.378958 2.67445
3902 1 12.0551 12.4732 -7.38351 -4.06937 -4.36427 4.57731
3903 1 -19.6813 -16.5413 3.77635 1.33997 0.0437025 2.61095
3904 1 13.4401 -8.62947 -6.4855 -4.24859 -0.510954 1.50217
3905 1 0.296595 -11.0975 6.93613 -0.662652 -3.61531 3.31042
3906 1 -17.5826 9.66164 -8.10999 -1.33988 0.366521 -2.02309
3907 1 -20.8413 -0.61466 7.88651 -0.869254 1.83663 2.86803
3908 1 23.4394 -17.0673 13.4773 -1.91762 0.319008 2.23118
3909 1 -0.234888 -13.7765 18.4253 1.50866 -0.567531 0.397308
3910 1 -6.82941 17.7587 -7.96831 4.29644 -2.27996 -1.19334
3911 1 19.7722 18.3399 0.492386 -4.33853 -1.37978 1.15596
3912 1 -7.88803 -9.46944 0.136124 1.22279 -1.13426 1.95504
3913 1 -6.60103 5.85356 0.225939 1.00072 -3.23338 -2.30473
3914 1 13.6846 -12.5712 -5.83575 1.05076 0.711109 2.54513
3915 1 6.15055 -1.01702 7.09623 -7.80807 0.932352 1.84089
3916 1 -24.116 -13.9854 19.0152 -0.308364 -2.57197 1.31084
3917 1 0.875527 -3.34416 -9.03248 2.96295 3.1952 1.09746
3918 1 12.0396 11.6677 -20.6412 0.0726696 -2.09888 -0.155999
3919 1 8.92476 -14.4817 18.904 1.7155 3.39669 -0.531919
3920 1 -11.9816 11.6267 18.1583 -3.50262 4.02599 4.54273
3921 1 17.6041 8.86445 -16.5146 4.9779 -0.680007 -1.43782
3922 1 -16.4715 -13.0906 -17.7956 2.2144 -6.47622 -1.87102
3923 1 -23.3378 3.71849 -8.22242 -0.892535 0.830805 2.74992
3924 1 -11.7363 -4.20156 12.7124 0.348962 3.62941 -5.02875
3925 1 -22.6179 4.90344 2.35435 -0.379646 0.578972 3.64318
3926 1 7.1616 -4.67494 20.7652 1.95671 -4.95903 -2.76863
3927 1 13.6758 17.0952 0.590288 -3.71897 3.79154 -1.70148
3928 1 -18.3654 19.5621 23.9157 1.96529 -1.42292 0.832112
3929 1 -1.69289 11.0503 -7.93487 0.149136 -4.46247 0.172902
3930 1 12.4185 19.9328 3.61445 -2.26615 2.77461 1.98084
3931 1 -0.420282 10.1009 0.744811 -2.30308 -4.04325 -2.79556
3932 1 21.6456 5.06992 14.2006 2.83181 0.313948 0.250345
3933 1 -4.68409 -10.0359 21.2428 0.120896 -0.754842 0.148729
3934 1 22.1981 5.84925 -12.1751 0.825209 0.972408 0.350646
3935 1 12.4664 -14.1185 -19.8476 -5.35517 -0.127995 2.41743
3936 1 1.24953 -22.5647 21.4583 3.08766 0.537173 2.15583
3937 1 16.1749 -17.2285 -17.8512 -0.373051 -0.796746 1.12267
3938 1 18.9022 14.2626 18.6906 -2.78888 2.32461 2.12738
3939 1 22.9725 -3.09031 13.2081 -2.1717 3.71879 2.54664
3940 1 -0.775361 23.065 -6.75199 2.77588 -1.61643 4.8937
3941 1 -19.2065 1.51893 22.9931 -5.13149 0.339774 -1.87692
3942 1 12.0873 46.3454 16.0283 -1.19498 -4.62081 6.96606
3943 1 -19.2957 -21.2679 3.36862 -4.3156 2.66353 -2.3232
3944 1 -13.1895 -6.95094 -12.1399 -1.44534 -1.64362 -2.11283
3945 1 -21.7802 -14.3123 -14.5201 -3.13544 -4.02106 1.89023
3946 1 -4.27278 16.3573 8.03119 -2.23764 1.40832 0.819139
3947 1 -23.1628 12.1688 -23.4647 -3.65043 6.0088 1.42512
3948 1 10.3567 16.2485 -17.3936 -3.19364 2.6006 -0.251829
3949 1 3.97767 -13.747 -12.1083 0.857965 -1.91949 -2.57103
3950 1 -6.70661 -2.56435 -19.2198 0.341165 4.32586 -2.16344
3951 1 4.66465 4.67013 -14.1147 1.42528 -3.8658 2.00177
3952 1 -3.81201 -5.8892 -14.2414 1.06694 -0.268651 -0.421262
3953 1 19.2017 -18.1522 13.6731 -0.623935 0.430141 5.24105
3954 1 6.34469 1.79677 -16.5787 1.54733 -2.92209 4.12521
3955 1 -7.89637 19.0811 11.2176 5.78248 -3.23028 0.208937
3956 1 -12.738 13.6394 -3.84497 -0.51405 0.444459 -2.43834
3957 1 20.4599 -23.8804 -18.7856 4.86186 -3.89348 -0.961318
3958 1 -4.34621 8.27715 -5.55787 1.34477 2.33759 0.198281
3959 1 -19.943 -5.45159 -23.104 9.66933 2.50399 -2.17356
3960 1 21.7524 -12.5826 -9.4603 -3.63681 -2.38773 1.60312
3961 1 -0.757068 -20.3322 -4.27869 -3.87167 -1.72944 -0.979449
3962 1 3.59228 -13.5651 5.06682 -0.0821146 -2.03412 0.334264
3963 1 -14.3763 -17.6969 -3.14226 2.29641 -0.280253 4.3118
3964 1 9.65962 9.41602 17.8671 1.73358 0.280507 4.26068
3965 1 -3.33891 1.51129 4.37042 -0.18308 0.506613 -1.32828
3966 1 -20.842 19.6659 8.06396 -1.65539 -0.0887219 -1.65011
3967 1 0.640089 -6.78482 -5.06871 5.42301 -0.570186 -1.03298
3968 1 -2.52823 6.87133 -2.54421 -1.80719 1.13814 -1.87495
3969 1 16.9602 -24.0444 21.4162 -4.50427 -4.7142 3.97966
3970 1 -9.05117 23.4241 22.3901 3.36475 1.78201 -1.04082
3971 1 -2.01489 0.500695 22.7291 0.363451 1.26462 -2.69917
3972 1 -4.61128 -9.04914 -9.7471 -1.93354 0.723664 -0.556625
3973 1 -12.1766 -21.9976 -8.15981 0.607019 2.12513 1.06019
3974 1 5.4303 26.6499 14.8966 4.44792 -0.802098 0.122901
3975 1 2.11203 1.76801 -14.9039 0.0878909 -5.23009 -2.80283
3976 1 -1.63523 14.9743 4.49684 0.61864 0.353873 3.48283
3977 1 -6.63295 -20.1555 -19.853 0.526252 3.05984 1.82397
3978 1 -0.835429 20.0695 -9.64579 -0.832842 0.276849 0.311383
3979 1 -9.7941 -22.7709 3.84551 -4.39858 1.09469 -2.93047
3980 1 -22.4861 -17.2883 -14.5408 -0.577626 -0.83365 0.449754
3981 1 13.0591 -9.93969 4.04398 2.28665 -1.48545 7.08617
3982 1 9.1642 -5.39731 -3.43104 2.16967 0.961856 -1.848
3983 1 -22.7509 10.8999 8.02571 3.60566 -1.9505 -2.92183
3984 1 -5.60298 14.0197 -20.3332 0.320638 -3.949 -1.12606
3985 1 -13.6802 21.6152 7.59599 -0.382726 4.33258 -8.14237
3986 1 15.39 21.0696 -17.3155 0.601571 -1.6212 -0.0630205
3987 1 11.0636 17.879 16.7946 -5.38793 1.93074 4.14733
3988 1 21.8313 19.8173 19.2673 -5.63617 -0.279353 1.83959
3989 1 -15.267 -10.0617 -11.8369 -0.248059 -1.18055 -4.39893
3990 1 11.483 4.54757 23.7097 0.594582 -1.11662 -2.32947
3991 1 -18.2446 6.73417 23.0608 -0.996031 -1.69688 1.25636
3992 1 21.6751 9.18234 -4.37945 -3.1226 1.48877 -1.28407
3993 1 -8.08355 -8.81915 -5.78307 2.58273 1.57848 0.986238
3994 1 -14.7337 -20.9703 -19.8339 0.312293 2.2795 -2.59722
3995 1 6.09558 -23.548 4.63954 -2.75494 -1.26501 -0.584407
3996 1 4.35242 -14.9789 2.05168 3.89732 -1.76333 3.7699
3997 1 19.2813 45.4414 -11.8413 2.80194 2.57106 -4.38876
3998 1 -13.5247 -5.73362 1.60806 2.4678 -1.99069 -0.00869136
3999 1 -8.14189 15.2729 9.48657 -1.23608 -4.67853 2.97572
4000 1 -19.4629 12.0152 22.3633 -4.77098 -0.692746 5.29499
4001 1 -11.732 25.8541 -4.36098 2.99412 -2.53364 -3.21436
4002 1 -10.9992 28.4142 -4.86931 0.123927 -2.57545 -2.54813
4003 1 -8.50873 27.836 -4.00315 0.0694842 -6.53189 -2.43741
4004 1 -7.62669 25.6469 -5.61485 1.33245 -4.03949 -3.32491
4005 1 -10.8083 25.7374 -9.62195 -2.31942 -0.928462 0.475975
4006 1 -12.8281 27.9183 -9.11108 1.82635 -1.99512 -3.77422
4007 1 -8.73006 27.7658 -8.93858 2.09279 -1.08301 -3.03713
4008 1 -6.36972 26.3405 -8.28058 1.73817 0.128963 -2.564
4009 1 -11.2394 25.4491 3.31082 1.33153 -0.440617 -2.74603
4010 1 -10.0634 27.6052 2.42431 -4.54674 4.76421 2.34869
4011 1 -7.28351 27.7542 3.40359 1.72722 -4.75004 -3.83072
4012 1 -6.22876 25.1924 2.35206 -1.68273 -0.424729 3.16851
4013 1 -11.4776 25.681 -1.5936 -2.66105 1.14549 3.3154
4014 1 -10.4356 28.0036 -0.350472 -3.2347 1.50665 3.0569
4015 1 -7.77615 28.239 -1.22051 -1.44578 -2.18246 -1.19282
4016 1 -6.42896 25.9306 -0.67631 3.66668 1.17523 -0.306029
4017 1 -10.982 25.0434 9.98637 -1.84151 -0.0990346 2.82865
4018 1 -9.85673 27.4653 10.182 0.405932 -4.38734 -2.51908
4019 1 -6.93087 28.0702 11.1968 2.05986 0.804228 0.448874
4020 1 -5.58286 25.7871 11.0732 -2.0716 -4.3812 1.90185
4021 1 -11.32 25.2903 6.14647 -0.695884 4.2419 -3.57826
4022 1 -10.1543 27.5068 7.4904 -2.57077 -2.16997 1.34131
4023 1 -7.67692 27.6604 6.1431 0.79217 3.21291 -2.55831
4024 1 -5.78457 25.3779 6.34674 2.44441 -0.238209 0.979397
4025 1 -12.2572 30.6724 -3.7338 1.94245 -1.74331 1.50311
4026 1 -10.9398 32.9207 -4.57244 2.0745 0.0152912 2.54417
4027 1 -8.3579 32.3479 -3.90196 -2.94582 -4.10557 1.9367
4028 1 -7.2477 30.0485 -5.09672 -1.41896 5.16413 1.17023
4029 1 -10.9391 29.0698 -7.52757 -1.42887 1.37374 2.31566
4030 1 -11.0211 32.0551 -7.19792 2.15901 -2.22944 1.03082
4031 1 -8.59157 32.2219 -8.53195 2.40516 -6.20848 3.27762
4032 1 -7.1486 29.9013 -7.94949 -2.57068 -4.02275 -0.24417
4033 1 -10.3155 29.9572 3.7875 1.195 1.66832 -2.4573
4034 1 -9.74312 32.3882 2.74907 -1.77977 2.13709 2.4941
4035 1 -7.15143 32.4578 3.62469 0.970309 3.35279 -1.28363
4036 1 -5.93918 30.2072 2.53092 -0.0640937 -1.26525 1.59797
4037 1 -11.5772 30.5196 -1.07948 -3.59356 1.57898 1.04742
4038 1 -10.4364 32.7307 0.163748 -0.975446 0.711901 -0.643127
4039 1 -8.15762 32.6275 -1.08409 0.626584 3.20395 -1.4531
4040 1 -6.52689 30.5097 -0.246056 2.11476 5.08171 -1.9607
4041 1 -9.07908 29.9666 11.3597 -0.0246405 -3.29924 -1.32451
4042 1 -9.26158 32.4999 10.2945 2.38653 -0.443813 0.10503
4043 1 -6.54245 32.5288 10.7007 1.15954 -2.02902 0.299134
4044 1 -5.48779 29.9506 9.90101 1.38923 2.97011 4.19746
4045 1 -11.2394 29.9977 6.62618 -1.22207 -1.1043 0.123204
4046 1 -10.1044 32.3595 7.73708 4.57501 3.76587 -2.96336
4047 1 -7.42475 32.1412 6.664 1.05269 -2.3455 -3.34623
4048 1 -6.14549 29.7255 7.05216 2.97438 -4.2209 -1.22572
4049 1 -12.3351 35.0454 -3.28306 0.297047 2.84224 1.11308
4050 1 -10.7277 37.0819 -4.326 0.377647 0.790085 1.90494
4051 1 -8.05815 37.0436 -3.88134 1.58653 1.39899 -1.94273
4052 1 -7.12585 34.5315 -4.87622 2.40656 -0.956645 -2.84982
4053 1 -12.2565 34.636 -8.11112 2.47101 -3.25076 1.00655
4054 1 -11.0825 36.9392 -7.06576 2.19603 0.450067 -2.18252
4055 1 -8.46912 37.1389 -8.55091 -0.226168 7.44899 -4.24989
4056 1 -7.20102 34.534 -7.81001 -1.06872 3.0566 -8.5018
4057 1 -11.1184 34.6633 3.81581 -0.82942 -3.0743 -0.0322143
4058 1 -10.1984 37.0458 2.71585 4.81763 2.03669 -0.353912
4059 1 -7.55051 37.0317 3.5447 -1.76669 1.63785 6.50114
4060 1 -6.175 34.8195 2.46291 -4.06187 -1.01985 3.08927
4061 1 -11.9323 34.9347 -0.606659 0.303616 2.19189 4.98221
4062 1 -10.4881 37.1795 0.0155588 2.92283 -0.138634 -2.62896
4063 1 -7.79625 37.4192 -1.0713 -5.00304 6.48722 -0.825625
4064 1 -6.62235 34.9708 -0.241148 -3.61391 -0.0949721 2.4814
4065 1 -10.5025 34.7068 11.6174 3.87282 0.512347 -4.42911
4066 1 -9.73302 37.1677 10.5316 1.80895 -0.788041 0.679892
4067 1 -6.92248 37.1143 10.7987 -4.15799 -0.508017 -2.24679
4068 1 -5.54606 34.9331 9.70978 1.02851 0.437446 -3.95105
4069 1 -10.794 34.8044 6.61952 -1.91982 6.14433 4.96892
4070 1 -9.50925 36.8426 7.76357 -0.42181 -0.745414 -2.28228
4071 1 -7.15099 37.0787 6.36057 -1.44868 0.533608 -0.22301
4072 1 -5.98753 34.5795 6.99029 -3.80921 4.42345 -2.02233
4073 1 -12.0089 39.489 -3.72728 -8.68128 3.16866 1.77831
4074 1 -10.1392 41.3076 -4.95293 0.0601544 3.74111 -2.96557
4075 1 -7.44739 41.6001 -4.03603 1.10429 3.44187 0.850937
4076 1 -6.60391 39.2169 -5.43423 -3.06071 1.98769 1.14882
4077 1 -10.945 38.8755 -8.95326 3.21816 -0.245075 -0.361042
4078 1 -10.6609 41.3115 -7.82823 1.91684 2.02349 4.33291
4079 1 -8.22494 42.0275 -8.88664 0.385115 -0.697034 4.65797
4080 1 -6.97608 39.4243 -8.354 1.96034 -0.317447 4.89034
4081 1 -11.4215 39.2083 3.81434 -2.86907 -0.716133 -1.22823
4082 1 -10.29 41.575 2.8842 1.26651 1.73104 -6.60714
4083 1 -7.54157 41.1869 3.68008 -0.413407 -1.8013 1.5059
4084 1 -5.73895 39.1775 2.51803 3.3189 3.69868 1.41002
4085 1 -11.447 39.6311 -1.04999 1.80821 2.66934 2.67956
4086 1 -9.92201 41.551 0.00853896 -1.8746 -1.04532 5.63166
4087 1 -7.16122 41.5056 -1.01345 -0.357846 0.463023 -1.25768
4088 1 -5.96417 39.1096 -0.170881 -0.0928073 -1.07032 -5.38279
4089 1 -10.9485 39.376 11.6815 -2.46199 -2.46324 1.51262
4090 1 -9.99993 41.5452 10.3601 3.51998 0.654074 0.808642
4091 1 -7.077 41.2546 11.0331 1.34431 0.377862 -4.82306
4092 1 -5.57785 39.1965 9.88829 -1.27568 0.794383 -2.27561
4093 1 -10.8657 39.1054 6.47276 3.35519 0.864536 -0.651052
4094 1 -9.51496 41.2564 7.52135 2.27795 -6.18717 -0.309562
4095 1 -6.93253 41.3264 6.46416 -0.597757 1.23517 0.344299
4096 1 -5.4978 38.9049 7.10214 0.935519 -1.35692 4.06311
4097 1 -10.4022 44.0445 -3.91148 -3.89427 -0.628109 -1.97121
4098 1 -12.6912 45.1099 -5.06035 2.49142 -0.41609 1.6381
4099 1 -7.95574 45.2587 -4.76078 -3.97418 -0.288276 5.68317
4100 1 -5.8503 43.5375 -5.34573 0.968052 -3.55487 -1.00086
4101 1 -11.9904 43.7213 -7.45827 -1.31815 2.30499 1.80283
4102 1 -9.83612 44.5054 -9.22941 3.75693 -0.500821 -6.2577
4103 1 -8.55804 -23.2834 -11.2113 -0.842132 -0.374721 4.30692
4104 1 -6.46084 44.1723 -8.05158 -1.81594 0.827278 -2.4225
4105 1 -11.1897 44.0572 3.76963 3.11043 0.272995 -3.69073
4106 1 -9.7702 46.1246 2.34985 1.08541 0.353289 0.609614
4107 1 -7.37454 45.6048 3.48625 -1.14704 1.76854 -3.73039
4108 1 -6.08455 43.2455 2.61119 -0.507355 -0.477171 0.0703366
4109 1 -10.5984 43.8887 -1.22796 -0.986736 2.18601 -0.274923
4110 1 -9.33848 46.2201 -0.492788 -4.72206 0.551388 1.80425
4111 1 -6.68524 46.5611 -0.590049 4.16201 4.6842 1.54138
4112 1 -5.9016 43.9477 -0.100686 -0.718402 -0.207219 3.8002
4113 1 -10.3255 44.3696 10.7804 1.12893 -1.41964 0.964294
4114 1 -7.80074 45.2448 11.914 4.13295 -3.09223 -2.68122
4115 1 -3.70771 45.4806 10.5128 -1.78051 0.821517 2.44024
4116 1 -5.87277 43.6681 10.2616 -1.71867 0.777772 0.38835
4117 1 -10.0788 43.6295 6.39067 3.32775 1.5019 0.720245
4118 1 -10.1809 45.5857 8.34102 2.16468 -2.50288 1.74663
4119 1 -7.73481 45.5649 6.26885 -3.14076 -0.384593 1.76368
4120 1 -5.6467 43.6221 7.39047 1.99402 4.38462 -0.423747
4121 1 -5.04345 25.0639 -4.90068 -1.31491 -8.09304 -3.52288
4122 1 -3.10932 27.4508 -5.23639 0.517147 2.4143 -4.6692
4123 1 -0.354098 27.6778 -4.63603 3.77007 2.84769 3.05181
4124 1 0.643226 25.5428 -5.91926 0.520011 2.03255 0.635589
4125 1 -3.35102 24.0869 -7.09688 0.432243 4.55829 -2.86615
4126 1 -3.55574 27.048 -7.84184 1.112 -0.951225 -1.03829
4127 1 -0.64328 26.9051 -8.28359 1.61755 1.54866 3.20281
4128 1 0.418228 25.2336 -10.211 1.23206 -3.20878 1.94168
4129 1 -3.60869 25.7203 2.75453 1.20704 2.82083 2.29759
4130 1 -2.07572 27.7939 1.84212 2.34709 -0.764934 -0.580978
4131 1 0.652806 27.6919 2.56021 3.81388 3.5751 -1.2791
4132 1 1.78939 25.2555 1.76762 1.00403 2.46904 2.93722
4133 1 -3.95598 26.2421 -2.30002 -0.217218 -3.49695 -0.878052
4134 1 -2.66104 28.2456 -0.733083 2.5055 -1.02913 -3.11863
4135 1 -0.2132 28.0704 -1.8669 -3.52068 -2.35018 3.47093
4136 1 0.881321 25.7694 -1.09328 1.5169 0.533123 -2.45013
4137 1 -2.46715 22.8688 8.78206 3.69917 5.77504 2.18444
4138 1 -1.15672 27.6344 9.24427 3.04374 0.869268 0.0313367
4139 1 1.67793 27.3097 10.0741 -2.21812 -3.37168 -4.39701
4140 1 3.84324 25.7061 9.26268 5.20656 -1.7273 -5.08259
4141 1 -3.20133 25.3136 5.48893 -3.99022 1.49785 0.886398
4142 1 -1.87613 27.4415 6.70402 3.34833 2.45485 0.013268
4143 1 0.560812 27.7667 5.43727 -0.799198 -0.479174 -3.61093
4144 1 1.67226 26.1057 7.2485 3.30289 1.04188 6.56264
4145 1 -4.40437 29.779 -4.67754 -1.85592 -2.27011 -2.49239
4146 1 -3.15258 32.4846 -5.1251 -1.54897 1.78575 0.13391
4147 1 -0.268502 32.1191 -4.52638 -2.07818 -1.90579 0.675129
4148 1 0.92649 29.8791 -5.61438 2.66087 2.83352 4.39764
4149 1 -4.50512 29.8028 -7.53142 0.85463 -0.397504 -1.66697
4150 1 -3.14435 32.1433 -8.07052 1.85202 7.58218 0.652519
4151 1 -0.772639 31.9278 -9.16445 -0.761527 1.31109 -1.60296
4152 1 0.302312 29.5414 -8.45692 -0.676782 -0.452708 0.411572
4153 1 -3.1719 29.9636 3.02889 3.14554 5.59485 -0.122923
4154 1 -2.44185 32.4099 1.79561 4.37678 2.21049 -3.10098
4155 1 0.359818 32.2486 2.62302 2.00026 -0.479434 6.88743
4156 1 1.80516 30.1273 1.83159 0.85002 -1.40415 3.93751
4157 1 -4.25616 30.2037 -1.64307 1.64751 -1.83532 -1.40185
4158 1 -2.66163 32.4213 -0.858359 -0.270809 1.81107 -0.439589
4159 1 -0.062953 32.4674 -1.81398 3.80112 2.86943 2.21053
4160 1 1.35544 30.1708 -0.819453 1.90517 -1.54103 -1.08002
4161 1 -2.77404 29.886 10.1867 1.66319 0.700343 -0.722862
4162 1 -1.67711 32.278 9.52233 -1.02605 -1.60128 -5.3697
4163 1 0.977231 31.9735 10.3208 1.85542 -2.93851 -2.91061
4164 1 2.34404 29.88 9.23531 6.3392 1.51138 -2.09866
4165 1 -3.42385 29.6627 5.78179 -1.52281 -2.88617 2.19213
4166 1 -2.01261 32.0678 6.65784 -6.35695 -3.12819 3.57532
4167 1 0.420892 32.1017 5.3381 -0.738527 6.00485 -0.0174405
4168 1 2.06127 30.126 6.43883 -2.91941 -2.17427 2.8732
4169 1 -4.26788 34.9193 -4.2724 1.81028 -1.90571 -2.15208
4170 1 -2.73801 37.0109 -5.80759 0.383442 2.69424 1.33953
4171 1 -0.198969 36.807 -4.75926 0.535073 1.41844 -1.28334
4172 1 0.9764 34.3055 -5.69728 7.65202 -4.14554 -0.329065
4173 1 -4.50475 34.4033 -8.77273 1.13344 -0.913771 -3.67118
4174 1 -2.98047 36.7312 -8.81663 -2.87157 4.9532 1.21197
4175 1 -0.155475 36.4345 -9.08313 0.335987 -1.67023 -0.343078
4176 1 1.13729 34.0775 -8.49399 0.11659 -1.35137 -2.78833
4177 1 -3.56372 34.7519 3.07149 3.59243 -3.42264 -4.9729
4178 1 -2.06146 36.8046 1.98932 3.95764 1.4815 -4.11162
4179 1 0.615472 36.8342 2.58281 -8.18783 -3.09994 -7.39008
4180 1 1.6271 34.3944 1.4416 2.81617 -0.0918405 6.55516
4181 1 -4.12048 34.914 -1.49197 -1.70022 -2.98728 -1.33056
4182 1 -2.11617 36.9099 -0.879832 1.38447 1.30686 4.84077
4183 1 0.308031 36.9853 -1.98813 -4.6308 -4.86612 -3.18092
4184 1 1.65875 34.6635 -1.41027 -0.982819 -2.73246 -2.42968
4185 1 -2.93256 34.5529 10.0436 4.97283 -1.14097 2.05672
4186 1 -1.32636 36.8458 9.52537 4.05509 -7.54216 1.53473
4187 1 1.23709 36.7626 10.1929 2.46264 1.17441 0.882229
4188 1 2.27516 34.2599 9.2395 0.059109 -0.300993 -0.483488
4189 1 -3.4068 34.5753 5.95192 0.308655 1.00129 -6.59857
4190 1 -1.70514 36.6836 6.87394 -1.78397 -1.97485 -2.72648
4191 1 0.76975 36.6296 5.37208 -5.02815 -1.58161 -2.77045
4192 1 2.14308 34.3363 6.36433 0.268612 -3.5834 2.56891
4193 1 -3.92864 39.2464 -4.28551 5.44897 5.2301 3.89984
4194 1 -2.56258 41.2001 -5.4312 1.78105 -2.93501 -2.64745
4195 1 0.257955 41.4824 -4.83291 3.24563 2.37267 -4.76194
4196 1 1.23843 38.9556 -5.63775 -0.911278 3.69094 0.0595714
4197 1 -4.17365 39.2599 -8.92732 -4.01322 -0.268358 0.173173
4198 1 -2.53433 41.3911 -8.20653 -1.24217 -2.93671 0.83523
4199 1 0.0721205 41.3045 -8.90261 4.59575 -3.50542 -2.42956
4200 1 1.07613 38.6204 -8.30794 4.18134 -2.65553 1.10707
4201 1 -2.98453 39.1575 3.00811 -1.88931 -5.03395 -4.62453
4202 1 -1.86006 41.4997 2.02232 -4.76807 -1.82696 -1.33062
4203 1 0.779341 41.3717 2.89207 -0.452376 3.30392 0.789688
4204 1 2.01436 39.1797 1.51103 -1.89476 -5.66494 -3.70832
4205 1 -3.44715 39.154 -1.3891 3.9644 -0.0945442 1.33832
4206 1 -1.83314 41.4424 -0.803323 2.91954 2.06387 -1.09679
4207 1 0.509548 41.4807 -1.85952 1.95047 1.08151 -1.34352
4208 1 1.72445 39.1756 -1.09916 -2.31891 0.513806 -1.95751
4209 1 -2.82662 38.8692 10.4611 0.35704 5.10296 -0.971065
4210 1 -1.45483 41.2767 9.68613 -3.66191 -1.06818 2.84525
4211 1 1.28232 41.0988 9.76673 2.6524 1.06461 2.44578
4212 1 2.5049 38.7708 8.83721 2.27022 -8.78133 -2.33916
4213 1 -3.02034 38.695 5.88935 -0.0403123 0.068622 -2.99326
4214 1 -1.76251 41.082 6.53274 -2.43567 2.31382 2.08526
4215 1 0.954588 41.3888 5.65079 1.28874 0.973127 3.26691
4216 1 2.37753 38.7817 6.05691 -2.46352 0.711701 -3.1557
4217 1 -3.42727 43.5889 -4.24773 4.9689 -2.31082 -5.94057
4218 1 -1.96504 45.7735 -5.05535 -0.18377 0.57956 -0.76495
4219 1 0.742633 45.7278 -4.62982 0.0929632 1.47467 4.08681
4220 1 1.75283 43.5425 -5.9401 2.72471 0.187515 -2.06492
4221 1 -3.77964 43.7915 -8.3974 -5.39688 -0.0725531 -0.843079
4222 1 -2.69972 46.055 -7.63895 -5.15667 4.5975 0.74954
4223 1 0.20198 45.9472 -8.68941 -0.909053 -4.08848 5.45923
4224 1 1.61133 43.5149 -8.84489 -2.21877 1.71772 3.0175
4225 1 -3.34685 43.4445 3.23178 1.14854 0.201788 0.798555
4226 1 -1.86144 45.5967 2.462 0.232068 -3.02119 -2.31459
4227 1 0.803841 45.4346 2.75183 -1.36699 -6.97591 2.91424
4228 1 2.16047 43.1877 1.48305 1.97002 -4.27563 3.20051
4229 1 -3.41438 43.7903 -1.54113 2.49637 -7.24916 6.49515
4230 1 -1.92277 45.837 -0.362619 0.308947 -2.4482 -0.663302
4231 1 0.655473 45.7362 -1.76404 -6.47592 3.46632 -2.19817
4232 1 2.24295 43.6067 -1.14055 3.10709 1.26707 0.837985
4233 1 -1.42219 44.2286 9.85574 -3.00919 5.27738 4.50551
4234 1 0.0990762 45.5179 11.6851 3.97936 4.78637 -1.16992
4235 1 2.44686 45.9647 10.0972 -1.62221 1.30281 -6.37707
4236 1 2.84452 43.3375 9.24968 -1.66504 0.430901 1.61903
4237 1 -3.2639 43.219 6.07859 -1.33844 1.62229 -2.06087
4238 1 -1.33018 45.2158 6.8465 -1.0739 0.744959 2.21496
4239 1 0.994852 45.3741 5.5701 -1.71628 -1.13144 1.49824
4240 1 2.8651 43.3422 6.43362 -1.26023 2.12916 -1.91174
4241 1 3.23788 25.2897 -5.06441 -0.313742 -0.665836 0.957718
4242 1 4.86265 27.1428 -6.31583 -0.986208 -1.10415 1.51186
4243 1 7.38734 26.9008 -5.19595 -1.51324 -0.0551362 -2.03392
4244 1 8.82289 25.0179 -6.71172 3.97718 1.78039 0.67094
4245 1 2.97819 25.7358 -10.9398 2.31796 3.58898 0.0412587
4246 1 4.29276 27.313 -8.89657 1.96903 2.80987 0.569597
4247 1 7.09835 27.5465 -9.50152 5.97907 7.12951 4.57772
4248 1 8.49908 25.2568 -9.45389 0.233892 -1.30358 -0.15218
4249 1 4.33491 25.0975 2.35066 0.841996 1.65472 0.640118
4250 1 5.61607 27.2343 1.39155 -3.37001 -2.51993 -0.155961
4251 1 8.26542 27.3746 1.77029 0.102873 -0.899637 -5.30078
4252 1 10.1687 25.2238 0.907453 1.56783 -0.735499 -5.28028
4253 1 3.26119 25.3107 -2.38003 -0.443563 0.17272 -2.9447
4254 1 5.14191 27.2746 -1.65257 -3.52823 -1.05078 1.51606
4255 1 7.68764 26.7787 -2.48506 -0.913959 -3.53594 1.79592
4256 1 9.22161 24.5237 -1.72918 2.07687 -0.69858 0.438874
4257 1 4.58448 23.4519 7.61118 2.41159 5.06108 -0.572547
4258 1 5.90403 27.607 8.70733 4.99811 1.76461 -0.515632
4259 1 7.79967 27.3099 10.6526 3.64116 -1.42039 0.142143
4260 1 11.5545 28.2002 7.3441 1.43512 2.21643 -0.89379
4261 1 5.69232 24.5331 5.24738 5.55437 0.880215 -3.42829
4262 1 6.15956 27.2852 5.75206 -5.3741 -1.1301 -2.6867
4263 1 8.78444 27.3622 4.62124 -0.878998 -0.314394 1.36603
4264 1 10.9358 25.7486 5.70324 0.405087 3.61769 2.90082
4265 1 3.66177 29.4544 -4.90726 0.69741 1.59478 0.684831
4266 1 4.81456 31.6995 -6.00616 -2.27577 -2.51106 -2.38281
4267 1 7.47612 31.8474 -5.36546 -4.87013 4.26572 -0.830618
4268 1 8.66998 29.3072 -5.14302 1.65803 1.87967 -1.3691
4269 1 2.84183 29.4989 -9.73382 -1.9373 6.35814 3.00564
4270 1 4.65967 31.3 -8.9325 1.17359 4.15219 2.19468
4271 1 7.23642 31.3505 -9.31869 -2.1849 3.76829 -3.96665
4272 1 8.56777 29.4403 -7.99503 -0.088358 0.943942 -4.38233
4273 1 4.56252 29.8069 2.10743 0.567772 -0.0390109 -2.26016
4274 1 5.7814 32.2217 1.4909 0.662375 0.889635 -1.10773
4275 1 8.67232 31.9169 1.73005 0.257695 0.145395 3.00822
4276 1 9.40773 29.5386 0.398724 -0.935315 0.486024 2.58525
4277 1 3.938 29.7353 -1.98946 2.50973 1.86918 -0.477278
4278 1 5.39634 31.9867 -1.22342 -0.147116 -5.34042 0.381069
4279 1 7.65206 31.7737 -2.73786 -4.3097 -1.97752 -0.149882
4280 1 8.89385 29.4573 -2.28415 -1.2252 -2.7613 -5.66375
4281 1 4.98156 30.0782 9.37343 1.0539 -0.043422 0.939724
4282 1 6.33269 32.0757 8.39926 -0.754492 -2.47683 -0.402654
4283 1 9.1298 31.3076 8.18678 -1.61181 -0.208783 1.26585
4284 1 9.83308 28.7867 9.41815 -1.75943 5.77276 2.25518
4285 1 4.34697 29.3698 5.07351 -2.63211 1.9135 -2.67208
4286 1 5.66527 32.1055 5.56125 -3.75858 0.968274 3.97423
4287 1 8.18362 31.9584 4.46872 0.144091 -6.54109 0.919991
4288 1 9.51841 29.8204 5.91803 -1.29882 -2.35569 0.121381
4289 1 3.84611 34.3089 -5.09331 -0.993105 5.83485 3.85454
4290 1 5.11276 36.336 -6.1885 -4.43717 -0.146356 -2.89879
4291 1 7.76045 36.5679 -5.45819 0.716116 -0.265065 -0.805605
4292 1 8.38872 34.1762 -6.42891 1.89466 5.98574 0.773727
4293 1 3.44054 33.7497 -9.54888 0.236538 -4.34247 0.0534997
4294 1 4.75569 36.1763 -9.02599 -4.22562 -1.61556 -0.42985
4295 1 7.19323 36.0219 -10.2648 -0.0922179 -1.64816 -0.545733
4296 1 8.38427 33.8043 -9.21281 0.385281 -0.460954 0.811253
4297 1 4.44948 34.7911 1.82783 -3.10386 1.13751 3.60941
4298 1 5.72765 37.2168 1.14245 -1.72568 4.52598 -0.420091
4299 1 8.36645 36.6706 1.71357 -1.64136 -0.255871 2.06715
4300 1 9.1761 34.3998 0.684563 -0.144137 -3.48681 2.05969
4301 1 4.33657 34.2984 -2.45707 -2.89515 4.14773 -1.43566
4302 1 5.5809 36.6313 -1.45257 1.24361 -3.31741 -2.27967
4303 1 8.07191 36.2958 -2.64797 4.43198 -3.84695 -3.21428
4304 1 9.32434 33.997 -2.11253 4.42142 0.695796 -2.13376
4305 1 5.09066 34.301 9.56328 5.60822 -4.5967 -2.14432
4306 1 6.44485 36.4434 8.79911 2.14691 -2.9926 0.589826
4307 1 9.25828 35.9531 8.81141 -0.668907 -3.30748 -1.43081
4308 1 10.6334 33.6196 8.0483 -3.59005 3.33724 2.23959
4309 1 4.47555 34.5545 4.66017 1.30734 2.8551 0.266793
4310 1 6.18337 36.4425 5.88749 1.81701 2.95748 -1.01992
4311 1 8.68411 36.5316 4.37246 3.46279 6.15924 -0.111403
4312 1 9.54578 34.1849 5.47131 -1.06278 5.51793 1.57541
4313 1 4.00277 38.5302 -5.03625 -4.22964 -1.62016 1.20649
4314 1 5.30388 40.6367 -6.12982 1.51828 -1.19113 5.3793
4315 1 7.98842 40.9496 -5.56445 1.87433 -3.89432 0.996027
4316 1 8.92486 38.6204 -6.6129 1.29367 3.03947 0.723584
4317 1 3.61948 38.5331 -9.1256 2.86318 0.982862 -6.05361
4318 1 5.47373 40.7906 -9.02656 2.39087 -0.0275487 1.12935
4319 1 7.81304 40.5843 -10.0328 -3.54152 -3.43926 -6.80667
4320 1 8.90782 38.1737 -9.5281 2.00046 4.03657 1.02667
4321 1 4.66057 39.368 2.2851 -2.00764 -0.412751 1.46402
4322 1 6.3778 41.4526 1.31501 -1.1459 0.980457 0.20131
4323 1 9.20837 41.2759 2.00629 4.06521 6.35355 -4.358
4324 1 9.77361 38.9425 0.773561 0.573065 2.07777 3.72193
4325 1 4.09231 38.8992 -2.34754 1.06068 -0.596602 1.56303
4326 1 6.0726 41.0419 -1.3406 1.66633 0.776599 -5.10372
4327 1 8.51015 40.97 -2.85897 2.60145 0.570165 0.648234
4328 1 9.78729 38.652 -2.08197 -1.65838 -2.09486 -3.48398
4329 1 5.12469 38.8653 9.58564 2.24163 6.12617 -4.75661
4330 1 6.48716 41.0677 8.73999 -1.25736 0.976726 1.32308
4331 1 9.05523 40.2174 9.58962 -0.52074 2.72977 -2.72595
4332 1 10.3199 38.3862 8.17169 0.404612 -3.10638 1.83358
4333 1 5.04919 38.9068 4.87379 -3.97411 -0.211566 3.03666
4334 1 6.77571 40.9341 5.93923 -0.772102 0.446472 0.198627
4335 1 9.32157 40.8007 4.76466 -1.30199 2.66974 -1.78108
4336 1 10.3391 38.3826 5.52782 1.12332 -4.87724 -2.18296
4337 1 4.3955 43.0645 -5.0301 -1.77286 3.60726 -2.31817
4338 1 5.76686 44.3842 -7.48157 3.03664 2.63516 -1.78
4339 1 9.28861 46.2415 -6.34047 -1.27582 -3.55819 4.38606
4340 1 8.34538 43.5427 -6.49363 -1.25275 0.560047 0.615575
4341 1 4.11676 43.2139 -9.68909 5.37507 -2.35217 0.690377
4342 1 4.93491 44.61 -11.7776 -5.49565 0.973686 0.0822377
4343 1 7.15784 45.0815 -9.95438 1.40723 -6.47596 -1.25346
4344 1 8.92567 43.0625 -9.17053 0.629658 4.1255 -2.86178
4345 1 5.07456 43.575 2.41527 -0.463814 0.337494 0.378265
4346 1 6.07783 46.49 2.01269 2.08412 0.47009 -1.04084
4347 1 8.62114 46.1361 0.801127 -3.60976 -1.37816 0.300566
4348 1 9.79055 43.6053 0.460157 -5.4806 -3.99687 -2.57115
4349 1 4.76332 43.453 -2.31432 -2.84171 -5.85742 -1.86536
4350 1 6.36053 45.6195 -2.48618 -1.53675 -0.105449 5.11467
4351 1 8.94345 45.1588 -3.68179 -3.62862 -1.92309 -0.656757
4352 1 9.80583 43.1101 -2.17361 -5.01039 0.484798 -1.19836
4353 1 5.85644 43.5401 9.64414 1.70185 0.829037 0.562868
4354 1 7.78093 45.69 8.688 -0.996496 0.59608 -2.35984
4355 1 10.7146 45.085 8.77678 0.0131431 2.31585 4.48953
4356 1 10.9771 42.1818 8.7448 -1.56127 4.1572 -3.55566
4357 1 5.21473 43.4243 5.18931 0.13213 -2.5233 -2.5121
4358 1 6.84801 45.3826 6.01142 1.63284 -1.23935 0.652529
4359 1 9.82212 45.1205 5.37321 -5.69965 6.96054 -5.56195
4360 1 10.6661 42.5502 6.04124 -0.867406 4.63042 -3.18836
