ITEM: TIMESTEP
2600
ITEM: NUMBER OF ATOMS
4360
ITEM: BOX BOUNDS pp pp pp
-2.4617136684963850e+01 2.3807972584963849e+01
-2.4813547125349235e+01 4.7329982725358576e+01
-2.4216654490323112e+01 2.4208452890323109e+01
ITEM: ATOMS id type x y z vx vy vz
1 1 -23.4336 -20.0396 12.1457 -1.72473 -0.656084 -2.02874
2 1 -7.02233 14.898 0.907436 0.90715 -1.18122 -3.57601
3 1 7.72767 -7.7747 -22.063 3.04401 1.25657 2.68752
4 1 0.924119 -2.51981 -7.48755 -3.01051 1.72718 4.5734
5 1 -20.7656 -20.4148 22.5508 1.80573 -7.36237 0.676951
6 1 2.13098 16.1895 18.2122 2.57773 1.97118 0.547749
7 1 7.92395 21.3326 7.85252 -3.84924 0.77853 -1.73671
8 1 -22.748 -11.0934 -15.6578 -3.75738 -0.438888 -0.0133079
9 1 -14.511 4.35958 3.82924 2.3946 3.82051 2.79835
10 1 -1.45867 -5.71121 14.2975 1.16196 7.24066 3.47802
11 1 4.74021 -10.3239 16.0197 2.16012 -0.460703 -5.79241
12 1 21.1746 -6.22832 -20.0726 6.29706 -3.00033 -5.20759
13 1 -21.9472 -13.3421 15.799 2.05711 1.2032 -2.52146
14 1 8.87195 2.28132 -7.23113 -1.04734 2.1352 -5.99824
15 1 -3.05175 -0.677334 -14.5004 -1.32824 -3.14853 -1.53381
16 1 -19.9609 -0.479616 6.11729 -3.36483 -0.597351 -1.14704
17 1 16.7702 -8.98098 15.6397 4.3259 -0.258232 1.7261
18 1 22.3252 25.0279 4.62211 -0.645071 1.83152 2.14526
19 1 -14.5465 23.2881 19.912 -2.31703 2.69462 2.07364
20 1 18.8555 3.88555 18.1813 -3.92366 -4.18832 -3.22615
21 1 -23.3043 0.0687218 11.8722 -3.31906 -6.32064 2.56672
22 1 -11.2165 -0.88127 -15.2998 1.16152 2.2528 4.98089
23 1 -12.2746 -23.4841 20.6366 3.52488 3.06657 -3.61739
24 1 9.88653 20.0391 -4.37589 0.46063 -0.830884 -1.68762
25 1 7.61281 23.4825 17.3025 -2.20642 1.32319 2.33642
26 1 -0.51179 15.2382 10.0038 -0.204499 0.138657 5.5439
27 1 -18.8359 7.4856 -0.895037 1.04765 -1.39943 2.29484
28 1 -20.7886 4.50415 4.76064 -1.23287 1.07481 0.901948
29 1 -6.74142 -14.3975 -10.2316 0.653777 -5.96706 -5.63626
30 1 21.9487 -0.699887 -23.4471 0.386879 1.48655 1.66748
31 1 4.19996 -14.772 -19.2438 1.19351 -1.9481 -2.79529
32 1 -9.13226 11.8432 -20.8292 -4.38778 -1.79479 5.23466
33 1 1.52031 0.100247 -12.7147 4.79695 -1.80404 -3.50733
34 1 -20.0776 -22.0987 14.1112 -3.69963 1.46885 2.30524
35 1 19.6744 7.55283 12.6697 6.28334 0.645722 -2.60313
36 1 -12.8223 19.8966 -16.7285 2.78556 -0.771746 2.44481
37 1 -10.406 -7.16278 -2.99325 -0.977987 -1.37141 0.994015
38 1 19.7516 11.8399 9.01746 -0.641159 -0.0322599 1.41343
39 1 -0.190187 9.47254 -23.1066 -2.05266 2.52036 -0.788811
40 1 0.971785 0.846521 -17.8971 6.51342 -3.85312 1.24959
41 1 8.24326 -5.28378 -11.4134 0.455361 2.86072 1.29619
42 1 -20.0572 -14.2855 1.10207 -2.64241 0.523634 0.120426
43 1 -12.8932 -4.14443 2.20648 3.26529 -6.09685 -6.98285
44 1 -1.68259 -19.335 -8.3881 -0.501257 1.42233 4.20035
45 1 -11.1378 12.4996 -3.67883 -2.75027 -2.21995 1.55447
46 1 -22.1605 -21.2393 17.2675 4.07895 2.22328 -0.876323
47 1 -6.61771 4.44432 19.8983 1.05903 -3.6189 0.639129
48 1 7.4757 4.70143 -5.32388 -0.717587 0.814849 -4.81249
49 1 22.922 11.5046 3.99147 -3.13149 0.410261 1.86409
50 1 13.9869 -20.0443 12.8222 0.497391 -4.9627 4.74075
51 1 -9.11407 -5.17275 17.8224 -0.125051 0.573336 2.01637
52 1 15.1158 3.41441 -14.2598 3.0838 -2.58987 3.17389
53 1 -1.71422 21.0251 7.03685 -2.54185 6.6365 1.07806
54 1 -16.8159 -11.9578 -11.7889 4.94204 2.36499 -1.44381
55 1 -4.67366 -1.32735 -16.8942 1.23501 1.05299 -1.81472
56 1 -16.3796 6.91351 3.00047 3.51175 -3.37313 3.14758
57 1 -14.7982 -9.05128 -4.34174 0.100266 0.663425 0.368029
58 1 3.89561 -20.4067 -4.64737 1.89571 0.131348 0.438768
59 1 -20.5944 10.9533 20.5804 -3.61051 2.64803 5.5453
60 1 1.60013 16.3805 -23.8062 -5.69961 -2.53792 -2.93157
61 1 -12.8044 -0.385821 0.596066 -2.27883 1.17581 3.12944
62 1 -1.36136 -10.6045 17.3405 -2.30271 2.92827 -1.98425
63 1 -1.11153 10.33 -16.8359 1.47423 1.77122 -7.20649
64 1 -8.53651 -2.88202 0.113345 -0.584925 -0.635975 4.19785
65 1 18.1734 -2.34399 8.81526 4.25423 4.64099 -6.20925
66 1 -11.0189 -19.0156 -12.6064 -1.7653 4.85032 1.65422
67 1 -14.0756 24.37 -11.4929 1.31656 -4.65541 -4.26513
68 1 -2.06235 13.1828 -20.3224 1.29919 0.416746 -2.17332
69 1 -8.13459 13.1741 8.76351 -0.186943 2.5841 3.82006
70 1 -16.8939 15.4773 -18.4688 2.90176 2.78644 3.68508
71 1 -12.1442 4.38965 1.19417 1.98512 2.65907 -3.93004
72 1 23.0618 14.6186 19.8437 6.20932 0.381887 -2.59765
73 1 -12.9268 -17.0849 13.9878 -0.660734 2.51012 -6.1502
74 1 1.74112 10.1322 -13.8569 -2.4457 1.44602 2.05697
75 1 -19.5234 1.40844 -13.3678 -1.20713 -0.743474 -0.778208
76 1 -23.0179 -5.06165 0.736296 -5.85584 1.30773 3.88111
77 1 12.8143 -21.9837 -0.636658 0.412294 -4.38906 5.41791
78 1 -19.0193 12.4882 -8.66352 0.77587 -1.86348 2.37586
79 1 -22.7484 0.00486836 -16.7124 1.51651 -5.97202 0.778828
80 1 -13.1326 14.473 -13.7229 -1.55462 0.961352 0.866757
81 1 0.334242 -11.5211 -14.4652 1.82838 4.21455 -2.38984
82 1 5.99905 -23.4045 4.5714 -2.93598 -2.68643 1.5134
83 1 -22.0961 12.5051 -0.968747 -2.23845 0.396263 3.82451
84 1 22.0926 23.3437 21.8254 0.43494 0.0531881 1.45095
85 1 6.14563 14.0912 -3.61477 -0.112966 2.7134 1.8266
86 1 12.7605 7.78785 15.3278 -2.07978 2.48298 1.8238
87 1 0.838925 17.4709 -7.88512 3.84798 3.76507 -1.09845
88 1 -10.3642 21.0773 -20.1379 2.62132 3.29729 1.16908
89 1 -10.3688 -3.72238 22.2369 2.03352 5.40181 1.36964
90 1 8.07583 -3.54803 6.5595 -0.536824 -2.82616 -5.8156
91 1 19.7377 18.7116 -18.3739 -0.450708 0.468257 -1.17446
92 1 15.1024 -23.0621 0.862542 -2.10926 -1.50094 -0.824727
93 1 -19.5122 -22.3863 16.8552 0.419597 0.423405 3.67228
94 1 22.5607 1.61045 -11.1725 0.326009 3.52745 -5.52025
95 1 1.12687 -4.99531 -11.1786 1.99168 0.658941 1.36272
96 1 23.0871 -16.8498 22.9855 1.67623 -5.19733 1.06478
97 1 -8.42321 -14.4928 -20.859 -2.38322 -6.982 -3.69743
98 1 -2.71551 14.4887 11.8456 -1.05848 -6.53462 0.477459
99 1 15.6457 -22.5065 -5.13215 0.570297 0.154162 3.32887
100 1 -23.851 -14.8633 -24.0789 1.78669 4.29941 0.666542
101 1 1.28914 -20.456 -10.3732 -4.16611 -2.20438 4.13228
102 1 4.76956 2.7736 4.51619 -0.201204 -2.39817 3.15177
103 1 19.8674 25.0729 20.8919 -1.97433 -3.11406 3.1362
104 1 -13.7265 -23.3571 -10.6687 1.15663 -2.78938 0.786105
105 1 4.86439 19.9393 -18.759 -4.21286 0.324377 1.15324
106 1 15.4023 2.65832 8.79704 -4.29541 0.386151 7.01378
107 1 19.9053 -2.40859 18.5499 3.10082 0.795997 1.85941
108 1 -10.5476 2.96039 -23.7262 0.591057 -2.01425 0.186923
109 1 -11.8521 16.3911 -15.3245 -3.33815 1.52863 -4.98525
110 1 10.3155 -14.076 -7.5413 -5.72719 -0.87675 -4.26915
111 1 20.9759 -5.85483 -10.7357 -2.04016 4.26441 -5.79413
112 1 -17.0454 0.413055 -23.2953 0.708671 -1.40753 -0.879807
113 1 -3.16443 -7.60935 19.0511 -0.348049 2.10013 -2.56316
114 1 -22.3317 -18.6899 18.4221 0.482734 -0.785719 -2.55781
115 1 8.27464 11.1567 5.85538 -1.6602 4.13899 -0.178942
116 1 2.24528 -15.7118 -16.8276 -0.377631 -5.96545 -1.91021
117 1 20.9102 16.5178 -19.8731 0.49064 -2.29896 -1.19819
118 1 6.3403 -17.7585 -10.4393 -1.76602 0.162574 -1.76399
119 1 15.4573 10.9418 -8.19208 -1.17714 -1.67193 -2.50033
120 1 4.21336 -1.44667 17.3174 -0.735783 0.985901 4.64061
121 1 -6.74222 -18.4536 22.4181 -3.0865 3.03591 -1.12721
122 1 -8.48109 5.7759 21.6248 1.57252 -0.779703 -1.33223
123 1 10.7806 14.4334 8.46067 4.16297 1.71869 3.02736
124 1 21.4098 -20.6818 -13.7075 1.26087 1.40898 -1.58677
125 1 17.1614 9.28285 1.16952 0.725068 0.80628 -4.03191
126 1 -10.4917 -2.17148 -6.3336 1.81034 -1.03771 1.29342
127 1 9.68307 0.133465 14.5997 -2.14958 3.03751 0.465998
128 1 -18.5043 -2.04236 -7.77957 -1.46483 -1.53431 -4.35075
129 1 15.6679 -9.75074 3.82197 3.30401 1.05184 -1.98417
130 1 -9.93859 16.2507 -19.8128 -2.01055 -0.98257 -0.650689
131 1 2.35431 -7.81068 -19.4907 -4.26277 5.00474 -0.478621
132 1 -6.13785 -5.03315 -22.2462 0.512926 -2.39928 -0.117973
133 1 -17.105 4.39649 17.9111 -1.43134 0.567794 -1.73616
134 1 20.3232 -7.52934 -22.3732 -2.8021 -2.49958 0.370341
135 1 -12.7793 -4.88406 -22.1211 -1.86933 0.274642 -0.295994
136 1 -0.813355 5.08211 -5.58784 -0.0328212 5.79098 -3.11356
137 1 -12.3619 6.18646 -14.0381 -4.58061 0.362416 0.319562
138 1 12.6148 17.0503 5.67902 3.80712 3.25187 -2.35766
139 1 -19.6749 -20.4208 -16.8566 -3.17708 0.284987 1.2764
140 1 3.41078 -6.83953 21.0072 -2.48705 -1.58689 0.464671
141 1 11.494 -16.9994 3.69668 -0.908387 -1.52088 7.05977
142 1 10.1724 2.33009 22.7391 3.04796 -0.0329666 -1.7036
143 1 -4.19329 -2.21737 -4.70941 -0.221715 -7.46577 -2.97984
144 1 -21.2702 -8.60612 -14.9763 0.386558 1.44301 8.0891
145 1 15.3787 6.15934 22.6862 -0.445467 -4.08632 0.59927
146 1 -11.6721 -10.2012 13.8282 -0.17778 -2.74682 6.11335
147 1 10.2708 20.1508 4.12329 1.21166 -3.09107 1.93696
148 1 -17.9067 14.2645 11.7881 3.07085 1.25957 -2.46757
149 1 -20.1922 47.0637 -20.1338 1.64966 0.907396 1.01608
150 1 20.4107 10.3778 19.5493 2.49562 -5.27891 0.137391
151 1 18.6103 1.47885 22.195 0.274929 -3.69513 1.69563
152 1 -6.37127 -4.16847 17.6531 1.47814 -5.85609 0.655714
153 1 10.3306 -14.2105 -3.23153 1.01775 3.62844 1.3062
154 1 -8.07496 20.0138 -5.25027 1.96019 -0.025546 2.00033
155 1 22.4173 -21.7521 -19.5561 1.7228 0.485644 2.99862
156 1 16.1061 10.4826 18.256 0.903209 -3.37202 1.50291
157 1 12.627 -13.9804 -14.163 -7.8414 1.59083 2.75099
158 1 10.6701 7.64943 3.42562 -0.643109 0.89178 3.03889
159 1 -21.8981 -12.712 12.7575 -4.21362 -1.92094 -1.57767
160 1 -4.9399 -17.0872 -4.24294 2.32723 0.342944 8.4449
161 1 18.1018 0.369055 -14.2114 -2.29367 -2.55681 0.0963617
162 1 -15.6044 -8.71189 20.0781 -4.23074 4.7972 3.42875
163 1 2.25751 0.855916 17.8724 0.5174 -4.14577 -1.64712
164 1 19.2495 10.6388 12.7212 -2.67577 -1.23326 0.220976
165 1 -19.6452 11.2743 17.6758 -0.313105 -3.41332 3.33485
166 1 10.8029 19.9002 -22.441 1.3952 1.24284 0.292203
167 1 -12.9351 1.45808 -2.88764 -0.410153 0.284361 1.60704
168 1 -23.9474 23.6312 -3.74125 0.675512 -3.12835 -1.93755
169 1 4.96312 24.5141 -12.8509 2.34504 -4.60381 -1.55877
170 1 -7.26473 -16.7702 -13.974 1.31602 0.663726 2.76882
171 1 -15.4995 2.24357 15.8273 -2.1172 0.471933 4.15861
172 1 -19.2547 19.8828 -18.3895 -3.15296 1.25479 5.34511
173 1 -23.2549 1.86157 21.0178 -3.76378 5.96493 -4.4668
174 1 -20.0357 5.82991 -21.5315 1.62573 2.03394 0.833775
175 1 9.89655 17.5407 5.52317 1.15112 3.83181 -4.87135
176 1 -3.84911 22.0245 -3.70174 -2.18269 0.045806 -0.213046
177 1 -4.90754 -17.3001 13.2969 0.756317 2.78052 5.33091
178 1 -17.9198 9.66457 5.69329 -0.159619 -1.05377 -0.142295
179 1 -6.58664 -7.65974 -13.2592 2.9191 2.08621 -4.14655
180 1 -23.7277 19.6264 9.94485 -0.900155 0.0818746 2.68984
181 1 -4.31454 -5.98086 -19.8755 0.54483 -2.09584 -3.5764
182 1 -23.3165 -2.81869 15.6999 -2.5182 1.95941 -1.41522
183 1 21.7887 13.2174 -3.87085 0.126103 1.08189 -3.7236
184 1 3.91753 -22.5933 -21.9645 0.203885 -2.68964 1.02104
185 1 22.3971 22.0181 14.8118 -4.08987 2.03052 2.03914
186 1 15.7574 23.5723 -9.86811 1.0166 3.066 3.09676
187 1 -11.8178 8.21367 -8.04627 0.615797 -1.57313 1.3755
188 1 6.46201 -20.4933 -3.51019 -2.43836 2.27533 -7.16013
189 1 -2.78207 -4.74243 0.747221 4.37017 -2.74304 -1.38742
190 1 -15.9705 8.88564 -12.31 -0.296229 -2.88932 -4.22254
191 1 3.46671 -5.05388 -21.7737 2.29532 6.9662 -2.8009
192 1 9.1741 5.2878 -2.8984 2.96066 2.10098 1.26385
193 1 9.68949 1.13879 3.88326 -0.642518 -2.1892 3.20928
194 1 1.21772 24.3244 -20.9894 1.47265 -1.19656 1.3518
195 1 6.72829 -0.432202 -7.99527 -1.41098 0.38704 1.19983
196 1 -15.8302 21.821 6.40545 0.123081 1.74728 -0.174445
197 1 -23.6021 -3.89116 24 -4.07656 3.80233 0.143198
198 1 -10.8198 -20.2806 -18.6026 -3.77192 1.97551 -0.427837
199 1 -23.0988 -4.74772 -11.3982 -6.0067 0.289127 -0.137309
200 1 14.4981 6.13418 -14.7139 2.87144 -2.58641 2.19188
201 1 5.89969 4.575 -23.6892 -0.536058 0.742511 4.04404
202 1 12.4185 14.9571 13.3361 0.630022 6.03143 4.55323
203 1 -23.3956 18.3466 7.24826 -3.09399 0.986594 -0.867166
204 1 -4.93723 -16.4034 -10.8494 1.57795 2.08581 -3.29268
205 1 16.8915 -5.52981 11.7701 5.99422 5.34374 1.21419
206 1 -3.04513 -16.289 -20.6714 -0.0788552 2.46545 1.12412
207 1 -8.43393 6.34833 -24.0288 0.901444 -2.34821 4.83199
208 1 1.68854 -5.29047 17.1375 -0.446991 -0.336914 3.17995
209 1 -7.54553 15.0404 -15.1613 -2.78771 2.31436 -4.15573
210 1 -19.5721 12.7824 -2.24624 3.36894 -1.97267 -3.34479
211 1 16.3823 -0.989031 6.77218 1.22187 5.58849 -1.14627
212 1 -13.3771 25.064 -4.55868 2.519 -0.309157 -0.557264
213 1 -19.8313 -20.8085 -1.02419 -9.37114 -0.680774 1.10414
214 1 17.025 -5.31023 -19.9369 3.50251 0.0355522 -9.01138
215 1 9.51147 21.5281 16.4815 2.20148 4.59161 -3.63937
216 1 -20.0616 -23.1789 7.9451 -1.88043 -1.93197 3.64537
217 1 5.77982 22.4485 9.43418 0.597744 -3.07414 0.343594
218 1 11.0023 3.40858 -3.62544 1.12688 -1.99736 -0.733145
219 1 -5.41837 23.7113 20.831 2.30773 -7.68064 -5.6887
220 1 5.41065 18.3536 15.3522 -3.49028 1.21261 -2.10399
221 1 -17.3204 1.361 -1.07603 0.506128 -0.64407 -1.14503
222 1 -12.5704 -7.94292 -1.13952 1.86567 -2.50708 1.78413
223 1 -23.1382 -7.10506 -1.10639 0.440793 -2.83385 -2.09284
224 1 -12.3087 -3.00336 24.0444 -1.14206 -2.69752 -4.3551
225 1 3.19169 -11.955 -7.10245 0.00973589 -2.63631 0.501651
226 1 21.8311 13.3511 -14.0793 -1.07012 1.47343 -3.282
227 1 16.6496 17.9354 3.10838 -2.76548 -4.52235 2.02857
228 1 -10.2129 18.8132 0.529714 -0.844777 -2.73793 -2.39713
229 1 11.6714 11.3832 -10.1785 0.353819 -4.49584 -3.55979
230 1 -8.26536 14.5871 19.108 -0.875525 -2.49733 -4.62581
231 1 23.338 -2.73964 -21.8823 -2.99231 -1.68438 -4.47792
232 1 -3.41861 -12.577 9.99855 2.22168 0.195685 1.65296
233 1 -11.8777 14.0669 11.4525 1.67826 2.4326 -1.74751
234 1 -5.56999 17.7859 6.81514 4.11106 1.01364 -1.35308
235 1 -22.9468 -1.77552 -8.19254 -0.700115 -0.405945 7.00206
236 1 17.6591 -9.17158 7.64229 -3.82179 -3.10938 -1.38771
237 1 -17.3644 20.7689 2.02518 8.96427 0.709273 -1.29392
238 1 16.6513 -0.879787 22.7653 -8.10374 -2.43442 4.31261
239 1 -19.7323 19.4106 17.6925 -4.24541 -0.157281 2.93423
240 1 11.0198 2.21877 16.214 -1.51424 -1.88091 4.35865
241 1 -24.5981 -13.1695 11.419 1.16615 1.17281 -7.14518
242 1 -8.36155 -4.49673 -11.7533 4.3582 0.173458 -5.80446
243 1 -7.06688 -7.84056 9.48678 -2.74666 0.0212201 0.51603
244 1 -21.8389 9.87746 -23.7758 -0.891855 1.69534 2.64326
245 1 -9.90166 24.1693 -11.9286 1.0103 -3.12411 -2.07434
246 1 8.31983 3.89738 21.0864 -0.313628 -3.02065 0.263665
247 1 22.7463 -4.54494 14.7495 4.12483 -2.09141 -0.741749
248 1 -17.4124 5.40944 -13.6439 -3.66792 4.47542 2.15208
249 1 -3.8744 -18.1957 10.7434 -0.701946 0.347868 3.90724
250 1 0.517011 -1.40471 6.7365 -2.97703 -7.51329 4.29071
251 1 -22.565 -1.35107 -21.4628 -1.84238 -0.91303 -1.3445
252 1 19.1303 16.6602 -11.4927 -2.25359 -0.870825 -2.85031
253 1 -1.14387 -3.34134 -22.1209 2.16515 1.82225 -0.572631
254 1 6.37289 -13.0558 -9.90309 4.97065 -0.963447 -0.439192
255 1 -23.5609 -22.4638 10.5895 -0.608727 -3.08418 2.14501
256 1 -12.2463 -6.0433 -10.1263 -2.29588 -3.561 -0.603309
257 1 -3.92031 5.63545 -18.4279 6.52619 5.75001 0.302932
258 1 -6.18088 -2.80659 -7.07359 0.959039 -0.49622 -0.570936
259 1 16.8316 -18.3109 -18.0992 2.20959 4.06058 -0.319265
260 1 15.5671 8.26233 -2.69803 0.0578316 1.59947 2.5872
261 1 -1.49514 47.2293 11.4629 -0.559026 -0.165611 -0.755899
262 1 17.6078 20.1065 10.1175 -1.21416 2.60073 6.44438
263 1 -20.4691 7.59408 -7.86307 -3.81354 3.33634 2.7455
264 1 21.4054 2.02029 18.2638 0.758182 2.05149 1.33601
265 1 14.7302 -16.6496 -6.60907 -1.9745 -2.82863 -1.69228
266 1 -24.409 5.37195 -14.8818 -2.23497 -3.77907 2.65335
267 1 -12.641 20.7915 -10.5199 -7.949 -4.065 -3.64736
268 1 -22.3259 17.6896 -11.4047 1.35532 0.17671 0.323428
269 1 -18.4728 -9.25084 -14.2593 4.73028 -3.89828 -1.65085
270 1 -23.6672 -15.9122 18.4566 -3.94505 1.63521 5.6922
271 1 2.2776 23.581 -13.3555 1.96128 -5.00117 0.084821
272 1 11.0165 -15.351 12.1427 -0.587425 0.489194 -2.14049
273 1 -17.5601 -10.3059 13.2629 -0.347285 -9.77144 1.72726
274 1 12.0622 -12.3552 7.82577 -0.436758 0.125829 -2.11289
275 1 13.0285 22.6921 -20.2568 1.44086 -1.36739 -0.346736
276 1 22.2342 6.70312 -7.60921 -2.79566 0.561789 -0.257561
277 1 10.9862 -13.0816 -18.2256 -0.433852 -1.38022 -2.11057
278 1 19.6265 9.78317 16.7605 2.53716 0.455746 -6.97619
279 1 -24.2944 -2.90859 -0.547014 0.248112 -0.931468 1.36661
280 1 -3.12039 -20.1281 -11.7986 3.41431 0.215322 -5.91926
281 1 15.7085 21.2463 11.8625 -3.16482 1.00122 -0.563397
282 1 11.7811 12.0747 12.6202 -0.718968 -0.548827 -1.17483
283 1 -4.69359 -21.5112 -21.4104 6.01222 -1.50158 1.35497
284 1 3.40201 14.2532 1.60722 -5.91871 -3.68167 0.394498
285 1 -15.6168 18.424 13.8585 3.80728 3.35707 -1.09507
286 1 -3.88333 17.473 -1.88369 0.888171 1.77642 -1.16649
287 1 5.23031 -9.59183 -7.41867 7.05292 -0.227104 2.90267
288 1 19.5547 24.1237 3.1145 0.326589 2.06418 1.53994
289 1 -4.01724 -21.2348 10.9003 -0.113671 1.29346 -0.0268937
290 1 -5.38652 -12.6048 -15.4205 0.502806 -1.61666 2.37104
291 1 -11.0233 -15.9454 12.0098 -0.286823 -2.92454 1.56942
292 1 15.5596 7.70155 2.49523 -2.52693 -0.345684 -0.464605
293 1 13.3876 4.19195 13.4839 -7.21297 1.93585 0.200922
294 1 -9.1847 1.65209 -1.02305 -1.26706 -1.16633 0.325132
295 1 0.671687 7.84801 9.05899 -0.23161 1.76768 0.369908
296 1 1.82508 14.9667 -2.98572 -3.26765 0.526625 -2.44551
297 1 20.0143 -9.57409 -6.94266 -1.44403 -6.23186 -2.69582
298 1 13.5039 -20.6262 -21.0715 -3.55612 -2.54345 -0.903074
299 1 5.72801 -21.6781 -13.109 -2.73696 4.08901 -3.93931
300 1 13.4371 -3.79777 17.9797 -1.40866 -3.44525 0.401094
301 1 -6.80908 21.3131 -22.067 -1.88282 -0.0909471 -2.0506
302 1 0.0381622 8.48988 -1.2212 1.01786 -1.49687 -1.93044
303 1 -20.7949 -20.9321 -7.95548 1.92616 1.46687 0.645047
304 1 -20.4049 -16.5495 13.3504 -4.01752 -3.75474 -6.50129
305 1 3.36956 -20.9289 22.7693 -5.09042 -3.84908 2.08688
306 1 13.8479 19.8357 -11.1341 -6.29902 -3.07846 0.816932
307 1 11.262 13.8218 22.7198 2.15778 0.65581 4.55352
308 1 -17.6768 -23.6118 4.55299 5.33822 -5.34888 -3.18114
309 1 4.94081 -19.5741 20.5127 -2.26257 -7.1045 -3.05246
310 1 1.21599 12.2915 12.8851 -5.4208 2.39348 1.98792
311 1 12.8852 -10.3382 0.786517 0.340237 0.802804 -2.28063
312 1 -4.44259 0.74593 -8.65906 -1.52626 2.5605 4.44878
313 1 -18.7807 -16.1861 -8.69145 3.8453 6.62425 1.64287
314 1 -14.0307 5.27166 -9.86088 -3.40139 1.76763 2.63149
315 1 -15.1314 -22.1716 4.91596 -3.01886 -1.45921 1.05269
316 1 22.9277 -5.89716 2.16063 -2.28081 4.75065 4.53056
317 1 -9.40928 -10.9442 -22.9901 2.8197 -2.26215 1.48056
318 1 19.1586 -18.6667 20.4234 -0.403942 -0.966936 5.86487
319 1 -11.0694 3.25336 14.4068 -3.19795 1.51633 1.80437
320 1 -3.62194 -1.7055 8.27886 -2.05613 -0.401991 1.46587
321 1 -20.9957 -13.1157 -14.721 -0.551934 -0.691465 -0.0552223
322 1 -11.2345 13.1578 -0.69851 -1.75207 1.61399 -0.619132
323 1 -14.5809 0.570278 2.54026 2.81643 -1.46171 -1.37558
324 1 22.2403 4.24123 6.56942 1.35913 0.236965 -3.87972
325 1 0.439502 -21.8052 18.963 0.865867 -5.68039 0.987271
326 1 -18.0503 5.23649 1.08104 0.867925 1.83107 -0.912038
327 1 -8.0337 -13.4343 21.1117 -0.822918 -1.3813 0.616239
328 1 13.5059 21.9048 15.3089 -0.133719 5.04488 2.49776
329 1 -0.528712 -0.634709 -10.8559 -2.06172 -1.5763 0.450511
330 1 -15.4245 -23.7845 22.4166 -0.926519 -0.463359 -0.238219
331 1 12.8463 7.5131 1.54614 -3.63423 2.14527 -3.08653
332 1 9.99519 1.60117 -9.97954 -0.0160436 -1.92049 -0.456798
333 1 8.13073 -9.70441 -14.8496 -3.23357 -2.79438 0.464773
334 1 2.26519 -21.4002 -2.50319 1.80022 3.60937 0.506422
335 1 23.1639 -22.3965 5.71232 0.906354 6.29997 2.9267
336 1 18.7604 16.0364 -21.8586 3.23126 2.3167 2.38342
337 1 -17.308 18.6539 0.0997234 -1.18823 -1.19056 0.256066
338 1 7.2438 -7.84493 18.6525 2.70562 -2.06788 -2.78827
339 1 -7.74138 -16.5331 23.9025 -0.959781 -0.37292 2.4143
340 1 -15.9448 0.921123 -19.3543 -4.63244 1.30079 -0.67974
341 1 -11.9005 1.89783 -15.4794 4.20567 -5.1736 4.81018
342 1 -0.057555 -16.2514 -9.86772 1.04347 2.79684 -1.81029
343 1 -4.06569 -12.3978 -6.98013 5.33815 -2.89289 -0.576274
344 1 10.3307 -14.7307 -12.2441 -0.284361 -2.73707 -3.28543
345 1 -12.703 -5.45779 14.5443 -0.777876 -2.52711 -1.87783
346 1 16.9553 1.9633 6.20682 3.5089 -3.68706 1.79353
347 1 20.395 -6.04028 8.05861 1.62494 -4.36617 0.457461
348 1 -12.69 -2.45526 9.17108 -0.589961 -4.44616 -0.30003
349 1 -7.35794 8.68057 21.6562 3.05094 0.670932 -1.87841
350 1 -22.1918 21.3325 23.3668 -2.60642 -0.537977 -1.22317
351 1 -17.8487 3.64004 11.6434 -2.60335 6.91332 -1.03298
352 1 15.4681 -0.482956 0.0321394 3.62894 -1.58058 3.45753
353 1 16.5343 -21.423 -15.4648 3.78658 5.81677 3.6148
354 1 8.72221 23.6064 -7.43216 -0.209336 1.55495 3.70682
355 1 -5.84558 -1.05069 6.47647 1.23121 4.40574 -3.05473
356 1 -3.00955 -19.1618 -24.1492 -2.36841 3.46914 1.42009
357 1 -7.30433 -15.432 1.63382 -3.76712 0.193696 3.07558
358 1 19.3907 -11.2792 13.3203 0.0845116 -7.33183 0.933052
359 1 -13.5572 -21.9294 -8.22724 -4.21614 -3.52505 -0.685331
360 1 5.35927 15.7984 0.201446 0.077473 1.31089 -2.97718
361 1 -20.5991 -20.8256 -3.9257 0.446065 2.09303 -2.60993
362 1 -22.6138 11.782 5.04527 -0.893956 2.6295 2.6513
363 1 -18.6083 -18.3791 11.7659 3.00969 0.610952 -4.01384
364 1 -12.4072 3.85685 -4.54393 3.42789 5.07951 -1.48192
365 1 -0.869608 -17.2018 18.7284 0.495298 0.346735 2.38591
366 1 -20.6 -0.228118 -8.72044 0.60829 1.44843 1.03762
367 1 6.53283 17.7945 -17.2821 -1.72107 5.21817 -4.27744
368 1 2.54851 -5.12197 12.1033 -0.811166 -3.24024 -1.97109
369 1 14.0453 7.82399 -12.1331 -0.840779 -2.05772 1.61251
370 1 4.30504 -14.9405 -22.121 -1.04803 1.62319 2.46429
371 1 -10.8043 -24.4768 17.1566 -1.74396 -3.01417 1.45509
372 1 -7.96204 21.336 7.31775 5.85977 1.37599 -3.81472
373 1 -16.4204 6.53188 22.7025 -0.430201 0.00452122 0.433808
374 1 -4.58969 19.4132 -11.2744 -0.467576 -0.340988 -2.2123
375 1 -21.6055 -6.01941 23.4281 -1.71167 -3.42252 -2.12517
376 1 -3.80575 -14.2652 -17.0382 1.30587 -2.24175 -1.22764
377 1 13.7089 0.0612907 13.1433 -0.457421 0.332197 -3.47096
378 1 18.0346 -15.3337 -4.81243 0.0512497 3.4132 4.31962
379 1 -23.565 24.0169 3.28977 1.50567 -3.52404 -4.23911
380 1 13.1334 15.7525 -20.2487 1.98641 -5.74551 1.14237
381 1 -24.1219 -13.164 18.0495 -1.15348 1.69527 0.210217
382 1 15.5674 17.4715 -2.29564 2.4749 -0.307596 -4.96349
383 1 11.1304 -23.5399 8.61122 -3.85725 1.8015 -0.0210871
384 1 -10.263 10.7808 -7.99899 2.32464 -1.63711 0.0483714
385 1 -7.32558 0.529518 20.2935 -1.41949 -5.72869 -3.8661
386 1 19.6257 -3.86549 -19.9879 3.33084 3.31953 3.4037
387 1 6.29065 -20.9953 0.889539 -3.51538 -0.431861 -6.74771
388 1 -19.6434 -24.2574 21.9019 -1.62302 -1.91644 -4.2155
389 1 -14.0234 8.51425 7.21286 0.933598 -0.492509 -5.58622
390 1 11.9933 7.55794 8.0096 -3.22425 -8.65075 -1.7319
391 1 15.5626 3.64796 19.6582 -2.17119 3.06182 2.3808
392 1 17.7908 -10.2132 17.9301 -0.901899 -1.83573 3.42315
393 1 -13.1454 -20.6511 -12.1882 0.426523 -5.04972 5.3461
394 1 -9.72788 10.3596 -5.20405 5.13453 -0.757475 2.10251
395 1 -8.85303 47.138 18.9922 -0.389254 0.167018 -4.86023
396 1 12.2855 -19.3596 0.537194 1.11359 0.0674259 1.8728
397 1 4.07268 -20.4476 17.9791 -1.88018 9.34677 -0.108895
398 1 -24.1181 -22.8077 -7.02945 -1.99623 2.69567 5.23021
399 1 12.0037 15.6235 1.28534 -1.00416 -1.09294 -2.72406
400 1 -24.1912 -17.1543 -3.20735 -0.870557 -1.32907 -0.53845
401 1 21.3825 -17.7456 -6.65279 2.48064 1.58484 1.09341
402 1 -3.0497 6.26672 21.64 -1.34872 -0.223022 -1.97431
403 1 14.262 0.569001 23.3421 -1.29074 3.13746 -0.86192
404 1 -15.1223 -2.36694 2.66319 -1.20199 -2.20123 0.138392
405 1 5.73885 -23.2547 -6.81138 2.87302 0.422259 -3.61343
406 1 -8.4215 -20.5333 21.1422 -4.98001 3.94533 -0.487359
407 1 0.613674 -8.75176 16.0086 1.44744 -1.55456 -2.32134
408 1 -0.654898 -1.65626 -18.8172 -0.729543 -1.36106 -2.38415
409 1 2.34504 3.59812 -8.00214 2.29715 -3.41584 3.88037
410 1 -15.4554 11.7259 1.09262 -1.89463 0.106863 -1.77987
411 1 -3.37109 -3.36782 -7.75297 1.12558 3.30962 -4.76695
412 1 -17.8876 -5.91698 6.01285 -3.14916 -5.03741 -0.112928
413 1 -22.9664 25.0726 0.662121 -4.52132 -1.36207 -1.86664
414 1 4.12674 17.7043 -15.4043 -3.05481 0.884095 -2.69291
415 1 -18.7821 5.93583 -9.54855 3.41213 -3.87424 -1.40163
416 1 22.6563 1.76883 11.6437 -0.0326912 2.02876 0.424784
417 1 -14.5704 1.28903 12.2908 1.97757 0.541722 -2.20334
418 1 22.6089 19.661 6.50047 -0.147231 -4.49044 0.900849
419 1 23.1903 3.77217 22.2365 1.19861 3.10194 -2.52687
420 1 -3.46342 -3.14026 14.4861 2.22142 1.61883 -4.61687
421 1 -16.0394 -23.3619 -14.4199 -2.30012 -0.573625 5.07349
422 1 -2.66162 15.5116 23.4109 5.69353 0.126245 1.36928
423 1 -10.5331 3.02457 2.97022 -0.246363 -0.718333 2.5295
424 1 3.82224 -5.90963 -1.33566 0.48582 3.53943 4.06278
425 1 -19.9593 14.3074 18.5561 -1.95148 0.408091 -1.82159
426 1 -15.9679 -3.0746 -8.73363 -0.249197 -2.73886 0.276664
427 1 -14.8425 -22.1102 19.9879 2.36386 -2.28539 0.445869
428 1 8.98596 11.8067 -5.0543 0.0773081 4.55781 3.73136
429 1 -5.49299 9.42732 -13.6654 -3.21708 -1.17123 1.40065
430 1 -21.5604 -1.59389 24.0929 4.27017 -0.506077 0.192227
431 1 12.8979 -7.8968 -15.1735 3.99524 3.71108 0.901347
432 1 6.9908 -6.0498 11.8105 -4.9674 -0.468864 -0.366478
433 1 -18.5805 1.50797 -18.2977 -3.82441 5.71244 2.40941
434 1 -13.3604 -3.68361 -11.342 -1.17435 4.80184 -0.666818
435 1 4.00389 22.7253 6.8324 1.60203 -4.94967 4.95644
436 1 -14.2306 -13.5237 -12.3999 1.90379 -0.128404 -1.46517
437 1 18.4753 19.4566 -10.1231 3.27025 3.56029 -3.1273
438 1 -19.0631 4.57704 -4.34228 1.70193 2.52119 -1.99623
439 1 -0.213616 23.2671 -1.76807 -0.563584 1.77559 -0.784205
440 1 -9.89468 13.1547 -14.7353 3.15432 -3.5608 -2.81179
441 1 18.7278 1.53762 -4.60184 1.24914 -0.277578 0.899592
442 1 5.74638 3.33453 15.4964 -1.7389 1.91098 1.71712
443 1 20.3664 24.5197 16.4332 2.43469 -0.152018 3.53251
444 1 -23.2669 7.14794 -18.0899 -4.24703 -3.99254 -0.923171
445 1 19.0536 -10.0916 -11.4092 -1.20625 6.14761 -1.06928
446 1 -24.3671 -14.6542 -7.48657 0.986866 4.32606 4.56022
447 1 8.22948 19.4764 14.74 1.26486 1.35255 3.93747
448 1 -17.6979 2.10656 13.9142 -0.0519993 2.83723 3.67301
449 1 12.7846 -4.29348 -2.30443 -4.26329 -0.617788 -1.17649
450 1 16.4271 -19.9858 7.32506 2.09115 -1.74605 1.89575
451 1 -24.3861 -12.7843 -20.2783 -3.98064 -1.89542 0.622634
452 1 -24.0889 16.508 -0.282282 -1.49538 1.21564 -0.692094
453 1 -17.1686 13.517 7.59865 2.61327 -4.28739 2.43721
454 1 -3.94263 1.94495 -15.0676 -2.53373 -6.59476 -3.29131
455 1 12.7099 -11.564 14.1617 0.937698 1.93564 -2.308
456 1 -4.21616 15.5991 21.0881 -2.68707 5.67225 -1.49159
457 1 5.04199 19.281 18.1602 1.79544 -2.3089 3.60548
458 1 22.8089 21.7286 19.6075 -5.38583 -1.46566 1.09519
459 1 0.424391 6.51852 -12.9152 0.698 -3.44837 1.42681
460 1 2.63775 10.0901 -22.5829 1.17842 -2.31868 -3.58091
461 1 4.55976 -0.228341 -22.3101 -2.01227 3.53688 -1.55387
462 1 -6.6025 -20.4037 18.9851 1.61247 -0.291153 -1.29179
463 1 6.33697 15.1154 11.8644 -2.92733 1.54048 -2.67265
464 1 -13.2513 -21.8153 6.89204 -2.58419 -2.23836 3.01767
465 1 -3.69693 -13.1937 3.64455 2.46191 -4.1724 2.79958
466 1 12.5987 14.0573 -22.5259 2.38485 5.76653 1.80244
467 1 -5.4696 -8.61664 11.8856 -4.0473 0.0600891 3.41244
468 1 21.6643 16.4181 -10.1811 -0.588964 0.800379 -1.42432
469 1 -24.449 -11.1043 13.7785 0.28517 -0.206828 -1.85446
470 1 -20.3693 7.38455 -11.5448 1.59572 -2.79083 2.41122
471 1 22.1476 -8.91018 -8.7091 3.20957 3.43007 0.851656
472 1 -13.4169 -4.5467 19.0913 5.56985 -2.48546 -0.501478
473 1 4.82309 12.9788 12.9926 1.88671 -0.801622 2.22871
474 1 3.77217 -5.64326 -12.3989 1.25235 1.89558 -0.211358
475 1 21.2014 10.1039 -19.5182 0.863117 -0.545895 1.39764
476 1 -12.3312 -5.22388 -3.59728 -2.54929 1.04123 -2.72766
477 1 -11.6443 -10.338 -16.1482 4.03016 5.13982 -1.41221
478 1 2.54169 1.58705 -23.8426 -3.77113 4.86804 1.51979
479 1 15.4241 -16.1824 14.5556 -2.30115 1.17354 3.64267
480 1 1.45177 -10.0786 9.49949 1.38998 2.0736 0.213522
481 1 -3.57174 8.22878 -19.9079 -0.613819 2.82673 0.0198715
482 1 -22.9087 -2.6997 19.4376 -3.00776 0.121184 -3.59111
483 1 3.14093 -17.2148 2.31605 0.362881 5.42951 -0.678118
484 1 -22.5706 -14.9897 -13.641 0.607071 -3.87075 0.366714
485 1 20.0238 -23.4425 -19.3748 1.98738 -4.66048 -3.45147
486 1 16.0444 2.03996 -5.38706 1.61976 0.821043 -3.10844
487 1 3.65267 23.7083 17.7217 -1.25333 -2.83331 -8.00721
488 1 1.46357 -15.7823 20.0404 -0.54105 3.04307 1.76587
489 1 -12.0801 22.8178 -12.7664 -1.73712 -2.37235 -1.86259
490 1 16.7738 -18.0149 -12.1123 -3.65564 0.65212 -2.1637
491 1 -19.5669 -12.7195 10.8887 2.81346 5.43815 -1.41433
492 1 -14.9067 -17.3868 -12.5709 2.78066 1.56739 0.564696
493 1 13.7161 -0.420489 -16.4635 -2.7498 -5.63923 -1.72723
494 1 7.63564 2.56508 5.46963 -0.188499 1.37693 0.00882942
495 1 -2.65347 -11.6995 -2.68181 -4.53264 4.3024 -2.96552
496 1 4.35045 5.16414 -11.8644 -3.24745 -3.24512 -2.09475
497 1 10.3587 15.8305 -23.623 -0.459971 -2.52152 3.65029
498 1 23.438 1.82818 -24.0954 -0.667767 4.77107 -2.13587
499 1 -23.2391 2.51421 -10.3896 -0.850487 3.03406 4.33506
500 1 -5.0429 -16.4053 8.76265 0.728162 2.31658 1.58139
501 1 -14.4479 -13.1424 -7.50068 -1.27205 -2.14205 5.10195
502 1 13.9577 -12.1291 19.2808 -4.79518 4.79711 0.0276778
503 1 8.88453 0.305125 -12.737 2.07945 -1.74966 -4.519
504 1 -1.16065 4.87859 6.11172 -0.591643 -0.87637 0.450961
505 1 -2.17263 7.56797 -22.2713 1.39458 -0.816925 1.53816
506 1 -1.17149 -19.4559 -15.8066 2.86603 -2.39458 0.493847
507 1 11.0011 20.6338 -17.0026 -3.69201 4.89183 5.44158
508 1 -3.25919 23.49 -11.1763 2.88492 4.32483 -1.41213
509 1 23.079 14.4326 -18.8044 1.19929 -0.364634 -2.21316
510 1 7.16549 -17.9009 17.2541 -4.06891 2.06547 -0.389376
511 1 7.97391 -14.1776 3.94304 0.692601 5.48436 -0.682057
512 1 2.85664 -3.43808 18.9336 -1.89127 0.00250618 -4.9231
513 1 -19.0254 -12.8842 17.8582 -3.68461 2.81149 0.491716
514 1 -13.874 20.6825 20.7847 -5.61953 0.45451 1.60586
515 1 -1.53202 5.74625 17.2021 0.759328 1.74482 -4.00509
516 1 9.45641 -23.2394 -1.7423 -0.674399 -1.16168 -0.0647539
517 1 -13.6486 -0.650797 -22.914 -0.632847 7.62964 -1.52547
518 1 22.202 -20.8123 3.49395 -0.760276 1.1165 3.86683
519 1 -20.1562 -12.8229 -10.3292 -3.50779 -1.66886 3.80999
520 1 -5.69952 -23.7871 -13.27 -1.37896 2.51977 -4.2253
521 1 -10.1258 23.8084 -6.3716 0.0246177 1.52711 0.424651
522 1 2.35146 -16.7606 5.91566 0.906186 -2.59738 0.666359
523 1 -9.81092 -15.8294 -8.54962 1.12954 -3.9112 -3.91086
524 1 0.110238 -2.85231 19.652 0.454197 -0.484438 0.870195
525 1 -8.18186 0.153576 -3.23391 0.304311 -3.88036 0.496739
526 1 -20.5792 14.2077 -4.52898 0.0998787 -0.755304 0.147679
527 1 -3.67174 13.5092 -7.54486 2.22367 -0.857316 1.89879
528 1 -15.0227 16.626 -10.5516 1.41048 -0.116097 -0.568718
529 1 -9.12156 -12.4077 7.33301 0.836645 4.16503 0.488597
530 1 -10.3022 1.95567 9.15739 2.90854 3.54972 -4.65876
531 1 22.1726 -5.89978 12.1369 3.3704 1.44137 -2.86483
532 1 -8.82561 -2.70644 -2.82867 1.1328 -1.70045 2.67889
533 1 -10.5604 -18.5452 13.1898 3.25657 0.494568 2.05795
534 1 20.0775 7.77746 -9.56401 -0.575845 -1.78829 -2.69811
535 1 5.49422 10.1074 10.4131 -0.406532 1.67265 -0.186426
536 1 -1.65685 -6.27037 4.21965 -0.739871 2.61409 3.47044
537 1 7.93669 -6.28653 2.71351 -3.53736 0.354224 -0.180631
538 1 -21.2231 -7.36165 12.6482 -0.87202 3.68213 -7.26116
539 1 18.0581 11.6401 -6.82889 3.2531 3.0281 1.13073
540 1 -14.3403 -10.3032 2.71796 -3.1665 0.507202 -1.60781
541 1 -13.0501 1.30223 14.7321 -0.858411 2.89274 -6.3058
542 1 -23.9107 4.84556 -8.50053 2.2575 1.59842 -4.32532
543 1 20.7268 -19.1078 -16.1303 -0.104327 -4.17882 -8.01463
544 1 -5.33738 -19.1487 -19.6488 -0.273815 6.37873 4.66831
545 1 22.7441 -15.0862 13.5678 -1.43702 2.21802 2.77744
546 1 -7.10212 -16.8216 -17.0147 1.09618 3.00228 -2.38387
547 1 16.4624 -15.9379 -21.8668 -3.69816 -1.84605 -1.93603
548 1 9.75619 2.65545 19.0596 0.118528 3.58508 -1.83132
549 1 -20.8724 -3.88249 8.63413 0.63487 1.66858 -4.47424
550 1 0.793309 -20.2644 -13.2742 4.58218 0.0819034 -0.28796
551 1 8.27944 8.57617 -17.4559 4.12583 3.92672 -0.580378
552 1 2.30532 -18.853 -1.11985 1.64024 1.79103 1.37322
553 1 -12.7673 6.7573 -0.479881 -2.74447 -3.40893 4.54619
554 1 2.36782 17.7067 -20.3311 -1.73362 1.94174 -1.52004
555 1 -15.954 -15.7056 -0.81112 4.26057 -2.20168 -2.59109
556 1 -12.2851 17.0864 -3.02415 -0.309032 -1.72323 1.44928
557 1 11.6582 -24.0017 -10.1687 -0.943686 1.64284 4.59526
558 1 -3.57633 -12.455 16.5277 -2.28209 -0.00134072 5.63046
559 1 -8.61199 -20.8926 6.88 -3.66043 1.20317 -2.33068
560 1 22.7926 -22.9818 -4.53129 7.25423 3.17114 -4.67932
561 1 7.43626 -22.813 19.1941 -2.04668 2.94186 2.6109
562 1 7.24903 8.1404 -21.4238 0.918831 -2.15298 4.76585
563 1 5.92857 -19.3657 5.44696 -4.20908 -0.673457 0.476414
564 1 -8.25581 -19.5793 10.618 -8.19405 2.50679 2.1386
565 1 12.7936 -20.936 16.8856 -2.56026 -2.72315 0.93612
566 1 19.465 16.0284 15.47 -3.78776 2.75149 -1.27312
567 1 -19.6304 24.0936 -2.77244 -0.983925 0.994632 2.92735
568 1 4.49624 -5.66988 6.79513 -0.608454 2.9151 1.27532
569 1 -5.64404 20.7659 -15.5981 -1.7804 1.54996 -0.938081
570 1 -23.5114 12.0674 18.064 0.8498 4.45029 -2.41803
571 1 0.623381 -13.0475 20.3471 -0.379073 6.14151 2.11916
572 1 11.1077 -23.4093 3.46647 1.41717 3.16251 -0.078278
573 1 18.3271 -5.69629 6.04694 1.25575 -1.0567 -0.185923
574 1 13.3937 -22.235 -7.11441 5.07381 0.0209782 5.21699
575 1 -17.1655 6.07974 -3.0373 -0.653624 -5.37649 3.16318
576 1 19.5285 0.229395 17.4936 -0.844666 -1.44618 4.0343
577 1 -6.64388 21.7786 0.332034 0.158011 1.18209 -0.0661702
578 1 -23.1759 21.4887 -19.1014 -2.75795 -0.626924 -1.69615
579 1 3.57514 -19.9279 -12.3384 -1.50007 -6.99108 -3.08941
580 1 -6.11396 5.63504 -20.2817 -2.81983 -4.44296 3.43957
581 1 -15.1943 -9.0334 14.302 3.48487 -1.21375 -2.49906
582 1 -2.85547 -13.5056 -19.8267 0.448154 -0.245045 2.07118
583 1 -21.4281 22.8605 11.9742 0.642253 0.464203 -0.0263625
584 1 14.6273 5.54217 -7.52814 -5.23599 2.71208 1.49546
585 1 -7.80247 12.5964 15.4018 0.108789 1.25062 -1.21613
586 1 17.0605 23.5845 -20.0608 -1.23414 5.37438 -0.336091
587 1 -18.9423 -24.1721 -10.002 3.86467 -4.25532 -2.71051
588 1 -18.6158 22.029 5.91131 0.428863 -0.729109 -3.15012
589 1 -2.58193 3.93891 -1.0281 -3.6241 4.95593 -5.69948
590 1 -4.17668 18.5724 22.3938 1.24261 3.80368 -0.994974
591 1 18.9883 -19.2721 11.5456 -0.624115 3.12459 -2.6684
592 1 -15.0514 -12.8436 9.74897 -1.29674 -1.38181 -3.13087
593 1 -11.6937 -20.0199 17.2601 -2.54153 -3.57432 -1.55426
594 1 -21.2662 0.0180859 3.32851 1.83836 -5.73187 -0.130835
595 1 8.13962 -17.3581 -24.1138 -0.765394 -0.500151 2.47562
596 1 -12.5441 -18.8815 6.53837 0.627009 4.49581 2.37211
597 1 -23.8061 -23.8796 -10.3629 1.23269 -2.2402 2.53652
598 1 16.3152 -13.1562 5.20697 -3.80998 -1.597 0.704449
599 1 8.91384 -15.2035 14.4658 -5.4924 -2.19444 2.1364
600 1 -21.7974 23.4919 14.6616 -0.326409 -1.60514 -1.19311
601 1 3.05341 -3.84982 21.8736 2.36541 -5.56529 1.63489
602 1 -8.11713 2.69278 21.9362 -1.56174 -4.72366 -1.23711
603 1 -5.79273 6.41384 -4.33988 3.56196 1.56505 -0.874165
604 1 0.414269 24.2249 -23.8953 0.380528 2.80164 1.70392
605 1 -21.3516 -0.250132 19.9249 0.133187 -2.91833 4.78066
606 1 3.8429 -2.7802 -23.6234 -3.81771 -0.592221 -0.693035
607 1 -0.733154 -2.01204 17.0036 4.54008 -0.158722 4.61684
608 1 4.10834 7.45567 -10.3552 1.71702 2.27303 -1.97894
609 1 10.4798 -19.1487 19.8546 -1.725 -1.27432 3.3816
610 1 14.2076 -3.91547 15.2691 -0.371793 -1.35618 -5.265
611 1 -4.73705 -9.75597 -7.56875 -1.98105 -0.288375 2.00642
612 1 -4.38564 13.2617 -14.113 -3.64993 7.37345 2.50496
613 1 11.9435 8.96345 -20.4933 -3.24378 0.311154 2.91561
614 1 -17.3327 -10.6339 -4.4398 -1.65518 0.301717 1.01586
615 1 12.826 -1.81272 19.9925 1.1314 -0.0023271 -0.408286
616 1 17.614 -1.38036 20.2044 3.35391 1.96386 -0.305526
617 1 -10.9804 22.2633 -17.5458 1.5997 -1.35696 0.213262
618 1 13.1677 5.57695 9.73726 0.762205 -3.29304 -2.02775
619 1 15.5992 1.49117 11.4334 3.32434 4.62805 1.60465
620 1 20.7608 -13.5638 -9.77059 1.10984 3.28969 0.7672
621 1 -7.06716 12.2951 -14.2383 -1.86513 -0.203119 0.573374
622 1 -21.1483 -10.652 1.25586 8.82195 -0.664778 0.716736
623 1 22.5274 -13.7598 5.13864 -0.261905 -0.0598257 3.68071
624 1 -6.5748 1.67935 -19.6626 3.76114 -2.05106 -0.43405
625 1 -3.10764 -9.1989 -4.07281 -1.04505 -1.24451 2.89294
626 1 -2.04833 3.48568 -18.3244 -2.98033 1.30272 -2.35756
627 1 18.9886 18.5619 14.1341 -1.58197 -1.46695 -2.33454
628 1 -22.6983 -16.5143 1.53931 2.83616 4.38296 1.83493
629 1 -5.74494 8.84576 -8.38836 0.150219 2.74328 4.74333
630 1 -22.9821 22.4265 9.52469 -0.701332 3.30423 0.784969
631 1 -4.63578 -18.8155 17.5628 -3.85816 -1.59291 -4.76196
632 1 -13.9145 -19.6066 4.12304 2.41928 -4.01421 4.14756
633 1 7.17512 9.60365 -24.0308 -2.3047 -0.0332698 -7.73389
634 1 -11.3745 -1.73244 16.6064 1.34595 -4.81508 -0.0742436
635 1 8.81843 11.8673 -2.3209 -4.08584 3.66077 -1.95765
636 1 -24.0493 2.44437 -17.5227 0.436193 -4.38228 -2.55588
637 1 -11.241 -22.8814 -23.9264 -1.55889 2.43208 -2.07483
638 1 12.6222 17.5388 -3.30053 2.27228 2.26904 -0.709395
639 1 -10.8573 -18.2752 -22.7546 -3.03159 3.11566 -0.492588
640 1 1.63897 -0.254533 4.25008 -1.46511 -1.16193 -0.125411
641 1 -13.6116 18.1401 5.51826 0.880957 4.13402 1.0662
642 1 -8.2775 -2.98616 3.32392 -1.12613 3.19565 2.49854
643 1 10.3155 -18.2895 7.1982 4.71762 -2.42099 -0.317412
644 1 -5.81318 10.9182 -4.80118 2.2534 -0.753679 0.104845
645 1 -9.52093 -7.24686 -18.937 -3.94796 -0.908007 5.44944
646 1 15.2642 24.2299 15.0795 2.16511 -4.48209 -3.49942
647 1 3.2422 3.21093 -4.05761 -3.70803 -3.13178 0.412351
648 1 19.2086 -15.6016 -23.7271 1.25907 -2.36976 3.37508
649 1 10.9667 -15.3784 18.9634 0.783537 -2.92431 3.18189
650 1 -9.33129 -2.24299 18.642 2.71026 -1.6859 6.63307
651 1 -22.3203 3.21876 -15.2279 -3.68846 -1.26549 -0.674162
652 1 -8.30905 -4.6423 -18.1207 -1.99184 -0.35696 1.7966
653 1 -22.7107 -23.6034 -13.4354 6.86996 4.60948 2.85311
654 1 -10.4947 0.175811 -20.1187 -3.52618 -3.50246 3.32964
655 1 -3.61903 -11.3095 -13.3409 -1.08169 2.24187 -1.09167
656 1 0.791765 23.5295 -11.0637 4.44182 -3.20441 -1.26195
657 1 -0.866639 -4.92265 -14.1197 -2.92123 -1.99999 3.08175
658 1 21.4111 15.0996 13.4025 -2.21614 -4.32669 0.222548
659 1 4.14822 0.573367 20.0895 1.82672 -0.90384 -5.39334
660 1 9.52474 3.90397 7.48797 -2.17689 -1.61329 0.481641
661 1 -17.2393 -6.84157 -18.1747 1.22303 3.17803 1.71144
662 1 2.72072 -5.34934 8.94692 0.422072 -1.84377 -6.39363
663 1 -12.2573 -19.1075 -8.68352 2.37081 -4.12489 2.20964
664 1 -14.8521 -19.3915 12.8717 -0.485365 -0.88008 -4.5759
665 1 -0.202794 -7.20193 19.7688 0.552245 -1.50453 -0.93099
666 1 -9.03421 -7.35247 -11.7701 -1.30948 0.824733 -2.37952
667 1 -23.0097 -18.9199 23.2398 -2.74471 1.01357 4.00816
668 1 -9.84502 13.4414 16.8977 -0.904879 -6.71006 -1.38977
669 1 6.52934 -15.5419 12.9295 0.742009 0.767214 1.53287
670 1 0.435715 -14.7276 -1.74867 1.20754 3.70382 -1.91582
671 1 21.197 15.7303 4.08709 -3.76177 -0.711485 0.0378282
672 1 -24.2979 5.20173 -11.4776 -3.76034 -1.0695 -0.603338
673 1 -0.368749 16.7694 -21.6943 2.48122 -0.194019 3.02384
674 1 -7.8715 -0.487087 -20.999 0.0723366 0.487181 -0.514054
675 1 -22.7242 -10.562 -8.23381 -2.74705 3.00487 3.54881
676 1 7.19946 2.23564 17.7894 -3.57599 -3.83599 -0.973966
677 1 -23.1844 -11.7213 -10.9577 0.785088 2.00828 3.7054
678 1 -20.472 -6.55995 1.53948 -0.617585 -3.70684 -4.30247
679 1 -20.3923 2.565 -9.21915 2.62679 -0.177457 -1.62561
680 1 9.70044 21.3131 -9.0657 0.183925 -0.430347 -0.828476
681 1 0.0252814 -0.0844251 -8.34657 -2.3263 2.41193 0.110739
682 1 -4.01649 15.2027 -9.74028 -0.445034 -1.81958 3.23278
683 1 1.2044 10.4367 -18.5248 -1.92895 1.19637 -2.36099
684 1 11.8841 -21.0796 -10.0357 -1.81482 5.84639 -6.317
685 1 20.0207 1.2942 8.99182 4.02261 -4.20067 0.652705
686 1 -16.3517 -0.345375 16.5629 1.65384 3.13488 -0.178968
687 1 -14.5232 7.25377 9.62525 2.45482 3.42223 1.73475
688 1 -11.3734 -10.2876 -11.9569 -2.68744 1.34275 -2.65991
689 1 -1.43204 -1.91112 -3.71748 2.45032 3.90257 -0.87141
690 1 0.165147 23.1793 -4.72005 1.29617 -0.986232 1.07369
691 1 -0.575768 6.40553 14.5672 4.2639 1.04982 1.47169
692 1 -10.1629 -6.90579 2.57258 -3.7113 -3.85489 -0.109368
693 1 -7.82307 22.6111 2.69744 0.583105 1.10845 4.63498
694 1 9.86179 -18.5833 1.89012 -5.36158 1.63943 -5.04604
695 1 7.70911 -10.8938 -8.27991 0.0505908 2.74567 -1.81253
696 1 -6.44349 -21.1954 8.92118 -4.46907 3.27628 5.21936
697 1 -21.7723 16.4847 -19.6139 -3.32988 1.70024 1.60498
698 1 22.3647 -11.213 -6.03953 1.27332 0.034932 -2.47929
699 1 -15.5737 -11.2873 16.1382 -2.96987 -1.83966 4.23686
700 1 0.871321 6.63111 24.2913 -2.43606 -0.794615 2.73716
701 1 17.3999 0.470856 9.05629 1.65295 -1.1578 2.7562
702 1 -16.8878 -1.91786 13.9967 -1.16543 2.32114 -5.00521
703 1 6.64638 24.3005 -22.3599 -0.552324 2.05666 -0.570588
704 1 -8.90801 -11.4109 12.4133 4.71538 -3.68865 -4.92335
705 1 6.68071 21.4652 -16.9366 -1.06762 -1.86692 -1.24716
706 1 5.50733 3.40186 19.8732 2.65075 5.19187 2.11347
707 1 -17.4044 0.931425 22.3129 0.588588 -2.85753 -1.06503
708 1 11.4381 -5.67992 -18.4771 -1.46851 1.04333 -1.05165
709 1 -10.1545 -4.38352 -9.24623 3.41015 -5.65314 0.167288
710 1 -3.12791 -7.73373 13.2015 0.571939 -2.42298 -1.10858
711 1 -12.5708 -6.76125 -16.2815 -0.983813 2.14858 3.57721
712 1 4.05203 -8.66626 13.4014 -1.23187 2.95787 1.66041
713 1 1.69503 4.66307 2.47023 -2.18103 -0.179547 -3.69273
714 1 19.3051 -7.49625 -12.1759 1.63866 -4.53307 1.14297
715 1 3.65789 17.5838 8.79127 0.576658 -1.36306 -1.07855
716 1 -1.30222 -20.8067 9.65328 2.67446 3.09445 -2.87053
717 1 -12.1637 -5.0012 -13.9717 -2.1922 -0.18685 2.3586
718 1 -11.8896 -5.65015 4.24219 -0.22236 4.86723 -0.41072
719 1 13.5885 -7.57902 9.78345 3.13184 1.38071 -0.864197
720 1 5.57282 -3.09795 -19.587 -2.8748 2.35048 -0.665908
721 1 -7.97406 -9.90245 -15.1303 1.84575 0.110364 -4.76428
722 1 8.53896 -20.8787 -12.7349 5.65764 1.48825 0.263862
723 1 -22.9808 12.697 -5.71977 -1.92529 1.1969 -1.29996
724 1 -8.13694 23.1829 -9.39059 2.03408 -0.576322 -0.265392
725 1 2.08843 19.2083 23.7188 2.26858 0.224039 2.89231
726 1 -4.87204 -7.07194 22.7772 2.90796 -0.182133 -1.07536
727 1 5.56858 -3.86065 -13.5959 -0.216724 -0.860838 -4.88246
728 1 -13.0388 15.5713 -8.23096 -3.81808 2.89298 -1.2815
729 1 -13.5546 14.9571 15.6216 2.6868 3.29812 2.55438
730 1 15.4565 -20.733 -18.8197 -2.03934 -7.18949 -2.70185
731 1 -12.2002 12.0452 -23.1788 -2.06576 -2.31115 1.732
732 1 10.6623 -23.5258 -7.32445 1.49409 1.75951 1.6036
733 1 -14.7369 -17.1234 5.51467 1.84551 -0.095665 1.55672
734 1 -19.1578 23.9351 19.5065 0.209343 -0.4706 -6.24403
735 1 15.9871 8.45515 9.22551 -4.05197 -3.81945 -2.63345
736 1 5.70539 19.3242 -8.52946 -2.72718 -0.846639 -0.692754
737 1 20.5779 -14.7418 6.97386 -1.99448 4.42845 -1.73393
738 1 -8.24981 5.65306 15.5588 0.207658 4.97333 0.494291
739 1 -18.2829 -20.8348 3.57399 1.90599 1.82389 0.289565
740 1 17.2744 12.3788 20.1014 1.35378 0.42519 5.20613
741 1 -17.3489 -20.8854 -11.0917 0.466474 0.982208 -3.99117
742 1 -7.72977 -23.8576 22.8582 6.05848 -0.375631 6.17488
743 1 -24.1291 21.5619 1.7459 -3.86605 -5.96982 0.955657
744 1 9.4071 -11.8303 -12.0941 -0.561325 0.218749 -1.537
745 1 -22.064 4.11398 19.871 -0.764768 2.89905 -7.1516
746 1 -16.9517 -7.18395 23.4835 -0.634121 -2.06567 -2.27582
747 1 11.3874 -11.1167 3.0568 1.13836 -1.64408 -1.42649
748 1 -12.8304 -20.7047 21.8301 -2.00007 3.81757 -3.39292
749 1 -0.0400454 12.3507 7.3693 -2.60832 -0.0160328 -6.48843
750 1 17.1596 -5.89514 -12.0171 0.515157 1.24817 -7.63357
751 1 -19.7309 10.9929 -14.1905 -2.27049 -4.91043 4.45913
752 1 22.1752 -19.6101 6.0884 1.25074 -0.0801931 -1.57192
753 1 -18.212 -16.8336 21.5968 -3.63919 0.209073 -1.45368
754 1 -14.4533 23.2863 15.455 1.00929 -0.498847 3.1555
755 1 9.95518 11.2775 -21.2292 -1.08007 2.78396 4.41141
756 1 -6.13413 -6.39028 -2.61668 0.450522 0.987427 -1.71138
757 1 -17.9509 13.3602 -5.94521 2.81794 -1.21485 2.63971
758 1 -15.406 -17.1601 20.6131 2.86607 -2.22126 6.47159
759 1 0.616598 12.471 -12.5026 -0.481443 -0.896549 3.42334
760 1 2.0475 5.17784 13.746 0.56793 1.69309 0.590126
761 1 -9.90855 -14.4217 -5.80347 -1.31721 1.97563 3.62928
762 1 4.63467 18.1995 22.6974 3.49944 1.22482 2.91911
763 1 15.8977 5.55928 9.11672 -1.63093 1.26521 4.59306
764 1 20.0168 5.78758 7.4734 -0.647744 2.26802 -0.580647
765 1 21.2345 13.452 10.8818 -1.2748 -1.0591 -8.3204
766 1 -9.61805 18.1109 -16.4706 1.77004 -1.80669 4.72978
767 1 -1.70092 -12.9951 -0.218467 -3.95922 1.82538 4.59341
768 1 -7.93641 9.47521 7.9356 -0.85143 -5.24867 -1.03393
769 1 14.775 25.9249 19.4834 -6.79795 -9.3681 1.96757
770 1 -4.74617 21.5112 23.9653 -3.77414 0.711631 0.718386
771 1 8.48844 -16.2205 10.7934 2.20498 1.05591 -1.45457
772 1 6.47628 7.29431 6.3818 -3.23884 0.809222 -0.312131
773 1 11.3501 -19.703 11.6893 -0.716411 -2.48336 2.98771
774 1 16.2508 19.2294 13.5512 -0.828585 -1.09647 1.77056
775 1 22.0114 -21.5784 -11.0172 -2.39839 0.564086 1.33495
776 1 9.18124 -0.417077 23.1866 7.3716 -3.95389 1.93138
777 1 21.7831 -10.5408 -10.8903 -4.54782 -1.15221 3.50633
778 1 1.3186 -17.881 -15.4796 0.678758 -4.89132 -6.12937
779 1 5.24376 4.24965 -8.11718 0.325065 3.04503 -3.387
780 1 -5.32196 -12.0825 -19.7791 -0.257415 2.0552 0.459404
781 1 -20.1689 1.75716 7.90835 -0.778181 -0.897836 0.583671
782 1 19.5323 -7.9473 -14.8333 7.08709 3.3835 -1.95822
783 1 5.18117 -15.8611 22.7518 -2.07083 -1.46255 4.23369
784 1 13.2505 13.5807 -4.15658 -3.6885 -5.46468 -1.09552
785 1 -2.02677 20.3277 21.5465 -1.71417 1.47682 0.0438361
786 1 -21.2325 20.9163 20.5591 -4.48079 -0.990576 -5.40258
787 1 9.27736 14.9644 -12.1402 -1.13297 -3.16149 2.48477
788 1 -19.4264 6.65519 8.17104 2.31875 -1.90846 1.5778
789 1 -13.74 19.5874 0.352381 2.98143 -0.742091 -0.293609
790 1 3.36381 1.71926 15.45 1.66983 -2.66496 -2.11489
791 1 -3.92106 21.2312 14.9822 0.439709 1.77426 -2.18757
792 1 -23.3233 14.5581 -7.76428 1.37077 -2.6605 3.18913
793 1 -23.8723 -10.4121 1.83538 1.61353 5.07923 -3.79569
794 1 5.57212 17.2746 -23.2372 2.25453 -0.127413 -0.555522
795 1 19.279 -6.73492 21.3316 -0.881225 -1.32742 -0.209413
796 1 -11.5131 -15.0104 -14.4385 0.0633602 -5.71805 -4.12623
797 1 -19.1396 -14.0065 13.3049 0.988871 3.76731 -2.22017
798 1 -16.1508 1.89309 -8.65293 0.639108 -3.32867 2.34767
799 1 -11.6079 19.4477 -1.89753 -0.0525241 2.47784 0.451903
800 1 -18.2387 -10.1268 17.4117 0.641967 -0.0607765 -1.25824
801 1 21.024 15.1856 -1.91203 0.00490918 -1.9207 0.986973
802 1 -19.6848 -18.5565 15.2684 -5.10213 2.49835 -2.06884
803 1 18.2986 -10.3349 -8.92232 0.689826 2.1822 0.516697
804 1 9.46468 -21.0978 -8.35719 -4.03296 0.598781 0.628
805 1 10.9088 24.4558 23.2396 -2.22719 4.39923 -2.86494
806 1 -1.63219 -12.559 12.2868 -6.00719 0.337907 5.33532
807 1 16.8726 21.6668 -22.1401 2.93594 1.05583 -3.95351
808 1 -0.764927 -18.7203 -11.2377 0.281923 0.0390988 -1.80928
809 1 -5.66661 22.5381 -18.0702 -1.52326 -5.74906 1.13566
810 1 -20.9762 -17.5184 -5.32813 -6.85153 3.00889 -0.607635
811 1 -15.4558 -7.25255 -6.44542 0.0868028 -1.303 3.18045
812 1 3.58221 -11.9704 -9.97391 -1.32604 -1.55249 -3.8948
813 1 -13.4523 24.0618 -18.1811 -2.28292 -8.44656 -0.809476
814 1 -21.569 -2.02632 -1.1756 -0.793273 0.77599 0.365523
815 1 -21.7624 11.1589 -16.956 -6.01619 -4.11056 0.0833467
816 1 18.1436 -17.0008 18.1363 0.305495 1.81679 -2.6126
817 1 7.03745 -11.9548 16.5006 -1.90315 -3.90862 -7.7872
818 1 -10.6599 7.21323 20.1244 1.14482 1.51426 -5.23621
819 1 9.47335 13.0874 19.7222 -0.524617 0.858738 2.17588
820 1 2.42135 14.9319 8.89282 -1.14117 -1.75687 0.122492
821 1 -23.5412 -23.1946 -23.1753 -2.31746 1.55959 -2.79531
822 1 20.4942 -14.5913 16.6237 -2.92436 -0.473952 -6.47462
823 1 7.34863 -11.2977 3.39051 2.47223 -3.85994 0.204764
824 1 4.33876 -19.3225 -7.44378 -3.16583 0.453612 1.16714
825 1 -24.2385 3.77732 4.44667 1.55783 -1.73527 -2.23825
826 1 -13.4821 7.54294 -5.78122 0.16554 3.25122 0.586083
827 1 -2.7796 0.50997 4.94268 -5.70625 -1.68615 3.03259
828 1 -7.55541 -18.4485 13.2437 3.18518 0.229513 -1.82617
829 1 19.3542 14.4264 20.1776 -2.23926 -1.7394 -1.98726
830 1 -9.87596 -11.4246 20.9629 -0.518251 -4.32751 3.98726
831 1 2.13613 -14.8211 -24.1595 3.06182 2.27365 2.35518
832 1 -6.69822 -4.13749 11.5449 -4.54111 0.758955 1.49006
833 1 -13.4114 -4.5679 -7.79734 1.58364 -0.846937 1.898
834 1 0.130417 11.3225 -1.49433 0.0607689 0.799848 -2.34871
835 1 2.54425 6.12707 -21.7495 -2.08831 -1.11029 -4.66594
836 1 5.17501 -12.9778 22.5294 3.02717 -2.05906 4.68385
837 1 -19.356 -18.8256 -7.41461 -1.8373 3.62269 -1.4275
838 1 -24.6172 -18.5236 2.76371 0.000576267 0.716915 -2.50675
839 1 -20.8771 19.8252 -10.0074 0.0578502 4.71416 1.83288
840 1 3.8971 -15.8937 11.589 3.00418 -2.44656 2.24367
841 1 19.9939 4.01552 9.95632 -1.36861 3.90494 2.45943
842 1 -7.32818 -22.1019 -2.91765 -0.324774 4.48381 -3.27023
843 1 19.3092 -5.34443 18.6988 -2.57323 0.310273 -4.44634
844 1 18.3989 -18.2419 -22.7274 2.99391 -1.83654 -3.15324
845 1 18.7945 6.66007 -1.86551 0.382649 -3.21163 0.495354
846 1 8.96859 7.38008 -11.8736 2.05675 -3.2299 2.01513
847 1 -13.6956 46.9608 -14.2552 -2.25652 -1.99163 -2.69793
848 1 -5.37994 15.8384 -13.4339 -2.37318 -4.5081 0.188201
849 1 23.3947 -13.7978 -12.4194 -4.59513 -0.551189 -2.55043
850 1 17.8053 -20.2757 23.9142 -0.27825 1.7026 -0.34888
851 1 -23.6411 15.6904 -12.8763 -0.566727 -0.947153 5.92887
852 1 11.4128 -1.87817 -2.30726 -0.463584 -3.13301 0.355224
853 1 13.1552 9.85568 -14.2264 -0.944657 -4.10025 -0.680436
854 1 -23.2321 -13.2634 4.58379 -1.98636 0.072588 -2.10599
855 1 -17.1745 21.2465 -20.3366 -3.27624 2.25849 -0.100295
856 1 -20.7492 -3.69366 -7.15111 2.09289 -5.97762 0.338015
857 1 -23.1306 -5.57055 9.04637 0.0325211 -3.51131 4.33754
858 1 16.9038 -12.1511 14.8711 1.7276 -0.636001 1.86052
859 1 -14.7111 -8.25766 0.815517 -2.23134 -4.51479 3.32766
860 1 12.9919 -11.1863 -15.538 -0.848375 1.83537 1.25513
861 1 -23.5555 19.2423 -14.0113 -4.89344 -0.869547 -3.94273
862 1 0.614554 14.753 -9.87933 -4.05412 3.17943 5.12895
863 1 17.939 -15.5355 5.85763 4.94885 -2.72969 3.62278
864 1 -14.6118 4.16107 19.034 3.46643 3.89958 1.46844
865 1 -0.0834402 -21.0364 12.6428 -5.87372 -0.553336 6.48713
866 1 14.62 -2.76023 22.009 -2.66821 -1.4883 -5.38444
867 1 -3.12221 10.786 21.573 -3.69229 2.46381 4.03816
868 1 1.17405 16.9271 -5.07431 -0.969157 0.0612167 1.18385
869 1 -0.207448 18.5849 3.86884 0.444822 1.93866 -2.68192
870 1 15.5975 20.7145 18.9738 3.95923 0.656563 -1.29583
871 1 5.22212 8.44212 -17.629 1.8028 4.51417 0.0264187
872 1 -2.71951 -8.14909 -21.2619 0.992496 2.91885 0.833481
873 1 -4.53193 -0.938668 -22.2197 2.42545 -2.17809 -1.57729
874 1 13.3048 1.46857 0.603307 -4.24769 -0.96194 -2.96503
875 1 20.4644 16.3523 9.98924 0.750931 5.30378 -1.02034
876 1 14.3358 -15.0186 -8.84184 -0.107764 0.679302 -4.27552
877 1 1.4598 -19.2605 18.2599 2.02469 -1.56255 2.57984
878 1 5.96871 12.0831 -23.1058 -0.805359 5.26363 -2.4825
879 1 15.503 5.30595 -17.4609 -4.73075 5.06621 1.79103
880 1 4.08551 14.1565 21.222 -5.26723 5.76486 0.758635
881 1 -2.35332 -4.90791 20.1393 -0.57022 -1.71168 3.46023
882 1 -11.8219 -2.44542 -2.91712 2.84862 -1.59078 0.337411
883 1 16.6555 18.3882 -8.51432 1.22516 -1.36391 -6.68205
884 1 17.8885 -18.8456 -15.492 -2.02129 -5.03232 7.46819
885 1 -5.27588 -19.7828 -3.25956 0.554092 1.53299 5.228
886 1 -4.96889 23.2791 3.39343 4.20761 0.0121505 -1.41802
887 1 9.94112 -23.2341 18.0667 -4.92036 3.03838 3.29454
888 1 -8.90881 10.5897 -16.931 1.49628 0.410433 2.62465
889 1 -16.0168 -4.35892 15.873 1.87052 -4.53457 -2.68773
890 1 12.1687 -17.6758 13.9333 -5.461 1.14141 7.69424
891 1 -23.1324 -3.60758 5.35164 1.52908 -2.05493 3.52898
892 1 4.91907 -9.85727 -4.31293 -5.75722 -1.98397 0.295763
893 1 20.7044 -4.73138 0.795183 -2.15343 3.25193 -2.47091
894 1 -0.305932 10.6241 20.9805 0.981533 3.07073 0.366154
895 1 1.96734 -22.9163 5.95502 0.885463 -4.17924 -0.780413
896 1 10.367 -3.11802 19.6957 1.09667 4.46618 -1.04008
897 1 -13.3177 -23.3682 9.52737 -2.59866 2.03347 -2.12167
898 1 17.7947 1.19483 -23.5013 0.400687 -2.15646 2.60509
899 1 14.4709 -18.7633 15.6483 0.7168 1.50789 -2.19569
900 1 -14.568 -15.3255 -14.4883 0.249449 -1.65743 1.55605
901 1 4.17901 -20.2302 9.00809 -0.977333 5.59286 6.41924
902 1 -6.45189 16.581 -1.57589 -5.68759 -2.66259 0.586395
903 1 -5.83257 23.6613 -20.8994 0.232266 5.26565 -1.43476
904 1 -10.2244 -7.84193 -6.71241 0.533387 1.96043 -3.39929
905 1 22.7943 -7.93693 -23.7532 2.43733 -3.31273 0.03642
906 1 -6.52335 -23.769 17.866 0.00507774 -3.59027 0.759887
907 1 -12.3763 3.59773 -11.4343 -1.27467 0.195706 0.617698
908 1 -8.19338 -15.7731 12.4295 -3.42939 -1.75606 0.460189
909 1 16.2782 -20.8926 11.3379 -1.36009 -0.777571 4.65235
910 1 -9.94514 5.41831 -4.44653 1.29508 -2.91597 -4.68901
911 1 -2.03441 12.6415 23.4599 -4.06738 -5.16733 -0.930011
912 1 -16.7013 21.156 -8.65472 -1.65543 2.57936 -1.07529
913 1 -3.70261 22.7057 17.1398 -1.41952 -1.76159 -1.99382
914 1 -22.7828 15.8548 10.6092 1.31728 -2.48627 -1.25874
915 1 15.66 -7.41435 -13.9973 3.34547 1.86934 -1.2169
916 1 -16.815 -14.606 20.4886 -4.35138 5.23215 -1.92014
917 1 23.0668 3.67184 -21.9387 -1.03534 3.62627 3.05827
918 1 -5.32764 7.34777 1.38904 -4.96391 1.32852 2.83814
919 1 -10.2392 16.4431 10.7148 3.47203 -2.83039 0.820976
920 1 0.499421 14.3807 -19.875 -4.07683 1.83115 -1.94614
921 1 9.46334 -9.51461 -19.9888 2.15067 0.325629 1.47648
922 1 -11.1436 2.75348 -19.9245 -1.6547 0.132035 4.61388
923 1 3.51806 -11.4395 0.668103 0.471306 -0.78133 0.709313
924 1 -6.1262 15.2955 5.10677 -0.615584 -2.52335 1.35454
925 1 1.15123 12.2044 -4.04734 -1.01918 -1.51899 -2.3313
926 1 1.34103 -14.2733 7.53798 0.222625 -0.812051 1.47419
927 1 5.885 12.1444 19.6591 -1.7571 -0.543893 0.544192
928 1 7.41608 -18.7291 9.92599 4.16574 -4.08448 -0.345664
929 1 -8.60439 -13.1647 -3.15675 4.41688 -3.51184 0.964033
930 1 -19.3102 -20.7572 -14.2045 5.03204 -3.11442 0.816792
931 1 17.7977 -1.23313 -7.36536 1.37721 0.637964 -1.5095
932 1 -19.5463 16.407 15.1914 -2.47043 -5.69278 2.61374
933 1 -18.9951 -21.8902 -23.9733 0.94564 -0.830226 -3.72105
934 1 -3.25421 17.0503 -20.8161 -6.21719 0.563212 3.93169
935 1 22.9863 -12.4389 -2.64696 5.11756 -1.45437 -0.660908
936 1 7.89017 12.9945 13.409 2.02803 -1.8613 -1.50176
937 1 1.47236 12.9311 21.3825 -3.10445 3.40203 0.0844831
938 1 19.2758 8.35885 5.88868 -1.80302 3.70563 -0.229021
939 1 -8.17847 -12.7046 -16.1997 -4.35125 4.13077 0.698751
940 1 21.7603 0.756519 -8.26187 -0.945484 -2.2334 -2.61656
941 1 -21.2183 22.1936 7.47456 0.371023 -2.26325 0.199544
942 1 -6.81152 -16.8268 -20.1529 -4.93464 -1.79588 -1.59729
943 1 18.1472 -4.71428 2.11873 -3.5635 0.634787 0.368826
944 1 -15.0138 -3.35881 23.6367 -0.179821 -2.78978 1.21848
945 1 5.22798 -23.1262 17.6682 -5.7426 2.04715 3.15889
946 1 -15.4542 -8.0141 7.53716 -2.52085 -0.744107 -4.87144
947 1 -9.6726 17.3939 19.4234 -3.34643 3.30853 -5.28761
948 1 -21.2069 4.71096 -7.39853 -5.79612 -4.07907 -3.02663
949 1 -3.66747 13.1274 19.6994 3.44151 0.699586 3.99044
950 1 -21.3726 6.60176 12.1452 -2.24266 2.10958 5.52603
951 1 -9.96018 47.4684 -14.559 2.57492 3.84226 2.64549
952 1 12.1034 -13.6673 -10.0555 5.20468 0.206716 3.2323
953 1 15.9818 -2.75478 2.70314 -4.75386 0.118854 -2.09306
954 1 15.9514 8.43001 -9.59517 -1.98407 1.25112 1.61877
955 1 -11.5174 18.6234 -18.96 -5.78281 2.24773 -1.82169
956 1 -12.8532 -8.69565 -9.88752 5.36537 -3.41816 2.21225
957 1 -6.03667 -2.39515 15.1779 -1.30922 1.25095 -4.35044
958 1 1.709 12.0627 18.357 4.38197 -1.12465 -0.443451
959 1 -14.5678 -16.9787 -22.9893 -1.02438 1.53746 -5.59486
960 1 -2.36947 -22.1993 4.8487 4.13128 -2.6952 -2.65063
961 1 -5.41736 12.8962 -0.259711 1.1076 -0.714362 -2.14531
962 1 -5.212 5.90256 -7.3858 -1.13196 -1.9619 -4.07416
963 1 -16.0932 24.593 -13.1109 -1.09577 0.95009 -3.83873
964 1 11.463 -16.6706 -22.5386 0.215217 -1.51473 -9.75893
965 1 -13.3193 12.5299 5.88313 0.777111 -3.12672 3.41708
966 1 -18.3108 -7.42256 12.8994 1.0762 6.39218 -1.36631
967 1 20.2256 -5.23867 -15.4013 1.64577 0.151146 -3.9605
968 1 -2.30179 24.1821 -14.9288 -3.05419 -0.666514 -2.62859
969 1 15.7411 -22.7728 3.96838 5.33889 5.30762 -2.72514
970 1 -4.36892 -23.9162 -9.0019 -0.444002 0.88059 0.758258
971 1 15.1474 -5.41402 21.467 -0.103046 3.41325 2.90373
972 1 -9.05977 -19.4924 -0.103573 -2.24936 3.71123 -1.09302
973 1 -11.6809 -4.60483 16.9072 1.23065 -1.66405 3.0194
974 1 -1.09266 22.2674 -12.8041 -1.7964 -3.47489 -4.86373
975 1 -12.2504 -10.4067 4.94231 -0.485892 4.11065 -0.178744
976 1 -19.6963 -6.47945 10.2488 -0.84645 -0.887527 -0.0080725
977 1 3.68719 -22.7101 13.2176 4.2599 -0.0679872 -1.16394
978 1 3.89896 13.7541 24.2483 -1.45978 -1.37366 1.54808
979 1 5.96626 23.9096 -19.6022 -0.326208 -0.960539 -1.11558
980 1 5.65346 20.2352 11.4748 -2.67182 1.12671 -2.26969
981 1 5.18536 -3.34858 -5.42191 -1.93863 -0.199667 4.02187
982 1 -5.30126 -7.3693 4.49716 -1.44682 -3.38527 4.98336
983 1 -21.3376 6.88629 16.9737 -2.86568 0.708428 2.54869
984 1 -14.5794 16.8592 -4.7622 -2.58783 -1.09241 0.791835
985 1 -17.5531 18.7278 11.6769 5.44418 1.66941 0.177702
986 1 -0.413464 4.66006 10.6193 -10.4382 -4.63227 -0.621681
987 1 -23.6141 -15.9886 11.3268 2.63583 -2.88592 -0.289901
988 1 -10.3669 -24.0541 8.96423 2.38525 -3.64231 2.49885
989 1 6.13743 2.27433 -6.32842 0.447439 -0.78507 -3.00527
990 1 12.3351 -7.39733 13.6473 -3.98945 7.27075 1.20758
991 1 -7.73755 -7.87586 6.36646 -0.336787 1.59268 0.0820994
992 1 -21.9865 9.23814 3.29329 3.90922 -1.70985 -0.970577
993 1 -22.1552 1.23159 23.7896 -2.75 -3.73963 5.74514
994 1 21.778 -16.074 18.5405 -0.405818 -4.93393 -1.47478
995 1 8.59392 1.8033 0.176235 2.3498 2.19797 3.06881
996 1 19.2551 12.992 -15.6709 2.66264 -6.80661 -5.16247
997 1 -22.5567 23.9315 -23.6077 0.753067 -1.89546 -0.307067
998 1 -2.25561 10.6098 10.9396 -3.37766 0.398995 0.404859
999 1 -21.3716 9.88933 7.14909 -4.04637 -0.846549 -2.55215
1000 1 16.7036 16.1475 -10.142 -5.75797 0.542325 -2.96095
1001 1 -21.5633 -4.62482 -4.62219 -1.55062 -1.72502 1.61024
1002 1 -13.1204 -15.54 3.61571 1.07819 0.142414 -3.24451
1003 1 10.0739 -12.7643 11.1878 -3.11134 -2.87803 -7.53525
1004 1 23.0254 24.0024 8.85977 -0.312208 -0.334535 2.2734
1005 1 -14.8331 16.9667 1.18882 -2.73689 -1.85912 0.817324
1006 1 -22.1316 9.4754 17.9897 -5.00147 3.20566 1.49221
1007 1 13.1375 0.431457 17.7997 -0.401577 -0.462234 1.5371
1008 1 4.03199 -3.32799 15.0319 -0.756875 -1.55973 -3.18275
1009 1 9.63946 -16.0224 5.65567 -3.43136 0.993625 6.3504
1010 1 -10.6849 2.39051 -9.39115 2.96951 2.13824 3.13501
1011 1 -18.6351 0.646134 1.29692 -0.494946 -1.1199 -1.07965
1012 1 -0.313074 2.29217 -1.45151 1.50614 3.96631 0.596065
1013 1 2.88494 -14.7804 3.8485 -3.78348 -1.1312 2.22656
1014 1 -22.1761 -21.8445 1.70884 -0.993134 2.74418 1.18622
1015 1 -0.469339 5.20649 -21.8602 1.41207 -0.78653 4.37219
1016 1 -22.4434 2.89318 6.44768 0.620343 1.3196 -0.396907
1017 1 -8.06408 3.85458 11.9589 -1.52866 3.13697 -2.08553
1018 1 -21.5667 -20.3567 5.91705 2.57892 3.21839 -1.49309
1019 1 7.82539 16.7352 1.77549 -0.0201389 3.98913 -4.71731
1020 1 -19.2916 -24.2504 10.4197 -2.70354 -2.35119 4.34317
1021 1 20.5198 -19.3215 -4.57066 1.57631 0.832578 -3.71156
1022 1 -7.86811 -22.4572 -10.6975 -1.99773 3.62535 -0.449385
1023 1 10.8634 -1.20702 5.29645 -2.68393 -2.22798 1.24677
1024 1 -3.83778 9.33153 24.3307 -1.74198 -2.87317 -0.362292
1025 1 7.01527 6.24996 -19.0045 2.23457 3.41497 -0.261619
1026 1 2.90403 13.0543 -10.7029 0.524558 0.58189 0.271745
1027 1 -23.1653 -6.06281 14.2476 -3.25009 -0.039539 1.70951
1028 1 -6.86897 -12.6697 -12.7544 1.09316 1.85384 0.498136
1029 1 12.4594 12.6462 1.25705 1.76743 -0.476881 5.01769
1030 1 -17.3831 -17.4711 -23.815 -2.86631 -1.73885 2.05245
1031 1 -4.64845 -13.1919 -3.86751 0.843996 1.8521 -1.42999
1032 1 10.9848 8.01627 17.7777 2.81038 1.13615 3.5859
1033 1 -6.52086 -18.1218 2.42418 -0.119112 -1.27569 4.33475
1034 1 -14.6547 11.4536 -11.8754 3.35139 -2.63934 4.92997
1035 1 12.4574 20.3286 -3.34257 -4.16441 -1.60548 1.13703
1036 1 3.47777 -11.8671 18.213 -1.82505 0.180061 4.2522
1037 1 -13.3183 -16.5784 18.9186 -1.99505 0.207991 -3.91067
1038 1 -1.98023 7.0468 10.2416 1.55625 0.714959 0.254257
1039 1 22.9616 20.7057 -10.5206 -1.11052 -2.52398 2.04437
1040 1 9.859 -1.57188 -22.8211 -1.36819 -1.46781 3.4019
1041 1 -1.17216 9.10165 -14.0688 -8.07609 1.90365 1.79437
1042 1 13.3129 -5.49871 -23.4177 -4.28862 -4.87403 -1.08715
1043 1 16.1084 9.97749 -5.25566 -1.26494 2.77116 1.98926
1044 1 -5.3796 21.8258 -10.0842 0.653927 3.38806 -2.34082
1045 1 -5.9174 -2.76794 23.0038 0.502894 -0.77449 -2.20802
1046 1 15.8502 14.815 -16.6347 2.52905 2.84636 -8.21597
1047 1 -17.7716 1.993 19.7789 0.794328 0.898585 1.78163
1048 1 -0.572284 0.430693 18.3573 1.68363 0.0477073 1.75078
1049 1 -24.4901 -0.721384 -12.4701 -2.26268 1.47481 -5.64034
1050 1 18.2317 21.7547 19.2435 1.15772 -0.905411 -3.61514
1051 1 0.762724 -1.61536 10.7282 -5.40088 -2.83594 -1.62593
1052 1 -20.2976 -2.7387 -20.126 -8.56465 0.853696 -1.58688
1053 1 3.96068 6.09681 -18.9319 0.160863 -3.72017 -0.0189018
1054 1 -14.9779 23.9948 0.800145 1.03872 7.14179 0.51595
1055 1 -8.77403 17.0151 14.8857 0.715184 4.88158 5.30886
1056 1 -8.18292 17.5387 5.41368 -1.73734 -0.843603 1.48887
1057 1 -10.0124 -16.9725 -15.988 3.9562 0.754918 -1.23396
1058 1 -0.788125 -4.35608 -9.05152 -2.66031 4.65112 2.63053
1059 1 4.22275 -21.9783 -15.4048 2.44191 0.461326 0.990512
1060 1 -18.1305 -10.8587 7.52583 0.772019 3.81451 -6.12099
1061 1 8.31782 8.50523 -14.2977 3.26604 2.26146 -4.35326
1062 1 -9.24081 -0.581441 8.90809 -1.59155 5.54695 -0.139162
1063 1 0.653969 19.0209 11.0302 -1.36999 2.49397 -1.90618
1064 1 14.9447 -16.4386 6.96162 1.29627 0.323078 2.87668
1065 1 16.062 19.1449 -18.6339 -2.54216 -2.90931 1.40125
1066 1 16.3508 -2.75155 -23.0553 -1.85399 -1.94449 1.50371
1067 1 -22.0868 6.83849 9.29283 -0.713592 3.37024 -2.99654
1068 1 -3.13251 19.1207 0.0941397 0.965477 -0.2638 2.8764
1069 1 -24.3441 16.2728 -20.7433 1.17816 3.34131 -1.90387
1070 1 -7.62007 7.05825 9.09506 -1.44031 1.24863 -0.488563
1071 1 -18.567 23.7533 -11.9121 -1.66418 0.0410498 -1.79412
1072 1 13.9569 8.21858 -18.3667 1.25037 1.4067 3.64306
1073 1 0.107978 -23.303 -11.3738 -2.96813 1.7175 -0.250231
1074 1 -11.5045 11.4634 -16.2793 0.651316 0.650354 2.29072
1075 1 -1.42395 10.2518 14.5419 5.52329 4.77343 -0.216366
1076 1 20.9735 4.58364 -23.895 -1.09717 -3.84144 -5.59412
1077 1 15.7468 -8.90004 -8.58842 0.29582 0.608294 1.03499
1078 1 11.0644 -7.5423 11.2324 0.891572 3.56517 -0.685715
1079 1 -16.6761 -0.526925 11.3828 3.21096 5.75951 1.0616
1080 1 -19.9838 -10.1317 -9.27425 3.2481 -7.5995 -0.962989
1081 1 8.94953 -8.25115 16.3002 -1.8898 4.5398 -1.99045
1082 1 -16.9728 -19.6776 -5.8272 -1.13102 -6.13139 -0.153483
1083 1 -0.721648 20.4014 -18.9095 3.29721 0.628909 -0.870051
1084 1 -2.53885 -15.2923 -4.45642 1.49132 0.172735 -3.62221
1085 1 -10.7736 -16.5298 -3.80946 -3.61028 -1.75211 -4.55883
1086 1 -12.0222 8.79974 -3.69281 -2.10469 -1.121 3.03907
1087 1 9.60258 0.22083 -17.6795 -2.11598 0.0890768 -4.41944
1088 1 -23.018 22.2533 5.424 -4.43924 -3.30572 -0.726852
1089 1 -15.5508 8.17633 15.1516 3.89129 1.56955 -0.598812
1090 1 -21.7095 -21.1256 -12.9323 4.21623 -1.19151 1.19374
1091 1 -15.1513 10.1941 5.28113 0.920259 6.18141 0.0608665
1092 1 -18.5623 -18.5738 -3.85838 -0.184723 3.64215 -3.18754
1093 1 -24.1915 6.68491 5.8041 -0.405107 -3.30154 -0.180777
1094 1 -23.1605 20.9076 -22.0793 -0.411752 4.95269 2.74858
1095 1 -7.22578 22.6732 -12.3127 0.866223 0.624425 -2.51812
1096 1 10.4792 20.5471 -12.5048 1.47121 3.48003 -3.58038
1097 1 18.5925 23.5259 14.4964 4.40108 1.86115 -0.97215
1098 1 -11.7133 -2.22705 20.0148 1.97303 2.62122 -0.668754
1099 1 16.4095 11.1471 15.4782 -1.16337 -3.61484 -7.74995
1100 1 10.3341 -9.32661 20.5579 -2.80083 2.77677 2.59865
1101 1 5.53692 -13.2341 10.8821 -5.60577 -3.404 -5.62099
1102 1 14.3004 -12.8962 16.3732 3.22452 0.778515 -0.561736
1103 1 22.6751 8.01032 15.6771 -4.02564 -0.208008 -0.773242
1104 1 -23.6164 -2.18923 10.0967 -4.07667 0.82538 -2.39018
1105 1 19.1624 1.84945 -0.849522 -1.35139 -2.37571 -4.55973
1106 1 -17.5522 -17.1178 5.31916 -1.20347 0.753571 -9.0343
1107 1 1.53808 -14.796 1.10742 -0.0228238 -1.89366 -4.41019
1108 1 15.5593 12.8591 -22.8462 0.0340297 1.55685 7.39389
1109 1 -17.25 -10.7611 3.51714 -0.998515 4.40373 -2.02493
1110 1 -9.88038 22.9665 8.59998 -0.240767 2.5499 5.02953
1111 1 12.2731 -9.32831 6.88701 1.04351 0.574362 1.36138
1112 1 -2.31551 -14.9632 17.77 2.82608 -2.92446 2.88756
1113 1 -19.408 19.9651 22.9076 1.79264 -5.35587 3.10868
1114 1 -19.7234 -3.82182 11.4499 1.34238 -4.1265 2.23551
1115 1 23.3367 22.8267 -22.9225 0.74559 -1.54519 0.960098
1116 1 -16.0929 1.48229 7.66645 0.497646 -2.73053 -2.15678
1117 1 -4.20718 13.5898 7.50647 2.26847 -1.9443 -1.71442
1118 1 21.194 -1.29309 -13.2181 -4.05789 4.00687 1.31076
1119 1 7.3546 -10.2473 6.25296 1.19077 -1.94156 -1.35694
1120 1 -6.42367 -15.125 -2.60306 -2.3541 -0.24813 0.354155
1121 1 13.4337 -2.53932 -18.5428 4.26657 -1.85451 3.77074
1122 1 -8.13322 23.0022 -1.69334 -0.450115 5.23258 -1.05749
1123 1 14.4659 -5.69779 -4.20253 -1.97806 4.34446 -4.65255
1124 1 -2.56397 13.1515 -16.2483 0.160713 -1.95386 4.11259
1125 1 -21.3064 7.33868 5.65966 -1.97502 7.4352 -3.75153
1126 1 -0.720741 -11.9691 -11.6225 0.41839 4.96062 1.74719
1127 1 15.0552 20.7716 -8.64885 -1.91382 3.13802 1.50789
1128 1 1.38638 13.832 -0.221165 -0.628553 -2.14777 2.58079
1129 1 1.5251 -8.89539 -23.8908 2.97551 4.81191 2.09568
1130 1 -0.643815 14.7481 -14.2546 3.96296 -6.02248 3.20039
1131 1 17.9137 -7.7462 -3.20003 1.12927 1.73158 -4.02558
1132 1 22.2491 -4.5681 19.8607 1.68227 -2.08302 -0.886448
1133 1 11.8986 14.145 18.5523 0.964577 2.52283 -2.93497
1134 1 10.857 -19.1634 17.0529 -1.34404 0.489465 0.463994
1135 1 5.1787 -1.53066 22.1786 1.16117 -6.92578 -1.14406
1136 1 -20.3844 -20.9161 -21.8749 -2.16365 -3.3251 1.38414
1137 1 4.87203 4.92308 2.70129 -2.01488 1.21258 1.29461
1138 1 -22.6698 -22.7582 4.40096 -7.76257 2.96168 -0.388807
1139 1 -4.34596 8.90436 3.5131 0.410992 7.91107 0.448802
1140 1 14.5522 -8.16277 -17.6758 0.656865 -0.565846 0.52727
1141 1 -18.8252 7.54202 12.4096 -0.458916 -0.60074 4.35164
1142 1 7.91022 13.538 4.18636 -1.91734 -2.59903 -0.163944
1143 1 1.11364 -7.01845 -13.5317 -2.76319 -2.13992 -2.88514
1144 1 16.4116 3.30294 -11.8347 -4.32019 2.22671 2.38039
1145 1 2.55065 21.2626 21.6935 -5.18736 -2.7056 -1.6555
1146 1 11.4252 15.9711 20.6541 -0.666264 0.813257 0.804481
1147 1 -6.13796 11.4179 2.23636 0.99131 -3.25654 -2.56861
1148 1 -10.9747 8.71507 11.9819 1.89504 -2.54253 3.06029
1149 1 1.52832 -14.5981 10.6631 0.938987 1.08294 6.46496
1150 1 -12.8511 13.9746 8.65963 -1.06178 4.94476 0.031102
1151 1 22.6246 -22.9417 19.404 4.39442 5.6779 2.94053
1152 1 -13.3465 15.4432 18.7608 -0.9615 2.05109 0.996232
1153 1 -4.09144 -22.5904 -0.0745996 -4.6574 0.222408 1.21878
1154 1 -0.666618 12.0696 -22.46 1.91629 -1.78511 -2.33023
1155 1 5.20035 -19.2689 15.5685 -0.907934 2.49087 3.84612
1156 1 -17.8937 -12.1208 23.1097 -6.41669 -1.019 5.76965
1157 1 3.97147 2.79112 -10.4095 -0.173728 7.54137 -0.84493
1158 1 -19.3012 0.0861537 17.7234 -0.558079 -0.333807 -1.94287
1159 1 19.0535 -4.6246 13.6906 -1.59081 0.397315 -3.01747
1160 1 -8.60515 5.15006 -8.11737 3.27031 1.89034 -0.152694
1161 1 -8.6772 -23.2962 -20.0805 3.19735 -1.92292 -1.06077
1162 1 10.0127 10.3652 3.64715 7.21208 -1.49207 4.78769
1163 1 -17.6918 -22.4867 12.1024 -1.34365 -0.405229 -0.163995
1164 1 -19.5915 -14.8465 8.74656 -3.59168 4.36024 -1.89304
1165 1 18.0547 21.9856 -0.896341 -0.743669 -1.02115 3.95165
1166 1 -15.3636 25.0714 17.8665 -2.54977 -0.937438 0.861017
1167 1 -1.31946 13.2244 18.1121 4.03995 -1.42246 -0.494315
1168 1 10.7658 -9.95396 -1.10512 -0.233323 6.69682 -1.64634
1169 1 13.5473 -8.01245 17.6267 -2.63136 -2.85755 -3.18845
1170 1 3.4652 12.7385 10.4307 -0.997684 -1.40162 1.16691
1171 1 21.6926 -2.05897 -6.88729 0.428056 -2.70216 1.73983
1172 1 -20.8708 -16.8168 -15.4218 5.78174 5.82303 2.06775
1173 1 7.57762 -19.8953 19.8205 3.11297 -4.70987 3.83267
1174 1 -24.6948 -19.3639 -15.658 -1.79612 1.70766 -0.78185
1175 1 -10.2701 13.6653 21.0194 1.68518 -1.90383 0.250787
1176 1 -0.748379 -10.204 13.9489 1.22775 3.02801 0.279388
1177 1 10.0967 3.85236 -18.4256 8.35325 -1.43718 4.70905
1178 1 -5.78308 6.54557 6.80583 1.63441 -5.09075 6.10954
1179 1 8.04957 -8.23412 -9.71834 3.91434 -0.0192799 -3.62503
1180 1 -10.2165 46.2646 -12.0436 1.7408 -5.38372 -3.90693
1181 1 11.0963 18.9206 -10.2556 0.371403 0.736604 1.03661
1182 1 19.1313 7.4159 0.929144 -1.19698 -5.91642 -6.95855
1183 1 2.66457 -5.69542 -16.7413 -1.13429 0.813088 1.63903
1184 1 7.55188 19.1123 22.7935 -3.44949 3.78555 2.84117
1185 1 15.301 8.50731 -24.2654 -1.18751 -5.02777 -1.70871
1186 1 6.68173 -8.69343 1.72473 -0.636665 -0.00807753 1.97693
1187 1 -13.1887 18.0889 -6.72867 -0.929399 2.89131 -0.334423
1188 1 1.84599 2.75425 0.317963 -3.71877 4.10547 7.04738
1189 1 15.5131 14.6237 4.63148 9.62235 -3.08818 0.38842
1190 1 16.1035 -2.60418 -19.9443 -0.512267 -0.0755005 -0.422941
1191 1 -2.2625 -3.95739 -19.6601 -1.59389 -0.33685 0.932539
1192 1 -16.1584 -0.584694 -10.356 0.315398 2.91964 -3.06648
1193 1 8.2497 -2.3891 15.9171 1.06554 0.77593 1.99187
1194 1 9.28908 16.8799 -7.8511 0.392007 -3.33756 -2.32401
1195 1 13.7391 -13.1778 -17.5044 0.788978 -1.66432 4.87837
1196 1 5.23968 16.0418 -13.2503 -3.36087 1.81071 -2.7172
1197 1 -19.4831 17.5297 21.4841 -3.71444 -3.6186 -2.79011
1198 1 19.6641 -22.3713 11.4108 1.29383 -2.16484 1.38283
1199 1 -13.5434 8.05083 -10.4163 -0.470646 0.602086 -5.73394
1200 1 14.2396 -10.3081 9.141 -4.97464 4.21761 4.81312
1201 1 22.5393 -18.6347 18.1685 -1.91774 -4.56449 1.23515
1202 1 -16.1741 -0.0870171 -5.55994 -4.06301 -3.03434 -1.87346
1203 1 -15.9592 -12.1775 -16.6063 -2.07567 1.93316 -0.86635
1204 1 -2.68049 21.7248 2.86937 4.47169 2.31373 -1.80398
1205 1 -4.32684 -15.0357 11.4651 0.140247 3.07693 2.40618
1206 1 21.8532 -20.5078 -22.2176 -2.525 -0.963123 4.12802
1207 1 15.3652 -4.88053 -15.7112 5.7822 -3.06519 2.45645
1208 1 22.7973 -7.35498 9.4576 4.34545 0.998049 4.1514
1209 1 5.33956 -6.43033 -23.4275 3.63171 -1.93836 -0.398983
1210 1 -2.14762 17.6289 -6.81502 -6.7602 -4.22101 -1.97193
1211 1 -17.1778 -11.1361 10.4764 -5.97888 -4.54676 2.91617
1212 1 21.3386 5.19419 -10.2158 3.5319 -1.15103 0.464075
1213 1 20.8012 -16.165 21.0246 -1.9449 -1.59006 -3.11884
1214 1 11.056 0.709234 -1.10383 5.24225 0.0606453 -3.25177
1215 1 5.65193 9.8823 -8.64346 -3.90128 -0.723147 -0.879332
1216 1 14.8095 -7.65915 -11.1369 3.25647 3.16239 -2.01111
1217 1 16.2196 -13.9722 2.06531 2.98055 1.15095 -2.23788
1218 1 17.3557 -4.45118 -9.52639 3.35879 1.06244 2.49203
1219 1 12.8813 10.8008 10.4918 0.307001 0.944032 4.41823
1220 1 -19.0997 23.0744 14.8251 -0.58023 0.60283 4.48904
1221 1 0.0824903 19.5698 -21.4588 2.82291 1.9753 0.658493
1222 1 20.1109 20.0336 11.6064 0.547308 0.33804 -0.829436
1223 1 -23.346 11.3141 12.0579 -1.57035 -1.87357 -4.85975
1224 1 14.8744 -7.53149 12.6114 0.498296 0.196075 -2.78323
1225 1 -0.438527 -20.2008 21.4464 -2.17246 3.19365 -0.393204
1226 1 -21.5066 13.9078 1.47198 -1.93063 0.720712 6.01217
1227 1 -0.303336 -7.98916 -0.421152 -4.26066 -2.77793 1.25087
1228 1 -23.4792 -20.9729 -10.6069 -2.82686 1.2318 -3.96662
1229 1 18.4615 -16.77 -0.881779 1.24491 0.862764 3.23996
1230 1 -14.6686 -19.1277 -10.2251 -5.59273 2.095 1.49812
1231 1 -19.1135 -7.1853 -8.96841 2.37448 -3.8258 -1.01256
1232 1 -20.915 16.8909 -22.4046 -0.141438 4.31456 0.578865
1233 1 -2.56112 3.01041 -21.2107 -0.144058 0.0508198 -4.77433
1234 1 15.5603 13.7202 7.31836 -2.34609 1.16894 1.06978
1235 1 13.0494 18.3091 1.38923 1.68537 2.3568 2.6077
1236 1 -5.35211 -22.4307 14.0221 -6.0369 2.00882 4.2086
1237 1 -18.4437 20.5009 15.6464 0.540278 -1.09817 -6.24388
1238 1 7.94257 -2.07068 -14.2605 7.82113 -0.677819 -4.97632
1239 1 -0.763598 -23.4078 6.93076 1.40847 -5.53998 3.88553
1240 1 -5.03692 -24.0386 3.20442 1.39889 4.26461 5.33481
1241 1 13.4636 12.7621 -17.8192 -3.95767 1.64909 5.64356
1242 1 8.05541 -17.879 -12.8736 0.59397 -2.16213 0.462723
1243 1 8.78754 16.5891 -21.3044 -6.59797 1.14618 0.187393
1244 1 -18.0242 1.57228 9.7199 -4.70068 -3.82713 -3.93572
1245 1 -21.0018 12.4403 -23.0705 -0.9114 8.34894 -2.96334
1246 1 -7.01844 -15.9179 4.67273 -1.83994 -2.06729 -3.71655
1247 1 -2.68832 1.34724 -11.0864 -1.08991 2.90988 0.607354
1248 1 9.43306 6.27725 19.5191 -3.28405 -3.68717 3.43862
1249 1 6.36355 14.7341 -21.5747 1.16001 -3.49792 -3.84523
1250 1 6.04902 2.63213 22.6388 -1.79455 2.72999 0.186474
1251 1 20.9042 0.067296 22.4066 1.70019 -5.72452 -2.68835
1252 1 18.0913 -18.4025 1.5843 -1.34422 -4.45736 5.62834
1253 1 14.5774 25.007 -2.29738 -5.04213 1.12823 0.347133
1254 1 -20.677 -19.3208 2.5371 -4.28431 -1.88157 2.71864
1255 1 -4.93754 -12.5774 7.52356 -1.1231 -0.673036 3.71233
1256 1 5.22048 -19.3704 -19.057 8.59948 1.27519 -0.261971
1257 1 -5.29264 46.677 -11.0123 4.17925 6.0773 -3.06699
1258 1 -15.7394 8.81436 21.0955 -2.49276 -0.206575 -2.05599
1259 1 20.0106 -10.5906 7.49935 -3.34575 0.575857 -0.666661
1260 1 3.76226 -7.84704 -14.8781 -0.79836 -2.61209 7.77748
1261 1 13.435 -10.2787 -11.8397 3.36459 3.10346 -1.83713
1262 1 12.0531 -13.1924 -5.26352 1.35422 -4.79267 0.482852
1263 1 -14.6521 -6.3985 -2.54071 -6.02231 3.40841 0.388007
1264 1 -22.7063 -11.7727 -2.96568 4.26263 3.50625 -1.09073
1265 1 -8.23745 13.0492 -10.4925 1.22438 -5.00537 2.00291
1266 1 13.7985 -7.29287 2.99709 2.00068 3.11567 0.521559
1267 1 22.028 -16.3384 3.85169 -0.115572 -6.39893 -2.25753
1268 1 -21.4667 -11.8061 -18.1656 6.54878 -0.539131 -3.10274
1269 1 10.2408 -6.14623 20.2988 2.5839 -2.85375 -0.500553
1270 1 -22.8499 17.2181 13.4014 -1.7769 0.376646 -3.12008
1271 1 0.0227409 3.29445 17.8307 -6.26113 -0.761152 3.07309
1272 1 -20.1944 9.1902 15.6337 0.849636 -1.53556 2.08704
1273 1 19.3545 4.33052 21.802 0.402233 0.361817 1.48175
1274 1 23.1366 19.1108 -21.0316 4.09607 0.96181 4.58587
1275 1 3.36716 3.54137 10.0825 7.54097 -1.22749 -0.88339
1276 1 -0.690127 -9.94972 -19.778 4.86921 -0.720729 1.31075
1277 1 -11.0218 21.8319 -4.38927 2.0214 1.78817 -1.32405
1278 1 16.0809 -7.84979 -21.0236 -1.91002 -1.70002 -2.55522
1279 1 -17.3999 16.6806 -12.3763 -6.09464 2.94073 2.36493
1280 1 0.663672 -3.04912 -4.8323 -0.436804 1.82 3.69495
1281 1 14.0248 -9.24552 21.7953 2.98168 -0.23398 1.58185
1282 1 9.61929 -18.5104 -2.3204 0.594541 2.66505 1.91705
1283 1 5.24317 -20.178 -10.0638 -3.98045 0.03154 0.0843416
1284 1 6.47207 -13.6407 1.62063 2.15158 -3.52512 6.98564
1285 1 -11.9129 21.7233 14.8578 1.33472 1.17138 -3.97036
1286 1 -7.28826 5.09336 -15.4976 -0.93516 -3.42265 2.87146
1287 1 8.6357 -16.8787 19.7568 -0.98646 -6.44624 -0.571624
1288 1 2.42638 -3.13398 -16.2472 -0.890095 1.36354 -5.42352
1289 1 23.1218 -12.1525 -8.75608 0.163346 -3.32657 0.361704
1290 1 1.6322 6.00724 7.11475 1.53112 -4.4528 -0.273093
1291 1 -18.6877 14.5798 1.09725 -3.83691 -2.25634 1.15212
1292 1 -3.63738 19.2301 -3.87106 -2.43902 1.80658 -1.49279
1293 1 -5.77027 -3.14147 -2.74954 -0.429563 1.24167 1.04302
1294 1 14.4316 -12.7688 -7.04222 3.59392 0.519964 -3.25274
1295 1 13.539 5.04702 -2.90581 5.294 5.61794 3.57938
1296 1 -5.77327 -10.2755 6.16531 2.33191 -0.988566 -0.0678518
1297 1 15.6354 15.7326 15.778 -0.398579 -1.65482 -2.3651
1298 1 0.888375 -6.06421 -2.46001 4.21521 4.17258 3.12068
1299 1 -9.32734 -11.2907 -6.14035 -3.35731 -6.80449 0.493571
1300 1 2.26101 -1.45082 -2.8338 -0.833109 4.31274 8.25404
1301 1 10.953 15.9426 -10.001 3.19028 -0.599568 5.59179
1302 1 -3.75323 -3.60034 -23.5771 2.81697 2.27896 2.52862
1303 1 -5.99379 -8.64969 -17.035 1.22445 1.11115 -2.59737
1304 1 2.92779 0.669702 -5.00834 2.9074 6.28136 3.84974
1305 1 -4.80612 3.08948 9.53985 0.410139 2.32164 -0.285043
1306 1 7.09789 -22.1482 -1.36107 -3.41232 1.49701 -0.624929
1307 1 -15.5065 46.7557 -2.42519 -1.75663 2.00066 0.065562
1308 1 -18.837 -3.25413 6.87195 -2.97882 1.34375 4.90067
1309 1 -1.86845 -9.93585 -6.5506 -0.245582 4.40851 -6.86103
1310 1 -2.98091 -18.4509 -2.19771 0.368069 0.834769 -5.4902
1311 1 -2.79614 16.9804 -13.7058 -0.132472 -4.13559 1.07839
1312 1 -16.2787 -7.87421 4.47349 3.35374 -0.86728 -1.35739
1313 1 18.1856 18.7399 23.2555 -1.33589 2.56157 1.93317
1314 1 -17.2253 11.1726 -18.558 2.53847 1.71369 -0.699081
1315 1 -19.1036 -11.6408 -21.5273 -0.193432 -2.93576 2.32665
1316 1 20.9995 -10.5504 -14.8676 -1.645 2.25669 -0.376309
1317 1 -11.4972 9.19746 -12.1228 0.789477 -1.23256 -2.09968
1318 1 -24.7669 21.1605 -0.869073 -1.29751 0.635502 4.4324
1319 1 13.767 22.9332 -0.604529 4.20434 -1.39491 -1.1254
1320 1 20.2092 -6.8868 -8.21082 4.55579 -3.67899 3.07456
1321 1 7.72456 -21.2451 -5.86539 -1.97801 -5.40772 3.00235
1322 1 -1.32974 -12.7153 -5.37028 -2.51827 5.28815 -0.752489
1323 1 14.0484 -12.0631 11.5601 0.207243 -1.92635 4.75151
1324 1 -12.8271 -18.1399 -19.1166 -1.20812 0.707299 1.54972
1325 1 -1.87674 14.0745 6.14298 -1.34687 -6.60903 -5.60561
1326 1 -19.1943 -18.6815 -20.3391 2.21954 -1.77295 -1.36904
1327 1 -9.57921 21.6166 -23.1557 1.05859 0.101826 2.85817
1328 1 10.8563 12.3226 6.5489 -0.172255 -4.76186 3.68339
1329 1 21.4895 -13.617 -4.84114 1.47144 4.48262 -2.70508
1330 1 -10.3578 15.2628 -6.75675 3.1333 -0.505477 -2.42465
1331 1 -19.3193 2.33047 -2.50945 -0.176846 1.16473 -2.06515
1332 1 12.8436 -21.6389 22.5095 -4.17523 2.65589 -2.62649
1333 1 1.98816 10.9645 5.75611 3.98775 -3.49318 -1.71256
1334 1 11.4102 -9.85262 -8.19519 0.808604 1.56304 -0.751524
1335 1 -15.1696 24.6494 -15.6917 2.32623 -4.51806 -3.33378
1336 1 1.61624 20.2277 -7.8701 7.97358 -0.935782 3.01534
1337 1 7.80324 -20.3032 7.27303 -2.95558 1.31285 -4.62882
1338 1 1.41223 5.95895 -1.12894 2.3097 1.34807 -2.18853
1339 1 2.03004 -19.0475 21.0646 3.64249 -2.93154 6.42922
1340 1 -18.9498 16.7003 10.2444 0.457774 5.43423 -2.85962
1341 1 2.63577 10.004 14.2972 -0.0148892 0.959777 -2.11765
1342 1 1.40143 -22.2718 -15.6524 3.86928 -2.8012 1.71117
1343 1 -11.5739 -10.0337 -7.84438 0.985455 -1.84905 0.421539
1344 1 19.2697 -8.04416 4.26411 -0.300808 2.30818 0.32444
1345 1 -23.1471 3.1975 -20.1749 2.90485 -2.59039 -0.00210424
1346 1 16.8932 -3.59575 -13.6523 1.01199 3.60507 -7.06773
1347 1 -16.5107 -12.5777 -20.4872 0.370544 -2.5194 1.49973
1348 1 2.93568 12.0141 -15.86 0.459647 3.57159 6.38828
1349 1 3.04067 -12.2471 10.2714 1.43217 -7.91383 4.22506
1350 1 -15.4695 0.187049 -2.82003 3.73555 0.450914 3.85352
1351 1 16.0708 -15.0245 17.1542 -0.454464 1.82912 0.966625
1352 1 6.81043 22.9756 21.2743 -2.11169 1.04612 0.666736
1353 1 6.88779 20.7815 -0.375044 -3.84925 2.74775 -2.63272
1354 1 -1.28297 -5.20053 -17.1487 3.46253 1.4148 1.09743
1355 1 -8.30135 21.9253 17.8621 -1.90083 -2.53275 1.7993
1356 1 -20.1106 -13.331 -2.78856 4.53414 2.26821 1.63633
1357 1 -19.4532 -7.59984 -12.0579 -1.01699 0.345117 -5.81881
1358 1 -10.2576 24.4478 21.592 -3.30409 0.594211 -3.27929
1359 1 -22.0259 -22.8745 22.7727 0.527199 4.08915 -0.445163
1360 1 19.2741 -12.8257 9.30028 -1.4927 -2.16854 0.4505
1361 1 -8.07807 -21.6147 4.16399 -3.193 2.37178 -0.259899
1362 1 20.3814 19.4836 8.54348 0.50492 -0.911255 0.50361
1363 1 -15.5443 -9.97898 -21.6509 -1.99154 -2.10957 0.929194
1364 1 14.2776 -13.1646 -12.0659 0.053157 -1.56176 -0.18889
1365 1 9.19734 -5.33561 -21.8097 3.12047 -0.848753 -2.55812
1366 1 20.2163 -14.4894 0.35228 -1.22948 -0.317714 2.42932
1367 1 -9.46624 -11.6276 15.2437 3.235 -2.51495 3.39151
1368 1 -18.0934 17.307 -2.28083 4.41174 -0.302059 -1.51478
1369 1 23.1781 2.3188 -4.5735 -0.586506 -1.73452 -1.40728
1370 1 2.42879 -12.5146 22.6299 0.160151 1.5999 2.43937
1371 1 -20.3033 10.2256 -1.05364 -3.15813 2.0306 1.00962
1372 1 -10.7523 10.9643 5.15452 -0.436179 1.88107 -1.0074
1373 1 -13.5887 -8.96061 11.9392 -0.70441 2.13458 -3.02517
1374 1 -18.1876 24.4615 16.944 -3.14315 -2.37037 2.54502
1375 1 16.77 -6.9162 3.6885 0.282339 -1.44699 -1.14299
1376 1 5.58428 9.99426 -5.90357 -7.49275 -1.78958 1.3736
1377 1 -12.2574 21.6247 23.9673 3.1023 -3.82728 -1.66628
1378 1 9.24629 -10.0287 1.3826 4.28171 2.59359 1.71984
1379 1 -18.0041 -17.3888 2.25917 -1.29715 0.794347 2.86114
1380 1 15.9682 23.2043 -12.6286 1.27958 2.5251 -0.883636
1381 1 18.1938 17.5663 11.4852 -5.73257 -0.578136 -1.75925
1382 1 16.7559 -13.9183 9.8564 4.4775 4.33449 -1.1126
1383 1 -7.43267 -23.9036 -15.7182 2.55841 1.03409 -4.31724
1384 1 2.99958 20.7326 -13.3459 -3.49602 -1.48687 0.679201
1385 1 -15.5633 23.6737 12.9899 -0.480572 1.22984 3.20924
1386 1 -12.179 9.19066 1.25275 2.37267 1.65394 -0.18757
1387 1 -19.3884 -2.26433 0.590573 -0.559365 0.360797 -2.42617
1388 1 16.2865 -3.27106 18.1513 2.35663 -1.3261 4.01339
1389 1 20.396 -5.8422 -1.68966 -2.5718 -1.84279 -2.50715
1390 1 7.35409 -1.42753 11.8387 -3.01822 0.659194 3.8537
1391 1 -11.0679 20.675 21.582 -0.0875593 4.05904 2.91704
1392 1 22.1155 2.8466 2.67081 -0.0340321 -3.07208 5.68842
1393 1 -0.329052 -6.05361 1.40719 0.579607 -1.24937 2.14112
1394 1 3.3194 6.94191 0.963577 -0.222943 -3.49858 -4.92937
1395 1 0.363317 10.0616 -7.9205 2.26063 -2.63507 1.41977
1396 1 -18.3644 -8.11668 8.21403 2.76908 -5.85053 -0.781726
1397 1 5.83676 23.4137 -7.92186 0.711189 1.37445 -2.84962
1398 1 2.79381 21.7332 -5.80534 -2.25129 5.16852 -3.65368
1399 1 -1.8654 -23.556 -1.78134 0.592121 -3.16254 5.03193
1400 1 -12.239 14.9177 -23.2708 -2.30439 2.13049 -0.0657962
1401 1 22.5038 -23.4757 22.5413 -2.15053 0.257971 -0.230318
1402 1 -17.9456 -4.9241 -16.335 2.49093 0.403219 -0.829075
1403 1 13.8973 -22.4936 14.5065 1.08812 1.69835 7.34819
1404 1 21.0525 -9.64032 10.2969 1.00645 0.213054 0.589433
1405 1 20.3948 20.3153 -20.9346 2.00446 -1.14949 -2.57998
1406 1 -8.70433 2.83524 -12.6877 3.32686 -2.4361 -7.7058
1407 1 22.8394 9.81063 -0.599785 0.0758737 -0.294692 1.45417
1408 1 -4.78163 -5.84813 -14.6239 1.76631 1.67777 1.3555
1409 1 -3.16363 3.64033 23.0251 -4.58369 -2.69599 -1.66373
1410 1 -2.08826 -17.3476 -18.1527 1.36853 -2.42175 -4.87327
1411 1 18.8231 3.5756 -22.4185 -1.41269 2.37401 -2.08612
1412 1 -19.9344 9.80726 -9.65099 4.6147 -2.82688 4.28237
1413 1 -15.9473 2.82531 -21.5578 2.37936 3.92426 -2.0861
1414 1 6.73463 22.3435 5.43534 -3.36527 -4.01059 -0.667706
1415 1 -6.54804 -23.8689 0.527486 -5.36986 5.81113 -1.03787
1416 1 -22.6667 -8.70636 10.6942 -2.46948 -3.9866 -2.84903
1417 1 10.9428 5.59714 14.4426 5.98 4.44259 -2.17673
1418 1 14.1942 -7.91026 0.259836 -5.2052 -3.04505 3.57777
1419 1 9.28462 23.4311 -1.69106 -1.79741 5.01606 1.44167
1420 1 -12.953 18.4586 -22.7666 3.42512 -4.63496 -0.697128
1421 1 -24.1428 -8.88057 7.12505 4.49767 1.35779 -0.340693
1422 1 -12.2979 -21.1468 -16.4157 0.0566281 -3.34935 2.64549
1423 1 7.94849 21.864 -19.5562 -0.235608 -2.54764 -0.29773
1424 1 20.8253 11.3546 -7.41133 -0.187056 -0.897753 -1.45228
1425 1 -1.79351 5.28104 -11.4549 2.03751 2.9465 -3.19936
1426 1 7.90149 -19.9892 2.92057 1.24327 3.26319 1.49887
1427 1 19.7536 -14.7116 -2.71276 6.01794 4.20804 1.8886
1428 1 -5.02695 -17.9516 20.317 2.71678 3.08596 3.80385
1429 1 -20.37 -16.2394 6.27866 -3.65983 -1.81901 -1.88576
1430 1 1.17212 14.8307 6.52757 2.34023 -2.25686 -4.28756
1431 1 -8.3725 -0.132996 -8.72222 -3.62836 -1.26994 -0.116145
1432 1 -12.5592 8.3558 22.9962 -4.84097 6.04524 -0.951559
1433 1 -18.425 -11.5668 -18.0712 -3.28985 4.48658 -1.36779
1434 1 -23.5085 5.85899 22.1691 -0.634161 0.747437 -4.96221
1435 1 19.7138 21.4937 -4.10007 -0.605683 1.6538 -5.00317
1436 1 -15.8844 -4.77901 -14.2526 0.0638613 -2.08342 -1.29062
1437 1 3.59716 15.5892 -22.0707 2.3554 3.26069 -2.707
1438 1 -0.312307 -0.212138 -14.6971 -3.99836 2.6573 3.71825
1439 1 -18.5225 8.22141 -13.4937 -0.0998271 -0.337643 0.226983
1440 1 -23.1241 14.3414 -3.14058 1.29051 -1.95115 -0.643049
1441 1 -17.6111 -15.5031 17.8795 2.00086 1.96454 -3.36187
1442 1 -19.9044 -9.31135 -4.76532 2.17849 -1.84739 -1.8144
1443 1 18.295 -13.1569 17.3416 1.62628 -1.0116 2.84575
1444 1 13.0918 20.0446 -24.1041 3.29953 -1.40733 4.65645
1445 1 12.3327 -19.0045 9.16728 0.00519531 -1.30911 2.48675
1446 1 4.14255 -8.24988 -9.50054 -5.0119 -3.45479 8.91524
1447 1 23.0965 -4.88417 -16.5758 2.28674 2.9334 -7.88164
1448 1 -16.7007 2.57452 4.91393 -2.76173 1.56686 -2.96565
1449 1 9.95962 -2.35392 0.0767582 4.59539 0.550098 -1.17196
1450 1 -7.19811 -4.96366 -8.82754 -2.33768 -2.14693 -0.712651
1451 1 9.03264 22.8472 -11.4391 -2.12417 2.39568 1.32035
1452 1 -6.50606 -24.2429 -18.3765 2.50417 1.87184 -3.20151
1453 1 -1.28205 -22.4998 -7.14858 -1.85631 -5.41275 1.4062
1454 1 7.83777 -12.1236 -0.415663 -4.12533 1.43039 2.1518
1455 1 -15.1697 -17.3467 -5.91178 1.27947 -0.0104913 0.0658829
1456 1 -15.5507 14.1676 9.97501 0.600739 -4.35412 -7.26243
1457 1 -19.0432 1.08942 -21.3113 1.05452 -0.00714328 -2.45725
1458 1 -20.8866 12.4572 8.37683 -0.291708 1.2485 3.02932
1459 1 -12.3657 -12.8909 -4.34745 -0.605761 -2.87953 0.487773
1460 1 -14.7352 6.13147 -12.6294 -0.854315 -3.76829 -0.227445
1461 1 -13.6159 15.4273 22.726 -3.54844 -3.66434 -9.8703
1462 1 -7.87551 -17.0832 8.89486 -0.018655 -2.14284 -0.322646
1463 1 6.7821 0.5271 13.5867 -3.57404 0.63963 -1.78356
1464 1 3.06994 -19.1978 4.39191 3.0295 -1.32203 -0.103706
1465 1 -20.6763 19.9659 -14.0729 -1.53504 -0.78174 -6.11184
1466 1 -17.3597 -6.25497 -2.46877 -0.357544 -5.69943 4.02365
1467 1 -24.7558 -15.743 -15.4343 0.43682 3.10215 2.20331
1468 1 18.4784 24.4732 18.5058 2.97292 1.81698 2.87577
1469 1 19.7374 12.754 6.06768 1.01016 -0.384818 3.31428
1470 1 -2.11483 -12.4369 6.0514 -0.56498 -3.59322 -1.57522
1471 1 -5.47142 -5.39979 -11.433 -0.277152 2.80391 5.24971
1472 1 22.5295 3.67123 16.2981 -6.25455 -1.76368 -0.405869
1473 1 14.9652 -18.275 -14.4725 5.31135 0.33264 -0.067988
1474 1 0.0916251 21.1959 -23.9128 0.467178 -4.52563 3.01256
1475 1 -22.0819 46.2684 -4.07023 2.9691 0.838379 -1.50502
1476 1 -21.4078 13.6664 -20.399 0.168447 1.64559 -0.268809
1477 1 19.5078 -1.17323 -0.582421 -2.02985 -3.44892 -5.65208
1478 1 -1.01369 3.85836 3.44641 -2.3881 -1.2295 -3.80382
1479 1 8.88788 -7.8333 6.2511 1.42542 0.709083 -0.536626
1480 1 1.70188 14.0587 -6.02639 1.43867 2.59952 2.09758
1481 1 -7.54282 15.0217 -3.55958 3.43565 -3.66292 3.49501
1482 1 5.06137 22.4017 -23.4872 -0.109673 -1.59512 -1.65662
1483 1 9.51085 -22.2455 -19.9787 -0.80132 4.33477 0.262393
1484 1 -5.73801 9.35578 5.96798 -2.02072 0.186066 -0.0420667
1485 1 11.1072 -8.66998 -24.0844 1.91226 3.28971 5.3761
1486 1 -18.2561 -6.00546 15.4107 -2.8723 -0.39097 -0.396506
1487 1 -5.25044 3.73528 -16.818 -0.529392 -2.9647 -2.35434
1488 1 -17.9008 -15.6853 11.0952 -2.45706 4.68202 -5.14655
1489 1 -23.086 17.3314 -2.85704 1.20075 -5.4035 0.631333
1490 1 -22.5326 5.59166 -2.28003 -2.53996 1.72507 6.10601
1491 1 12.9139 7.58484 -4.39757 2.37311 1.94161 -2.91983
1492 1 -11.6626 11.3434 10.6938 -3.91994 -2.17964 -2.2109
1493 1 -3.49153 -6.89613 -17.1624 1.52504 1.83506 -3.30957
1494 1 -10.288 5.56438 -19.474 -1.5051 1.876 -4.70391
1495 1 -21.2448 -9.53184 19.8131 -2.223 1.51866 -2.63617
1496 1 -3.78414 10.2275 -10.0094 -3.42011 -5.69269 0.994115
1497 1 14.0324 -9.85323 -19.9258 1.85109 1.02245 -1.74565
1498 1 -12.8207 5.62494 11.6862 6.88851 -3.79514 -3.49665
1499 1 14.3227 3.41328 22.3274 -0.720186 2.50057 4.6879
1500 1 -19.5821 19.0634 13.4963 1.3799 4.25757 -2.3185
1501 1 8.83027 17.7312 -15.4607 -1.10247 -2.87376 -2.70567
1502 1 -21.8453 -7.25001 -5.56386 2.04203 -3.20051 3.26846
1503 1 9.26028 24.298 -23.1007 -0.904108 1.02061 1.03391
1504 1 -3.55049 -24.0938 -5.92282 -0.845826 4.9136 2.7247
1505 1 17.6651 -22.0315 -20.592 -0.947906 0.353138 2.34955
1506 1 15.6187 14.5159 0.22845 -1.40772 -0.172138 -0.690851
1507 1 -20.2088 21.4312 -5.81117 1.30454 -2.0766 2.20998
1508 1 20.0603 -11.7565 -2.16261 3.87479 1.77877 0.860055
1509 1 12.4604 21.6232 -8.17041 -0.927261 -3.27702 1.81416
1510 1 -15.9947 -11.6926 -0.409536 -0.951051 -0.885027 -5.23078
1511 1 -23.5265 -5.01526 17.5341 1.09676 -0.285829 -3.16235
1512 1 -13.8397 -13.8641 -1.71908 -5.29875 -1.76836 -4.13714
1513 1 -21.5799 2.22985 17.855 -2.29385 -2.58161 -3.35975
1514 1 -14.5411 -4.96608 -5.26299 0.567648 -0.91956 0.194907
1515 1 -9.4594 -23.0733 20.8056 1.46411 -0.283786 -0.346961
1516 1 -9.41259 24.3729 -24.11 -0.992021 -0.633553 -0.468476
1517 1 23.2113 -15.7006 -9.98169 3.87015 1.09421 -0.730335
1518 1 -4.29147 11.7572 -23.0357 4.7089 1.18286 0.713174
1519 1 -11.768 -18.2213 0.0887385 -3.53235 -3.53614 -0.886749
1520 1 10.7867 3.24693 -12.485 -2.8483 1.45356 -1.01284
1521 1 -8.70235 -8.13685 17.3909 -0.855251 3.45872 -0.065611
1522 1 -13.1215 -2.06657 -13.7686 0.957272 3.53321 -2.06344
1523 1 -6.05647 6.46832 11.3508 0.239733 -1.50418 0.154142
1524 1 0.548698 -19.1518 6.04827 1.30261 -1.21833 1.4136
1525 1 -11.4079 -5.72388 0.0495664 -0.490831 -0.541281 0.298096
1526 1 22.3473 23.8878 1.73378 1.57999 0.145956 0.194045
1527 1 2.55481 0.812604 -7.89655 1.86171 1.06617 3.37614
1528 1 10.6749 15.0326 15.7278 -0.845023 -3.11694 5.61471
1529 1 -7.06727 -0.275993 10.8633 0.943139 -2.06339 4.14153
1530 1 17.1263 16.5437 6.01507 -4.71834 -0.195968 4.33648
1531 1 5.2596 -8.3944 9.7327 5.52235 1.47384 -1.50123
1532 1 17.7712 -5.19795 -16.9465 0.70982 -2.80707 0.977689
1533 1 12.9291 21.7108 12.465 -1.18612 3.55267 -1.49811
1534 1 -17.093 -5.30904 10.6722 3.25002 2.75247 -5.19499
1535 1 3.46711 -6.13172 14.9748 3.86022 -2.83667 -3.12342
1536 1 -6.87105 -0.527753 -23.7835 2.12198 3.63119 1.73111
1537 1 -3.28725 24.0985 -17.855 1.55433 0.692368 -0.312985
1538 1 7.12824 17.0656 18.9044 1.21989 1.66288 -2.33085
1539 1 2.92744 6.77437 -14.1285 -0.595466 -1.91021 4.65148
1540 1 -21.8708 6.11443 -23.8289 3.06051 0.840746 -4.55753
1541 1 5.73396 -16.082 -8.10771 -2.39557 0.905134 1.67907
1542 1 -20.7772 -3.97965 18.1303 0.744022 3.55496 4.93713
1543 1 3.97395 -0.486559 13.7854 1.41991 0.267791 -1.64971
1544 1 -3.59479 20.4575 -17.7531 -1.19859 -0.280409 0.404772
1545 1 -7.45658 -13.2543 14.0858 2.83937 -5.81167 1.10278
1546 1 -14.4883 -13.3023 20.6623 -2.46786 -1.60608 -2.29078
1547 1 14.055 -0.832425 -2.26955 2.321 1.78113 -1.77041
1548 1 16.3355 46.3874 -8.33088 -3.84977 2.37072 3.37306
1549 1 -0.439476 -2.6847 -16.2031 3.98294 1.94705 -0.279807
1550 1 -4.01016 -7.7814 -10.5287 4.36987 -2.10288 -4.37409
1551 1 9.04491 -2.07586 -7.73215 -1.75913 -2.6755 5.35535
1552 1 18.5874 9.89427 -18.084 -0.47457 -0.176558 3.3288
1553 1 -10.4344 19.2943 -11.0531 -1.28007 2.38111 0.160207
1554 1 -5.88332 -8.07704 -21.5899 -2.06262 -5.30197 1.45335
1555 1 -21.1783 -4.85863 -1.62297 5.81005 3.7066 -5.06624
1556 1 20.2798 -19.8356 -9.50031 1.85884 -0.297591 6.90843
1557 1 7.87639 -21.658 -17.4571 8.2486 2.77087 2.90305
1558 1 8.31665 -16.9831 0.0665192 3.76824 -2.28225 2.49526
1559 1 -24.4299 18.8829 2.54828 1.81341 -1.29818 4.425
1560 1 -19.3034 -19.2181 20.5687 -0.357824 -0.23741 2.10216
1561 1 20.0228 19.7963 -6.14515 -1.00258 -0.208389 1.33552
1562 1 -1.43763 -4.31484 -1.6887 -1.21455 -0.618037 8.71497
1563 1 -3.30209 -5.53302 10.4358 -0.52453 1.1101 -1.70523
1564 1 8.83977 13.9854 -7.29492 5.78855 -2.39215 -3.88842
1565 1 -6.51496 15.2089 -10.9263 -3.55201 4.05576 3.16208
1566 1 1.98484 -7.36286 6.58192 1.88995 -2.23469 1.90459
1567 1 1.79645 -9.82679 -21.1809 -1.68346 0.112575 1.68177
1568 1 18.3511 21.7156 -11.9963 -3.03672 5.44313 5.23669
1569 1 9.64033 12.7277 2.04235 0.610506 4.12233 -4.71118
1570 1 -22.3908 1.38127 -13.0874 1.48326 -0.947166 2.67867
1571 1 -3.99025 -10.9727 -0.104697 -2.49122 -2.43402 -2.32378
1572 1 -1.30806 -15.1835 11.0336 -3.6082 -2.27929 -2.01428
1573 1 -11.8316 -11.6626 18.8684 0.87703 0.0981739 -0.359827
1574 1 19.1368 -17.1376 3.72315 -1.31655 3.86388 -0.598638
1575 1 -18.1814 14.2172 4.24126 -3.06995 -5.40016 0.624278
1576 1 13.4552 19.6382 -19.8787 -0.079973 5.49954 -2.71017
1577 1 15.4985 -24.58 6.16639 -3.53864 -0.730323 4.15073
1578 1 17.4038 0.823735 -11.4934 3.34099 -6.24089 0.358322
1579 1 -6.3554 13.2435 -6.30635 -0.974949 0.672077 -1.28607
1580 1 -15.791 -24.4078 -5.26276 -3.2809 0.533849 -0.962372
1581 1 -8.85874 -5.4292 10.1072 0.55941 -3.25059 1.41937
1582 1 -13.5227 4.6112 -2.0893 -0.395333 2.05251 -1.78295
1583 1 9.70993 -2.14492 -4.72665 0.92897 -3.04779 0.0661538
1584 1 -8.40685 -4.01318 13.9397 5.10083 6.93608 -2.44392
1585 1 -9.27418 -14.1928 -23.5195 0.806056 -1.86049 6.0945
1586 1 -17.0999 -24.4452 1.84813 -3.51294 -1.21384 -4.64557
1587 1 19.2534 -2.46328 -9.72579 0.283871 -3.33064 7.73024
1588 1 3.75954 19.3609 -22.3141 3.0461 -1.94884 -3.50659
1589 1 -11.6203 -22.982 -3.00291 -3.08953 0.383168 1.01062
1590 1 21.0143 7.79083 -15.4375 3.42652 -2.03489 -3.58144
1591 1 15.2077 12.6004 2.48612 -0.527155 -2.98125 -2.96085
1592 1 17.9755 8.87378 14.5631 3.571 1.42011 3.47714
1593 1 1.07489 23.6186 -18.0296 -3.99395 -2.15429 0.474289
1594 1 10.0512 4.70868 -0.183031 -1.32533 2.64386 5.95322
1595 1 7.43841 16.0155 -5.5179 -2.96787 1.29088 -0.516319
1596 1 -4.52429 -2.25393 -19.6334 3.9576 -0.486818 1.62532
1597 1 18.3515 -23.7983 6.96339 -1.84659 -1.42679 -2.76785
1598 1 4.69629 11.6562 2.05651 -2.05289 -5.02215 -5.13312
1599 1 -22.5282 -4.10338 11.8465 -2.02346 -3.56521 4.10587
1600 1 18.4341 -15.7464 -17.3307 -0.377829 2.40208 2.92909
1601 1 6.26118 15.3084 -18.6675 -0.768788 2.79452 0.918254
1602 1 -21.688 -12.4051 -21.0583 -5.76587 -0.06276 2.80578
1603 1 5.65762 -9.30882 -13.259 -2.73341 0.660185 2.15043
1604 1 20.9273 -16.41 -16.0303 1.57066 5.93656 -3.74975
1605 1 -1.28305 -3.18876 -11.8138 3.41772 2.10406 1.54868
1606 1 -22.5805 19.5416 4.82617 0.547666 -2.95955 -5.10487
1607 1 12.1267 -22.4789 -15.2465 -1.43552 -4.10918 -0.831688
1608 1 -23.6536 4.82389 8.20635 2.87498 4.59419 1.84006
1609 1 -22.8112 18.753 -17.7321 -0.490329 3.4544 -5.34939
1610 1 -11.1442 20.7327 -14.5226 -2.7717 0.125694 2.66728
1611 1 5.10362 11.6674 -2.56383 0.150161 -4.37511 -0.732569
1612 1 -22.8061 -15.6876 14.4269 -4.29695 -2.21101 -1.07183
1613 1 -1.95209 -16.3765 1.23987 3.80522 -4.14679 4.65733
1614 1 -16.2411 -14.0061 1.58173 6.35482 4.39765 -0.0373525
1615 1 -2.61803 -14.9572 -9.96618 -3.03097 -5.45754 -4.7686
1616 1 17.1842 -13.1839 -18.0498 1.02017 3.51824 3.41162
1617 1 -16.2955 -15.0793 -11.1393 0.646155 1.4408 -0.988233
1618 1 10.6354 17.9172 15.4011 -5.77084 0.215735 5.72686
1619 1 15.8145 15.1285 20.161 -5.47966 1.51854 -2.96282
1620 1 13.634 -11.0182 -9.24752 -0.274759 -1.87232 -1.98828
1621 1 -20.8434 3.92849 12.4789 0.999507 -5.80829 -3.5827
1622 1 -15.7706 20.6291 15.972 -0.470262 0.677326 -1.73264
1623 1 -11.824 -15.8276 16.5035 4.53077 -3.95178 3.80155
1624 1 6.13536 20.6562 -21.4657 0.759889 4.75148 3.44308
1625 1 11.8114 13.5414 -8.35266 0.446115 2.99806 0.751797
1626 1 16.1095 -0.20798 17.751 0.162912 -0.348513 4.9164
1627 1 18.4621 -6.21033 24.2834 -4.37656 4.27788 -2.43779
1628 1 17.0626 1.63111 0.825845 -4.89555 -0.724071 4.09033
1629 1 -5.0174 -24.7046 15.6421 2.01381 -3.71167 0.387439
1630 1 12.8362 -6.73559 22.5402 5.46822 -0.962887 2.91378
1631 1 -23.6145 -19.285 7.74038 -0.149676 -3.90905 2.14166
1632 1 -6.35659 8.26004 -23.8461 4.07359 -3.95855 2.60327
1633 1 18.2006 18.9577 -22.1724 -1.46209 4.91188 -6.27955
1634 1 -20.1036 -9.34197 -22.4894 1.40726 -0.745609 -0.180123
1635 1 7.8218 -15.3125 -11.3176 -0.755913 -2.37915 0.814016
1636 1 18.671 -8.80463 11.6341 -1.24771 7.77493 0.249647
1637 1 -0.932752 19.1165 -4.66255 0.838456 -0.676152 -2.08459
1638 1 14.3576 -5.33727 -18.5272 -0.63574 3.23455 3.3352
1639 1 13.416 11.7126 18.7434 -0.0794751 4.00822 -1.5526
1640 1 -16.4652 -23.9474 -11.5641 -0.0554465 0.116777 -0.427306
1641 1 19.8734 -11.4091 20.0059 -1.7623 -2.49374 -0.2813
1642 1 -0.833728 22.3621 4.66009 5.22272 -0.377542 -1.18697
1643 1 -7.44825 22.6719 -6.51648 -2.40193 1.61691 -2.22317
1644 1 -19.464 -1.07869 11.1934 -3.97988 -1.7925 -6.46072
1645 1 -5.94902 -7.08822 -7.57997 -2.25223 -2.12097 -3.68892
1646 1 -21.8634 -6.15359 -17.9489 4.79559 -1.04113 -1.46575
1647 1 16.7016 11.4527 -15.8597 -5.01719 -1.40103 -2.74513
1648 1 -19.8073 -15.1428 23.3092 2.8625 -0.130614 -2.70166
1649 1 -16.8689 -6.9763 -10.8381 0.703589 -0.546245 -4.49326
1650 1 10.9861 -1.95522 -11.9142 7.77603 -1.07346 -0.933909
1651 1 13.9438 -16.9718 -0.304974 -0.870731 -2.83084 -6.20885
1652 1 10.0417 6.93109 -19.0752 -2.7902 -2.34752 -2.70093
1653 1 13.1741 -21.8139 4.83921 2.69375 0.777273 -0.504482
1654 1 4.76195 -17.5654 9.27123 -0.392006 -0.239915 0.879575
1655 1 -1.42889 13.0352 13.6477 3.47424 3.97966 -4.13327
1656 1 -5.32689 11.8692 16.7067 -3.25361 -4.66407 6.58338
1657 1 16.6237 7.82078 -13.2895 2.0612 -0.845385 3.51459
1658 1 -18.0361 18.4976 5.7242 1.35509 -4.87848 0.498914
1659 1 -5.22301 -23.7314 7.55598 3.30503 4.35245 -1.2289
1660 1 4.84265 -10.6034 -21.0809 -1.22252 1.05847 2.65641
1661 1 23.3463 -0.604605 16.2777 -0.10191 0.233989 -0.701142
1662 1 -8.92635 -20.6382 -7.06395 1.88523 -1.56205 -1.3302
1663 1 -14.3095 -1.66986 -1.39298 2.19519 3.82787 1.36304
1664 1 3.07829 -10.5461 -14.4488 -4.34827 -6.18821 -1.13973
1665 1 -6.16387 6.2313 17.5442 -0.564343 3.32968 1.29267
1666 1 17.2429 -8.2044 -16.3533 2.66257 -9.78076 2.26051
1667 1 -13.597 0.37928 8.22933 2.7913 -5.88963 0.829527
1668 1 -9.71695 17.6382 7.93695 3.71811 1.8329 -2.13927
1669 1 14.896 46.601 -12.175 -1.02128 -2.73206 0.244894
1670 1 4.44855 15.9954 -2.53683 1.58114 1.65042 -3.15613
1671 1 -13.0331 8.98264 20.3469 -0.140825 2.07862 0.346716
1672 1 3.14298 11.1685 22.9742 -2.7776 -3.9274 5.42244
1673 1 0.479045 -17.6954 0.994748 2.03735 1.9955 -5.6554
1674 1 3.31879 -3.76121 -7.97992 1.87441 2.9755 1.25791
1675 1 0.676969 8.68133 15.6753 -5.1607 0.715808 -1.35487
1676 1 -20.5053 0.543344 -4.73955 1.26164 -4.75582 -1.34552
1677 1 23.0041 -18.1688 10.9675 -1.77278 -3.23525 -1.22645
1678 1 3.66729 22.5892 -19.4461 2.73531 0.650971 1.43641
1679 1 -10.4354 22.7067 19.2629 6.05657 2.49653 0.939099
1680 1 23.8458 -19.0704 -20.4825 3.08443 4.03234 0.0862223
1681 1 -17.4385 -8.14618 -22.1853 -4.09411 5.82979 -3.66042
1682 1 7.96117 9.1634 -0.391228 -5.05915 6.46763 1.36686
1683 1 14.4514 23.9669 -16.5534 5.21094 0.690832 -2.77262
1684 1 5.73908 15.8879 16.7467 1.29695 -0.766432 -1.03608
1685 1 -21.8448 16.2277 23.1661 -2.25692 -2.02138 1.20244
1686 1 11.6218 -10.959 22.6939 -1.51378 0.70959 -3.33557
1687 1 22.5075 -17.6206 -13.6132 1.79831 1.35782 1.8419
1688 1 -18.8612 -3.25394 -12.4068 -1.47101 -2.37776 0.667116
1689 1 2.80664 -24.2745 -1.76849 -3.20345 -2.72265 -1.0315
1690 1 -6.58863 -22.9685 11.4154 1.59358 1.06647 3.23364
1691 1 -17.2489 -12.8883 5.67865 -2.33642 -2.57938 -5.326
1692 1 -0.779411 20.8995 -6.61163 -0.523402 1.47537 2.278
1693 1 18.911 8.3407 21.264 0.701616 -1.1758 -4.04357
1694 1 -14.051 2.72607 -13.7518 -1.46766 -3.58347 2.87333
1695 1 18.8587 46.4782 -9.43785 -0.75229 0.414695 -2.19144
1696 1 10.6229 -2.71171 2.73932 -8.60858 3.55718 -6.07594
1697 1 -10.7323 -22.835 6.49409 0.0626955 -0.790417 2.71591
1698 1 -9.4247 11.2395 -1.63233 1.56306 4.44403 -0.819614
1699 1 13.8794 2.05977 15.2639 -5.7805 -1.09203 1.15503
1700 1 13.3363 -2.08034 -14.0921 -3.93299 -2.48418 -6.0787
1701 1 12.7098 24.6685 -4.4562 -2.80753 1.48687 -3.14674
1702 1 1.57685 -18.6117 11.5545 3.45752 -0.153142 -3.44792
1703 1 2.56597 2.64286 -13.6717 -4.64032 0.499143 0.442869
1704 1 -8.42435 -11.4712 4.84191 3.21825 0.640171 0.983261
1705 1 -0.702809 24.89 19.0019 -1.77559 -0.845817 3.49913
1706 1 5.30888 11.5182 -17.8703 -4.33054 -0.254248 2.10103
1707 1 -11.1178 -7.876 15.4767 -2.32588 -0.185999 2.01506
1708 1 -5.44127 22.1461 12.4756 4.88095 -4.85056 4.89922
1709 1 18.9166 19.467 -2.03212 1.6365 -7.64298 5.08488
1710 1 -6.57249 -20.897 -12.5775 5.63093 1.84232 3.56852
1711 1 -3.14375 3.12138 1.75898 -4.02059 -1.09892 4.78151
1712 1 11.2602 13.4412 -19.7746 1.67719 1.87111 1.96513
1713 1 22.7703 17.3462 13.1191 0.748527 -4.44073 -2.33692
1714 1 6.54625 0.102171 -10.9726 -0.180553 -1.494 -4.69376
1715 1 12.6564 25.2725 17.724 -1.46703 -1.35349 -0.16309
1716 1 17.1483 -24.4995 22.3052 -4.55441 1.79011 2.85233
1717 1 9.70989 -14.3356 -0.393645 1.05883 4.51937 2.79032
1718 1 10.2549 -19.025 -11.23 0.980015 -3.34958 -3.01789
1719 1 22.1229 7.62132 1.33767 -1.67778 -1.45328 0.704558
1720 1 -2.62052 -23.4136 9.11249 4.00752 -3.30261 -0.389745
1721 1 5.62015 1.93734 10.8553 1.54003 0.760613 0.0763455
1722 1 18.4851 -23.7886 16.9252 -7.69821 1.86475 -1.47846
1723 1 -22.5204 16.7942 2.03558 -2.88032 -3.64234 -3.90303
1724 1 -18.0638 -24.5325 -1.01708 0.18886 3.0327 5.50804
1725 1 -15.5732 7.12906 -17.3707 -3.14858 1.54517 -0.106857
1726 1 18.3911 21.5243 23.7782 3.26309 -2.65872 0.9249
1727 1 23.0743 -2.88855 -18.9276 -1.59613 3.47032 3.10931
1728 1 23.8587 -5.87719 -19.3196 3.49781 0.238677 -3.83023
1729 1 -12.7825 7.63065 13.6803 1.44159 -3.52571 -3.52866
1730 1 -2.26369 -10.0356 23.8549 -1.2781 3.97177 0.39453
1731 1 21.2675 4.64829 -4.11684 0.323495 0.409543 -0.463608
1732 1 14.8089 -13.5216 7.82858 1.4518 -0.410041 -0.677476
1733 1 -10.4983 -16.6238 9.30746 0.508121 -1.46036 -1.09515
1734 1 -7.08657 25.2366 -22.6635 -3.23453 1.11514 0.294485
1735 1 1.31004 20.9685 -16.6817 1.24885 -0.779244 0.746207
1736 1 17.8286 5.29645 11.2824 0.714288 -1.18169 -3.1495
1737 1 -18.6321 0.745128 -6.66951 2.46508 -0.63159 -3.64004
1738 1 2.0703 12.9902 -22.1136 5.73811 2.66355 6.2824
1739 1 -5.46514 -19.6033 14.9938 -1.44209 -4.3674 1.23172
1740 1 3.1154 20.0437 15.5815 0.591602 -5.86143 -3.7257
1741 1 11.8145 11.4452 -23.6651 -2.73479 7.51614 1.87809
1742 1 0.758597 -7.06612 22.3549 1.4997 0.797244 -0.801927
1743 1 17.8072 -16.5838 10.6057 -1.12432 4.56558 -1.08978
1744 1 15.77 21.5358 -5.98424 2.24336 -1.4192 2.75616
1745 1 6.37504 12.76 -6.30808 3.65356 -4.13719 -1.75386
1746 1 18.2073 24.8278 -12.4086 1.76772 -1.77641 -5.28993
1747 1 2.84753 -15.778 -7.13045 -3.35827 0.607856 -1.02386
1748 1 14.8563 -0.553616 -5.06516 1.57955 -1.8226 3.88936
1749 1 21.518 10.7721 14.7387 1.23943 1.38213 -4.71181
1750 1 16.3364 23.9708 12.4164 -1.08552 2.07546 1.03063
1751 1 0.932571 -7.05834 13.7619 -0.754036 -0.961382 1.23933
1752 1 22.8096 20.0509 -18.2861 1.04413 -0.0126683 0.630563
1753 1 -22.8008 -15.299 -21.2516 2.27729 0.643678 -2.71882
1754 1 20.948 10.7127 -22.4416 -0.748766 -2.70583 -3.29585
1755 1 -10.7026 -1.61919 -9.14248 -0.495533 -0.707919 0.712695
1756 1 -16.1519 4.57737 7.76885 -2.92405 -0.684178 -3.88305
1757 1 18.0124 -13.1106 -8.48195 -0.661415 -3.52907 7.33402
1758 1 20.9992 -23.2778 7.3133 -2.65684 -3.1595 -2.72012
1759 1 22.2277 11.0238 12.1195 -2.36323 4.36093 2.30177
1760 1 -18.0006 -13.914 -22.9943 -0.880268 -2.18658 2.41822
1761 1 22.9194 -16.4919 -21.5041 1.71379 1.18931 -0.877243
1762 1 5.14756 17.9903 5.1469 4.09368 -0.0173237 -3.67255
1763 1 -2.05524 4.19026 12.759 -3.68764 3.46689 4.52591
1764 1 -15.0416 18.5332 -12.8921 -2.83678 1.57803 2.39115
1765 1 3.61223 -17.5302 -5.11206 3.80095 2.52514 -0.17438
1766 1 -18.9937 2.80575 16.6373 -2.74537 2.2609 4.59665
1767 1 10.0887 24.2037 18.7905 -5.66753 4.75572 2.54827
1768 1 12.4664 -4.43759 8.068 -3.74301 1.44233 1.4445
1769 1 -23.4075 16.2658 16.065 -3.08705 -3.00132 -0.111791
1770 1 -9.30451 -5.9854 20.5478 -2.76298 3.1639 2.37048
1771 1 -0.0497362 22.2103 9.03293 -1.40042 5.70495 -2.32635
1772 1 14.3391 -20.5414 2.28629 0.617311 0.527929 4.48766
1773 1 18.2037 14.3655 8.04962 2.89004 -0.111181 0.212381
1774 1 14.7556 -21.7314 18.8836 2.72707 -0.76016 -2.02104
1775 1 7.6944 14.0859 -9.92539 1.70672 -0.952147 0.0930731
1776 1 11.2591 13.405 -1.55768 2.48398 -5.02978 4.10856
1777 1 -23.4709 -10.7129 16.6158 1.65921 -1.02509 -6.1454
1778 1 -16.2296 -7.4063 -13.6799 -1.35203 4.27005 -3.21869
1779 1 6.14812 2.9554 -3.42232 1.94852 -3.62227 -5.80032
1780 1 5.94481 7.06514 -5.97807 3.00453 1.77838 0.384744
1781 1 7.89117 18.8281 -22.7819 3.13861 -2.79918 -0.00739831
1782 1 -22.4165 -14.6685 -10.4824 -1.00931 2.83697 0.738784
1783 1 16.6085 7.71238 -7.01599 -1.93988 -0.0395182 1.24369
1784 1 -8.72523 15.0887 12.9105 2.09976 1.89049 4.19232
1785 1 -6.81888 6.67489 -10.112 4.22601 -2.74803 2.09606
1786 1 -6.55472 -0.0902673 -6.43502 -2.66932 0.877143 5.0116
1787 1 5.64945 19.9734 -14.2641 0.518221 -0.141441 -3.36678
1788 1 -15.3325 -16.6731 16.8952 0.76344 5.09458 -2.59809
1789 1 -24.3007 -1.603 -5.39098 1.82978 -1.97196 -5.2709
1790 1 7.90288 3.2429 -12.8646 -3.72398 2.11657 1.44634
1791 1 0.33608 -7.57159 -16.3888 -0.377609 -1.39868 -0.392254
1792 1 -15.3485 6.30441 5.8554 3.77871 -3.11971 -2.13929
1793 1 16.8286 7.81831 -21.7717 2.61636 2.69645 2.04284
1794 1 16.9092 1.61434 -19.186 2.87659 -3.57253 1.30129
1795 1 15.3865 -1.41817 -12.2395 -2.83514 0.851661 -1.29565
1796 1 -22.4335 -10.6302 -23.4398 -2.90507 -0.904526 0.536641
1797 1 0.856341 16.0281 15.6308 2.32016 -4.21458 -1.32926
1798 1 18.801 -7.28563 -18.7081 3.04146 4.6394 -4.89081
1799 1 -12.2186 8.95163 -14.6869 0.137892 2.08681 6.12429
1800 1 -1.31459 0.432617 10.4799 -2.18306 -4.93411 2.12873
1801 1 -12.8482 -20.5661 -4.01189 1.44882 -3.43037 -2.89726
1802 1 -19.1196 -18.7438 -10.5837 1.47134 -3.95736 5.34425
1803 1 -16.103 13.7873 -9.47394 1.21519 1.08367 -1.50557
1804 1 -3.34816 -22.237 -13.7215 1.01067 -1.12772 2.00706
1805 1 9.79748 5.03365 -7.01913 -2.15864 -3.43577 1.08004
1806 1 10.764 -3.86772 16.6172 -6.47633 5.51448 -1.73581
1807 1 -18.7806 -9.64795 23.5478 -3.49879 3.09597 -5.85392
1808 1 20.5198 -9.79903 17.6755 -3.17649 -0.182865 3.05861
1809 1 10.5796 19.0453 0.113355 0.5209 2.04268 -0.151966
1810 1 10.9486 -20.979 -5.72629 -3.83247 -0.723683 -2.07835
1811 1 -1.87942 3.81344 20.1753 3.06566 2.141 1.73351
1812 1 -10.0427 -3.726 -21.7149 -2.86921 1.5082 -3.41002
1813 1 -16.2524 8.88626 18.1812 4.06762 3.55395 3.30393
1814 1 11.5559 4.30201 -9.59027 5.7239 0.0978574 6.82071
1815 1 13.2261 -2.67697 -23.595 -1.98 -4.39239 3.46098
1816 1 0.236307 17.709 -10.786 -1.5805 -1.31367 -1.49057
1817 1 -2.00757 17.9605 -18.16 5.19716 -1.50479 4.90762
1818 1 -21.2776 -8.13856 8.19616 0.449465 2.24507 -4.62316
1819 1 -14.5723 -11.3172 18.7521 0.57154 -5.19547 -0.561103
1820 1 16.1327 12.2884 -11.7586 -0.505498 -0.373874 -0.117582
1821 1 20.7008 22.4752 12.7093 0.343412 -0.749827 -0.33551
1822 1 15.7653 -3.44074 -2.63205 2.8832 0.281964 -2.1558
1823 1 7.15792 45.8354 11.4808 -7.30483 3.64963 -4.77271
1824 1 -16.1546 -18.5734 10.0964 1.896 -2.04619 -3.9275
1825 1 8.52998 -10.3181 -5.62335 -3.14228 -0.208109 -4.85491
1826 1 20.3212 10.4504 4.17851 2.8994 1.52581 -0.557717
1827 1 15.3451 -21.79 -2.41739 0.0699706 -2.48606 0.196433
1828 1 -13.3614 -22.0278 -21.9726 -1.1054 -4.64886 0.153984
1829 1 5.81961 16.1516 7.09166 -1.01407 3.07364 2.8908
1830 1 -16.0167 2.65591 -16.9122 2.0283 -0.175873 -3.01401
1831 1 13.4626 -15.534 -4.40403 0.833803 1.5367 1.30749
1832 1 -23.6991 -12.3774 23.1192 -2.04272 2.41058 3.17803
1833 1 -10.9929 2.40282 19.1829 -0.291518 1.17276 2.58463
1834 1 5.86969 -8.12803 -19.7745 -1.16672 -0.232524 2.22572
1835 1 5.79807 21.9596 18.5787 7.24563 -0.388134 3.90813
1836 1 -10.2941 46.7239 -18.8755 2.7359 -1.54647 -5.05046
1837 1 14.3503 -20.9519 9.07316 0.553616 -4.22895 -5.28734
1838 1 19.989 21.7899 1.3628 -2.80584 0.499281 -4.15152
1839 1 19.9531 22.7029 5.46079 -1.30294 -0.425778 -3.83616
1840 1 -21.9176 -13.0889 -0.488633 5.08796 -3.65788 0.409638
1841 1 9.08024 -23.4079 -10.9854 3.61592 5.26151 0.708685
1842 1 15.6292 -18.2829 2.88678 -1.09525 5.56047 -0.325523
1843 1 9.47337 -1.28318 -19.9216 4.25262 -0.277105 4.19681
1844 1 -6.41902 -0.578574 3.73334 -1.17533 -5.04182 -0.0803256
1845 1 20.9779 18.0172 -22.7507 -2.70345 0.826046 -5.02584
1846 1 12.319 -19.0011 5.25847 1.53372 -2.90259 3.10555
1847 1 18.933 -14.2792 19.9519 -1.86982 -2.3791 3.5344
1848 1 5.6466 7.4753 -15.0727 2.84596 1.91972 -0.438877
1849 1 12.4528 -24.1046 -12.8225 -2.02078 1.8083 6.21614
1850 1 17.0158 -20.814 -7.02044 -5.73949 -9.08642 -2.03562
1851 1 -7.64954 4.01812 -0.859442 0.590867 1.47832 4.93138
1852 1 1.49679 1.93591 -20.513 5.56047 0.122614 -2.29783
1853 1 2.41676 -12.2281 5.92596 -4.78189 -1.6237 2.84805
1854 1 4.86882 -24.4699 11.1621 0.00111201 2.72587 -0.600939
1855 1 0.450257 24.5333 -15.4298 1.80348 -3.75298 -4.69717
1856 1 9.06467 -4.13016 -19.1464 -0.243965 -0.280436 0.809855
1857 1 -0.0622155 -19.8861 2.45078 -1.33389 -2.53415 -2.53805
1858 1 1.38563 -15.0562 -12.1896 0.0678503 1.69785 0.586886
1859 1 5.98446 -14.9092 -15.8701 2.32791 3.73945 1.71339
1860 1 8.28549 0.718608 10.1296 -2.54995 -1.88052 5.98647
1861 1 -16.0872 -23.283 -17.4621 0.0375908 -1.20401 -3.03684
1862 1 -13.4985 -1.69704 -8.91315 -4.95997 -0.394205 1.01662
1863 1 -3.5124 -15.3844 -7.20813 0.881759 -0.442774 -0.629981
1864 1 -6.42756 12.4318 19.5082 -2.61555 -2.03746 1.43162
1865 1 -10.3334 -3.24415 5.34087 0.696464 -3.63101 -0.185869
1866 1 8.31977 21.5408 12.7253 3.89389 3.87785 3.26758
1867 1 7.34378 -7.69702 -1.05108 5.97015 -1.38267 1.07653
1868 1 -8.19293 2.48369 18.3032 -3.38661 1.89273 0.575642
1869 1 -1.55803 24.2949 16.2547 0.395011 -1.58648 -3.48413
1870 1 -18.8205 11.1541 13.9827 1.18384 0.78929 -1.00424
1871 1 18.374 -10.6592 4.907 -7.12389 2.25194 -5.89008
1872 1 -1.69222 -9.24555 -9.51674 -1.50904 1.56864 1.61482
1873 1 -10.1985 15.0113 8.17102 -4.01959 -2.55361 -9.06343
1874 1 -10.9893 -15.8733 -19.8743 3.73644 5.53878 -5.42092
1875 1 -24.8422 -7.26723 -10.7603 -1.17883 -4.94434 2.61261
1876 1 -22.4776 9.31302 -19.931 -1.69599 1.10315 4.83677
1877 1 -16.1105 -4.47559 8.05308 -2.36109 1.10885 2.322
1878 1 23.2627 24.264 -1.15525 5.85411 0.155672 -0.156761
1879 1 -20.6984 -18.133 -17.8933 3.03208 -0.773335 -5.45727
1880 1 -1.27446 23.4201 -19.834 -9.8356 2.29137 -0.934859
1881 1 12.258 5.56134 20.2778 -1.38863 1.0417 -3.61097
1882 1 -9.52624 7.56542 17.5673 -5.11244 2.52315 -1.94641
1883 1 -7.47789 -14.3818 -7.58692 0.265618 1.43588 -3.84153
1884 1 16.9222 14.729 10.6625 -3.50745 -3.66849 -2.93322
1885 1 -7.36666 18.5006 22.2868 7.34504 -0.21157 3.66032
1886 1 19.2299 22.1627 8.44604 2.11767 2.80952 -4.9558
1887 1 17.5679 -4.99922 16.1294 1.85913 -0.822661 2.27659
1888 1 -10.2934 -19.6656 -15.1795 3.62911 3.66193 -1.41588
1889 1 -12.916 2.18991 10.0331 -4.17659 1.9041 0.644244
1890 1 21.1756 8.32167 24.4898 -2.2635 -1.04257 1.20148
1891 1 -12.0715 -15.5419 -22.6891 4.78419 -2.69618 0.297096
1892 1 -1.27873 -13.6286 -15.8232 -5.11273 4.87311 2.37079
1893 1 2.26111 -0.371994 22.5267 -0.96936 4.42562 5.56121
1894 1 0.600007 -18.1271 -5.43552 -4.89006 0.0307063 -0.373389
1895 1 -21.0103 -6.05472 16.2717 0.885297 -1.45462 -1.6288
1896 1 15.8719 22.2986 1.35872 5.62261 1.19294 -2.13416
1897 1 -12.8662 45.5037 -8.84455 -2.37565 -2.33369 1.48464
1898 1 -22.3067 19.9559 12.7167 3.35548 -8.70018 -2.04865
1899 1 -5.47864 19.0107 -6.18701 0.923125 1.9518 1.28282
1900 1 -12.2517 0.0341599 4.28482 -3.5957 -3.2139 -2.50256
1901 1 -11.8225 -14.551 -17.3648 -3.24354 1.94265 0.286012
1902 1 20.3442 0.184809 -21.4074 1.54823 -2.81487 0.597587
1903 1 -0.268755 -15.9907 -14.3196 -1.43123 1.75514 -0.758298
1904 1 -7.47291 -21.5799 16.1352 1.11409 4.50387 -0.916772
1905 1 -14.7449 9.04288 -8.08738 -0.501048 -2.16611 -0.356639
1906 1 -21.5809 -23.6236 12.3184 2.0776 -3.82628 1.95156
1907 1 -21.4696 -9.85323 14.1095 4.23347 4.50034 0.087636
1908 1 -15.0173 -5.51914 0.402067 -3.67432 0.687429 2.43104
1909 1 9.29972 -9.91752 11.0796 4.42416 2.89028 -2.97873
1910 1 -7.18549 -10.2697 15.7955 1.38449 0.898553 3.9988
1911 1 19.3309 -2.53041 -5.02876 3.72557 0.63087 0.372873
1912 1 -16.2299 3.90768 -0.919442 -3.35968 -1.06736 0.244449
1913 1 1.79453 18.7668 -0.889905 2.65323 1.53986 1.65489
1914 1 20.226 6.84978 3.59681 0.456447 1.3357 5.27262
1915 1 19.629 -23.3612 -16.3874 -0.50887 0.64137 3.83541
1916 1 -4.79348 16.269 2.5026 2.2654 3.20886 -1.71084
1917 1 -22.8575 23.8819 17.2399 -2.51984 -0.432078 -0.24135
1918 1 -17.9703 -1.20458 -19.9518 3.56342 -1.14356 1.76914
1919 1 -22.6656 10.3501 -14.4545 2.68689 -2.01887 5.27169
1920 1 22.8947 -15.3963 1.20358 -1.67453 -1.999 3.23477
1921 1 19.0236 13.4639 -4.73457 2.12331 4.204 0.319559
1922 1 7.28905 14.683 20.6057 4.71436 -2.1729 0.889981
1923 1 13.6595 0.225614 -10.6712 -1.67566 -4.83259 -0.0153866
1924 1 22.508 -17.2777 -0.889871 -2.74527 1.39449 5.98477
1925 1 19.7205 -22.4552 19.3907 -1.35549 -3.20404 0.126319
1926 1 14.4874 -3.66574 -7.24788 -5.05099 0.683139 -0.316686
1927 1 -8.73408 -23.5343 -22.9722 1.80388 -0.302787 -0.989535
1928 1 22.3459 -4.07987 5.51112 -3.00938 2.19401 -1.40451
1929 1 8.42125 19.5755 1.95107 -0.209411 2.04287 0.971217
1930 1 -6.63946 -14.2882 -18.3118 1.3955 0.778491 -1.53763
1931 1 -10.3104 7.00815 -2.16934 -5.92712 0.580022 -2.97936
1932 1 -0.120279 18.803 6.93924 6.32265 -3.21895 0.0299562
1933 1 -4.65456 19.784 -20.2612 2.95145 -2.47215 1.47153
1934 1 1.33842 -10.3465 -0.979611 0.422685 -0.500606 4.52084
1935 1 18.9065 -14.3809 3.07692 2.46766 4.50289 0.196127
1936 1 19.5762 -23.7462 23.5503 -3.23011 3.57221 -0.0866786
1937 1 2.57105 3.14961 19.6658 -0.457977 3.60298 -2.69704
1938 1 2.38719 5.51044 17.7908 3.95906 -2.33731 0.816841
1939 1 12.6126 11.573 4.02913 2.93563 0.326098 1.59638
1940 1 -20.4807 -24.1334 5.51292 0.0990926 1.48839 1.10421
1941 1 -0.730019 -22.9382 -14.0125 1.88477 -4.27443 3.99729
1942 1 -2.16454 8.02201 -3.4033 0.350535 2.80681 -0.403822
1943 1 5.01538 17.3014 -6.59057 -0.830026 -2.78713 2.44595
1944 1 -20.0739 -23.9457 -3.22716 -1.33356 -0.517389 -1.16293
1945 1 -24.3097 -19.5037 20.5219 -0.243867 3.31713 -0.919052
1946 1 8.41361 8.99832 -5.53843 0.82011 -1.64155 -4.62169
1947 1 -17.4581 13.3531 -14.8672 2.11356 -0.368109 2.22196
1948 1 12.8905 2.13134 -15.2255 -1.27195 -4.02573 3.58725
1949 1 -8.53878 -7.6992 -8.96467 -0.23993 2.61253 2.82305
1950 1 23.4408 21.3674 -7.56088 -1.48392 -2.81344 0.716328
1951 1 -5.18993 -11.0389 13.7638 -0.413036 -0.151438 1.81143
1952 1 5.28619 -15.2969 -12.935 2.02554 0.463654 -1.48174
1953 1 15.4652 -18.8533 -2.35103 -1.17237 -1.16461 2.1506
1954 1 5.76419 7.13573 10.6595 -2.40225 0.999008 6.35634
1955 1 -14.0721 -18.1901 22.818 -3.38777 4.14164 -0.961477
1956 1 -4.52321 1.49586 7.04201 -0.816073 3.3829 -3.5063
1957 1 13.6334 15.1105 8.63905 -2.74162 0.190861 -1.2641
1958 1 13.359 6.07005 17.6062 4.161 0.65023 -0.885263
1959 1 23.1834 -5.01361 -2.05979 -0.995898 -1.65232 -1.9332
1960 1 -14.9725 -4.23595 -20.5261 -0.875769 -0.04753 1.52329
1961 1 16.7794 -12.6548 -5.68926 -0.640938 6.10834 1.07007
1962 1 0.168852 -12.0905 -3.03398 5.30755 0.958028 -0.572356
1963 1 -0.421961 18.3356 0.98348 -1.37789 2.44279 3.34149
1964 1 23.0221 25.3163 -13.6129 -1.95198 -1.16811 1.29867
1965 1 17.6969 -4.25841 20.6674 7.9879 2.94529 0.913562
1966 1 -21.2935 -17.1199 -11.8297 -0.604396 -0.995068 -1.31217
1967 1 -14.7775 -21.9155 16.1039 -0.0735512 -2.19866 -0.871437
1968 1 -21.4731 12.7472 13.8666 3.32713 2.46701 4.15581
1969 1 -5.36041 -5.7058 8.54302 1.90089 0.634108 -0.945856
1970 1 21.3715 -8.45246 -1.58133 3.82046 -5.12643 -1.18691
1971 1 22.6192 -0.848964 8.4727 2.23637 6.17718 -3.94144
1972 1 -3.293 -6.49415 6.65425 0.118664 -3.18144 2.05522
1973 1 14.68 -16.6934 18.9284 0.619453 3.89511 -3.44733
1974 1 17.0254 -10.8305 10.1734 -1.03177 -4.57523 -0.866433
1975 1 11.1974 -15.9989 -18.3497 0.462847 2.98276 -1.52847
1976 1 20.764 -10.0617 -23.9148 -1.57378 -0.986872 2.02707
1977 1 15.9185 -14.0235 12.6245 -0.0866901 4.18553 -4.5832
1978 1 6.52063 -3.85431 24.0423 -1.43035 -2.64181 9.69099
1979 1 -0.863359 21.5271 11.7992 1.80658 2.18956 4.46764
1980 1 -21.509 5.37872 -19.1397 -3.16869 -0.635142 1.58915
1981 1 16.5208 23.2274 -2.91471 3.19542 -0.483156 -0.102836
1982 1 -19.6801 -3.9243 23.5756 2.65612 -3.91023 1.45385
1983 1 17.3763 -5.77994 -5.09111 2.57624 2.59988 -1.26062
1984 1 2.46607 19.276 19.5204 -3.1519 -2.43948 -3.13035
1985 1 2.68479 -23.1562 -9.84332 2.1013 0.526279 1.79816
1986 1 12.4344 -4.82221 2.97121 2.286 5.15977 -0.363311
1987 1 -21.7466 3.21745 9.89511 -3.81233 3.85158 4.10266
1988 1 8.61728 17.5758 9.66833 -3.93818 2.00207 0.725362
1989 1 -10.7545 -13.115 10.597 3.30548 4.47318 -4.48126
1990 1 19.9256 -14.9702 -7.08319 -0.301361 -1.65417 5.31034
1991 1 -23.193 -22.2583 20.0045 3.85879 2.01263 1.55804
1992 1 12.8996 19.3249 4.00864 -1.45342 1.20966 -2.62916
1993 1 4.50105 12.9665 -13.3082 -0.328842 2.19542 1.71451
1994 1 -22.2308 -17.9642 4.65752 -0.505601 4.61355 1.26955
1995 1 1.39105 2.45945 13.6836 6.96544 1.29365 -4.3943
1996 1 -10.3125 8.72382 -23.3186 -2.85773 2.2809 3.71403
1997 1 20.5995 23.9454 10.3915 0.83978 -0.26103 -3.01104
1998 1 -13.1845 11.0987 -0.470887 -1.55902 -2.07542 -2.21532
1999 1 -1.69818 -12.0491 21.754 0.776182 2.21599 0.52261
2000 1 4.34619 1.53437 -20.0732 2.59711 1.13489 -2.37127
2001 1 -10.4261 -10.9839 -3.30661 -0.204407 -5.79413 0.59842
2002 1 -20.7058 22.3697 -8.26681 2.06186 -1.33509 0.732475
2003 1 12.1824 -3.44719 -9.96093 -0.0657832 -1.49254 2.97653
2004 1 -0.835692 -21.1466 23.9558 -3.97896 -3.59522 0.443029
2005 1 5.31407 -5.29993 19.0823 -0.5396 -7.39266 -0.220385
2006 1 9.8663 -11.9043 -9.33867 5.11835 0.495121 0.0960293
2007 1 -10.8325 13.6853 -11.9128 -0.926179 -4.05906 -7.36012
2008 1 -7.69072 23.6414 13.3084 1.55167 -0.542605 2.17179
2009 1 -4.28845 1.19879 -1.11013 -6.65396 3.13624 -3.40026
2010 1 -5.64807 1.73658 23.7038 -1.70102 0.976744 -0.207823
2011 1 -4.02383 9.20418 19.1191 1.49165 0.50517 -1.94955
2012 1 18.7229 -18.8198 14.4624 6.88224 2.64697 -3.43568
2013 1 -13.4812 22.9443 4.99854 -2.58065 -2.89232 -1.03652
2014 1 -8.0789 -8.74656 13.4521 3.83447 0.41176 2.99925
2015 1 -3.18526 -8.33122 -1.1948 -2.49776 -7.31073 0.356786
2016 1 -5.7989 -16.9757 -7.27905 -1.29897 -5.78807 4.91071
2017 1 11.0234 8.32759 22.4154 3.0023 -0.31138 6.58579
2018 1 -16.9096 -0.931079 6.45221 -4.61855 -4.31769 -0.153107
2019 1 1.37116 22.7984 19.4389 0.48756 -4.08639 -1.60259
2020 1 7.88931 -12.7077 -15.2465 0.886491 1.17457 -0.929471
2021 1 -4.67484 12.5879 11.179 -1.79708 1.05523 3.73544
2022 1 17.9476 25.0625 10.373 2.41202 -0.829228 -2.49074
2023 1 -20.7954 -10.616 6.9608 0.574224 1.78757 1.19299
2024 1 8.91182 9.3182 12.7235 -2.80567 -1.05276 1.53955
2025 1 6.27985 -11.3349 -23.9563 5.62089 0.139384 -6.53888
2026 1 9.163 20.3116 10.2799 1.66064 -3.73586 -3.14677
2027 1 5.99877 18.2847 -11.7206 -1.22447 -4.11735 2.93733
2028 1 3.13285 -2.12192 -20.6539 -1.07821 4.21486 -0.477784
2029 1 15.0811 -8.03825 -2.54462 4.50466 1.0082 -1.72648
2030 1 9.15667 -18.2868 -21.5403 0.280395 2.24964 2.35877
2031 1 -6.57859 -22.1506 -8.02657 2.25837 1.70448 6.88237
2032 1 -8.46205 4.82261 4.00801 -1.09601 -5.21278 -7.49235
2033 1 9.38 14.9026 0.0531807 0.844783 -4.12243 -0.265879
2034 1 -9.04032 -2.6077 -16.2583 2.25818 -3.6946 0.938919
2035 1 16.3573 -15.8475 23.592 -3.38724 4.0416 0.198045
2036 1 -15.8224 7.14966 -22.448 1.91986 0.289048 -3.59706
2037 1 -16.8487 8.72151 10.4295 -0.161571 2.3525 3.57497
2038 1 18.4132 0.0691089 11.9478 -0.484338 3.80062 -0.706034
2039 1 9.11188 -22.4444 -22.6957 -2.98046 -0.8399 0.381064
2040 1 -6.38651 -24.2179 -4.62948 1.32025 2.28115 2.83961
2041 1 -13.6404 -13.2345 23.4642 1.02396 -1.00701 -1.21624
2042 1 6.15976 -20.9141 22.97 3.8582 3.69293 -3.27991
2043 1 18.9419 13.6446 12.635 -0.891724 1.79976 -0.191457
2044 1 3.22237 -5.40798 3.44726 0.978765 3.6998 -0.30458
2045 1 6.32357 -17.5826 -15.0744 -2.74103 -3.60899 0.378628
2046 1 -7.07187 16.1098 16.9675 -1.11073 1.17526 4.30547
2047 1 -7.03223 -14.6847 7.30486 2.48413 -0.412515 1.43207
2048 1 2.15097 15.0979 -16.5286 4.95031 5.76242 -1.79084
2049 1 18.1356 21.4082 -18.0253 2.27222 -0.811677 -0.235837
2050 1 -11.1942 5.57314 -9.50169 -3.20638 11.8967 0.0602453
2051 1 -21.9967 8.68122 -3.18198 -5.15113 2.47685 -0.0417792
2052 1 -8.48128 3.75648 -20.8186 -2.87165 6.86571 4.51561
2053 1 -23.5145 12.1999 -19.078 2.53529 5.1975 1.17461
2054 1 15.4109 3.77892 0.563678 3.47684 2.8842 3.93647
2055 1 4.77333 13.5836 7.75299 2.52875 -1.4665 0.941265
2056 1 -5.34672 24.3948 23.7205 -0.187852 -3.9781 -4.38526
2057 1 16.7025 -4.55318 8.1227 6.50457 -2.93493 -3.59363
2058 1 21.3723 9.14593 -11.7528 2.26674 0.548037 1.60589
2059 1 3.20409 -9.80029 22.3771 1.79898 -0.378645 2.49919
2060 1 -8.543 -3.88428 -5.45618 1.71975 0.765156 -1.87909
2061 1 -17.7774 -24.4764 23.9055 1.80097 -1.90077 3.03015
2062 1 -16.6851 18.6484 -7.20733 -1.74481 -3.1724 5.67376
2063 1 -10.3633 -12.1031 -18.1307 -1.07157 0.120469 -1.48541
2064 1 -13.6782 -17.2054 11.0548 0.178395 -2.70341 -1.24772
2065 1 13.8298 -18.9006 22.4019 1.67808 -0.0943379 -3.6221
2066 1 19.0072 7.54694 9.65249 2.39552 -3.17679 2.01865
2067 1 23.1172 8.34984 22.0463 -3.02595 -1.37765 -0.466798
2068 1 -15.5383 10.2881 -5.1516 -1.84033 2.39197 -2.19158
2069 1 20.3175 -23.9093 -11.4905 3.54224 1.10283 -2.8953
2070 1 -24.7694 0.136523 -0.42468 -2.57024 -0.489928 2.03106
2071 1 -21.2495 -14.3513 20.7461 2.59346 -2.9837 -5.57847
2072 1 -18.8101 6.84793 20.9042 0.914833 2.22743 2.2205
2073 1 -18.5735 7.50419 -17.3455 -3.65136 -0.0317775 -2.54679
2074 1 3.08275 10.2952 -10.218 -1.91235 1.83394 -0.896338
2075 1 -9.72646 -15.527 22.0405 -0.408182 -1.08041 1.28377
2076 1 -13.4103 24.8615 -8.75719 1.01873 1.65021 9.6262
2077 1 -17.4386 -4.18751 3.53084 -3.5473 -4.42829 -1.76273
2078 1 -13.036 2.22221 -22.2115 -0.239884 -2.12024 -0.577723
2079 1 7.14339 -14.8206 -18.9037 -3.4299 1.0023 -4.01933
2080 1 -23.609 -21.8798 -15.9015 1.64336 -1.77137 2.44228
2081 1 -24.0254 16.9711 -15.5445 0.936031 -2.50677 -5.71353
2082 1 -8.32996 17.2309 2.33117 -0.586683 2.08203 -2.28412
2083 1 19.1574 8.85002 -7.04895 -1.18689 4.92737 -3.03762
2084 1 16.283 18.6113 21.1865 5.91587 3.22244 1.2918
2085 1 -20.2818 -21.7549 -10.6423 -3.51427 -5.42208 2.8426
2086 1 -11.2271 -14.342 7.56233 2.90742 1.87839 2.52328
2087 1 -11.1448 5.5993 -16.5205 -1.95551 2.22832 1.5021
2088 1 9.77578 20.0876 21.2911 1.28377 0.114693 -0.557894
2089 1 9.01437 15.0582 -18.4975 -6.15472 1.94869 -0.300227
2090 1 16.0214 7.54724 18.336 4.25078 3.75903 2.75305
2091 1 -8.70655 6.78696 12.9098 -4.65814 -7.56098 -2.6646
2092 1 -17.7284 22.9104 -22.5952 -0.0318434 0.2151 0.670885
2093 1 -2.24022 12.3213 -3.07578 -0.579439 -2.31886 -3.84029
2094 1 23.6169 12.0443 -2.02326 -2.75465 3.04631 2.05219
2095 1 -20.1885 -9.65995 4.03417 2.94159 -0.760859 1.63099
2096 1 9.18397 -5.08897 0.557588 2.11793 -0.328044 0.0955374
2097 1 -4.31608 5.81069 9.16392 -0.745408 -2.72982 0.662055
2098 1 -15.6929 -16.6929 -8.74337 2.3205 -3.28955 0.913147
2099 1 15.2572 -10.6672 6.5172 -2.50857 -0.839382 0.433361
2100 1 0.163489 -4.21618 22.3114 3.69015 -3.9249 -3.09386
2101 1 -23.4945 -7.48856 19.3101 2.05322 -3.49799 -0.265026
2102 1 6.50162 7.03593 -8.85925 4.98197 3.26284 3.52238
2103 1 10.6349 -17.0472 -14.1699 0.863256 0.85262 -2.36125
2104 1 -19.7353 -4.78811 20.7979 3.96144 -1.65267 -1.60847
2105 1 14.0683 10.5415 -10.8605 -3.26929 -3.24718 -2.90249
2106 1 -19.1008 -16.2388 -21.9441 -1.01713 -3.06238 -2.86688
2107 1 -10.2977 5.37766 -12.3747 0.32405 3.19008 -0.420189
2108 1 -8.53533 11.3524 1.1152 0.344147 -3.25023 3.70574
2109 1 -5.39941 7.05021 20.2964 -0.166265 -3.43345 -0.168765
2110 1 1.63874 9.32024 1.44255 -2.85985 -1.70275 2.84319
2111 1 -24.4193 -8.96175 21.7605 -3.14447 0.11891 4.43721
2112 1 -10.82 3.52023 11.7357 2.97271 -0.756589 2.88339
2113 1 -18.5828 -2.45693 19.3105 0.143049 3.06276 0.128062
2114 1 1.34515 -24.0467 20.594 1.37047 -5.00044 -0.428348
2115 1 18.4142 -16.1999 -10.8563 -1.53249 -3.54454 -2.95192
2116 1 19.5327 -3.76709 4.47395 1.82014 -4.45673 -5.13016
2117 1 22.8768 22.6671 6.41442 3.13664 -0.352734 -1.83575
2118 1 -12.1135 -0.335188 -4.89072 -2.4381 0.91625 -0.240069
2119 1 -11.125 16.2643 1.37137 1.33211 -1.50646 -6.81109
2120 1 15.6532 -17.7831 12.0145 3.10132 -3.09996 2.12175
2121 1 8.70184 -19.4302 22.5363 0.540513 -0.805389 -2.73397
2122 1 11.7158 8.80089 -8.50057 -0.345173 -4.13853 -1.22957
2123 1 21.359 -7.30074 -17.3118 1.15939 1.1383 1.41614
2124 1 20.8293 -1.28411 -18.9506 -0.791797 -2.78854 0.543469
2125 1 -3.88632 -13.8979 13.9689 -2.62379 0.348559 -1.20135
2126 1 10.898 -6.22912 -3.85566 -1.65129 8.65256 2.4207
2127 1 23.8294 -9.55813 -21.6478 4.93193 -0.38195 -3.83238
2128 1 -17.35 -21.9414 -1.9534 -3.79604 -4.81338 -2.07476
2129 1 -13.5628 -21.6466 11.7406 0.237964 2.98357 0.772461
2130 1 -20.1923 8.92565 -5.38947 1.4415 -1.05883 -1.75151
2131 1 18.7931 -8.70762 -0.390642 1.95701 3.72323 0.318186
2132 1 10.7304 -20.7613 24.1311 -3.71545 0.550501 0.926889
2133 1 -13.3752 -12.6843 6.34432 4.11403 -5.90138 0.0711949
2134 1 12.6535 22.2769 7.87146 0.226846 0.769218 2.01972
2135 1 16.8527 10.9489 23.8275 -0.838006 0.378972 0.750439
2136 1 -5.412 -22.3034 5.21364 -2.71203 -1.12958 0.521258
2137 1 17.0884 16.1232 24.2723 -0.862169 -3.01404 2.87221
2138 1 16.5819 22.7159 -15.2839 -2.35357 -2.26311 0.67273
2139 1 -9.45954 3.41571 -15.6131 -0.0670495 -0.868631 1.25774
2140 1 9.61929 -13.8291 16.9216 0.138167 1.83794 0.865164
2141 1 -22.3858 -22.6501 -1.22973 -3.36208 -5.03256 -2.45473
2142 1 -17.1165 -7.58505 17.6412 4.92825 0.437022 2.26827
2143 1 19.2483 3.62184 -15.2738 1.25402 4.6996 -2.13102
2144 1 4.39562 -1.36422 4.79655 2.85352 -1.63934 1.87799
2145 1 19.1406 11.2192 22.107 -1.029 -1.2728 -1.3107
2146 1 2.26682 8.00385 19.4112 4.80508 -5.12694 2.46275
2147 1 4.21648 5.72232 15.7902 -2.99457 1.73136 1.82015
2148 1 11.9028 -21.8112 19.8708 -0.0465735 0.615549 5.80853
2149 1 20.2041 -5.14453 -4.40355 -2.14369 0.388679 -5.76284
2150 1 16.9295 -6.97175 0.708965 0.674071 -1.95619 0.783838
2151 1 7.13235 5.36873 -11.1113 4.05793 1.10347 -2.44916
2152 1 7.83195 21.9768 -4.74606 2.51334 -0.454459 0.0174538
2153 1 -8.62764 -12.01 -0.325446 3.52148 -1.19929 0.453763
2154 1 -10.1521 17.04 -23.56 4.52387 -1.21697 2.44569
2155 1 12.2631 5.74569 23.3041 -3.72865 -0.220253 -0.591488
2156 1 -22.1734 17.5162 -8.54107 2.5843 2.31604 -3.56073
2157 1 -2.94488 16.4134 18.3668 -1.85249 2.17125 -0.143336
2158 1 -16.6365 13.3512 14.3814 5.81415 5.59639 0.0985551
2159 1 3.84875 -20.3125 11.9246 -0.195493 4.88201 -1.35843
2160 1 -19.3665 -1.25655 22.0144 -6.38155 4.62422 1.75169
2161 1 -1.43692 8.41581 -6.11659 0.173673 2.92399 2.98025
2162 1 19.9112 11.1857 -2.91233 1.80977 -0.49086 -2.20377
2163 1 6.81618 -6.91433 14.6361 0.523306 -1.52337 1.55866
2164 1 16.6916 1.43499 -8.45536 -2.01584 0.262116 -1.70813
2165 1 17.6603 19.1636 -13.1627 0.533666 0.812881 -5.0299
2166 1 -15.3489 18.6116 -15.6582 2.42569 1.79962 -0.60335
2167 1 -13.8135 -10.6665 -17.8484 1.98036 -5.2837 4.29478
2168 1 -20.2619 18.0848 3.84394 -2.44063 0.440872 1.27701
2169 1 10.9644 -7.13635 -20.7392 1.54893 5.61572 -1.74158
2170 1 -8.4161 -16.5553 -0.733312 2.0487 -3.28713 -2.20044
2171 1 -4.39124 2.70401 4.32819 0.761779 -1.61787 2.19643
2172 1 1.60699 20.3326 -3.46537 1.8119 1.64935 2.86554
2173 1 20.8396 1.30371 -14.5767 3.4034 -0.0971866 -2.15608
2174 1 4.98946 7.1616 -3.19342 0.979499 1.52104 -1.00077
2175 1 10.4974 -22.2811 11.0753 4.26249 -5.52379 1.26386
2176 1 9.30699 -17.9958 15.0369 -1.89399 -2.61634 -2.1115
2177 1 20.3491 18.0962 21.2342 -0.405729 2.05531 -2.47339
2178 1 19.1762 -17.5988 -8.31383 0.408652 0.996608 -0.346419
2179 1 10.6732 -4.01304 5.74381 -4.58274 -3.4058 2.9386
2180 1 9.93641 -7.48991 -11.8556 1.62395 -0.243495 -1.97784
2181 1 -16.4031 -19.6252 19.431 -0.441929 -1.05045 -1.46549
2182 1 -2.46524 -1.76536 12.3366 -1.02591 -6.08759 -2.27711
2183 1 5.14416 -4.09597 12.6131 -4.22877 4.2589 1.6163
2184 1 16.082 15.0863 -20.7093 -0.755503 -0.754744 -1.36123
2185 1 7.78838 8.60645 19.2903 8.27793 3.66725 -1.6252
2186 1 2.41452 -9.43556 -17.0766 0.294765 5.50163 -1.0976
2187 1 14.6563 -4.86047 10.1173 0.0313398 -2.63234 0.266058
2188 1 -13.6945 4.61154 8.95679 2.90802 -1.18928 -1.79428
2189 1 3.47686 18.2017 -10.4988 0.741896 -0.166262 -0.879109
2190 1 -0.837951 2.77914 -12.5229 5.80864 2.08664 -2.52986
2191 1 14.2965 9.38307 4.61487 -2.99349 1.72482 -3.0332
2192 1 -0.407266 3.9522 23.9913 1.16954 1.045 3.40736
2193 1 17.4461 -14.3614 -15.145 -4.41372 -5.62978 3.40517
2194 1 -20.6027 3.67944 23.6644 2.78268 -6.47663 1.33674
2195 1 -9.96914 -20.3457 -10.0291 6.28341 5.12343 6.13719
2196 1 -4.08266 5.59327 -13.2286 -0.215293 0.769608 -1.40684
2197 1 17.7135 23.2303 21.7332 -5.93605 0.0916124 -0.65218
2198 1 3.19978 10.2826 -4.15145 -2.92266 -2.59919 0.583407
2199 1 -18.489 11.7813 1.08182 -2.62416 2.40087 6.34649
2200 1 -2.35991 -23.4762 2.34236 1.92844 -1.99062 2.54389
2201 1 13.7768 -12.7075 -22.215 5.15808 -1.28283 -1.26149
2202 1 18.532 -19.1246 -20.1486 -0.642838 -1.43355 -1.54308
2203 1 7.6407 -0.868474 -2.91681 -2.38433 4.87037 1.08175
2204 1 4.63847 -0.172164 -1.98393 2.1704 -2.40172 1.20989
2205 1 -22.4189 7.70239 -15.5025 0.714279 0.0685134 1.45216
2206 1 -1.64407 -9.47481 -14.0829 -0.453749 -0.213069 -3.01869
2207 1 -22.0805 -8.97973 -3.07606 -0.117651 -3.22945 1.91992
2208 1 16.7686 19.4603 -4.19229 2.41152 -2.27327 -3.22317
2209 1 -23.5428 23.9057 22.1915 3.03553 -0.285321 -0.666933
2210 1 20.4049 -19.0076 -1.46218 1.40941 1.77108 -5.49063
2211 1 -17.2778 5.40066 -20.7745 5.61112 0.94933 -2.92992
2212 1 -18.6775 -5.22905 -4.73979 3.18637 -1.56073 -2.10807
2213 1 18.3257 8.55843 -3.86746 -0.789435 -2.87678 3.33019
2214 1 12.1528 9.50296 19.8602 -0.608963 -0.479567 5.86221
2215 1 10.2687 17.0795 -1.77919 -7.53391 -0.105079 -1.34475
2216 1 3.54924 -1.67919 -13.8143 3.76861 1.25531 -1.18652
2217 1 11.7383 -13.2166 20.6512 2.13033 -3.49261 0.687755
2218 1 -15.143 -5.07758 21.109 -4.20112 -5.27946 -5.03953
2219 1 -9.78324 -22.8207 15.1139 -1.28794 0.989283 7.45538
2220 1 1.97022 17.7189 -13.2808 1.37049 0.181553 -1.41719
2221 1 17.4361 5.82667 20.3796 3.61682 2.57527 -1.09161
2222 1 2.21266 7.09048 4.22832 -0.671953 -1.123 -3.506
2223 1 -23 14.6192 -22.8153 1.55832 1.83 1.99104
2224 1 -15.7327 14.2121 -4.3614 0.540966 0.685497 1.61004
2225 1 1.48929 -17.8166 -21.3163 1.11029 -2.6733 -0.771129
2226 1 18.9043 0.328614 14.7088 -0.197891 0.867629 2.32695
2227 1 8.94072 1.68093 -2.82477 1.6369 -1.58579 1.62623
2228 1 -6.8319 -8.88802 -24.3541 -1.34682 3.60104 -0.770504
2229 1 17.633 6.48474 15.9222 3.54116 3.0843 2.80186
2230 1 4.55316 21.0833 -3.37669 -1.22146 -1.3083 3.22654
2231 1 -10.2876 20.9608 10.6231 -1.41766 2.68376 -2.78997
2232 1 -21.2525 23.4798 -14.8201 -4.11353 1.6091 -1.26404
2233 1 -13.2855 1.79246 -17.996 1.48247 1.75645 2.70375
2234 1 -4.38752 3.12752 -4.22197 -0.578191 -1.28401 -0.641723
2235 1 7.76391 -23.4228 11.5278 0.167441 3.84015 -1.7891
2236 1 20.8133 3.82087 -17.4354 -2.80384 -3.81561 -4.19975
2237 1 -1.29699 -22.422 -19.8164 1.11434 0.968266 0.792928
2238 1 14.0202 12.2662 -14.9345 0.223532 -1.28712 -1.39693
2239 1 -14.5695 -9.15114 22.7978 6.23634 2.74299 0.502418
2240 1 13.7046 18.7887 18.0668 2.53447 0.0811819 -2.32899
2241 1 -22.5794 -2.26062 -18.5542 0.2071 2.66206 3.79641
2242 1 -9.87833 -15.3253 18.6015 1.48213 3.36514 -7.18314
2243 1 12.9606 23.6389 -10.2754 3.66583 3.6764 -4.26784
2244 1 23.2518 21.1161 -15.3394 -3.5845 1.40551 -0.244515
2245 1 22.4017 -20.2971 9.11343 0.496991 -3.1564 1.0953
2246 1 2.59993 18.7622 -17.6839 2.51232 1.17566 -1.29409
2247 1 -23.9019 -12.661 8.53973 -8.30853 -0.572783 0.160054
2248 1 -2.65855 -6.97778 -13.0869 -1.86753 6.22188 -0.0358764
2249 1 -15.4327 13.2681 -17.2676 2.05679 -1.86993 3.71418
2250 1 2.95887 0.377225 8.01127 0.10976 -5.20045 5.442
2251 1 -11.8435 -7.46681 -12.4854 -1.71611 -3.53261 -2.39221
2252 1 23.6465 -12.8318 0.107034 5.65195 -1.57993 1.52763
2253 1 6.29651 -16.199 -4.52721 -2.59189 -0.445545 3.09274
2254 1 4.38237 16.8768 12.9508 0.720818 4.27265 -1.30718
2255 1 3.0045 -1.09274 -18.1067 1.72134 -4.39027 1.8598
2256 1 15.1281 19.0202 -22.2154 -1.88203 -1.33849 -1.86483
2257 1 -0.533626 2.4093 -7.24874 -1.3934 1.52205 1.27334
2258 1 -9.38539 14.4927 -22.0721 -2.35788 -3.14933 2.02274
2259 1 -21.7228 -8.87733 22.6313 -1.22849 0.145986 -0.831862
2260 1 18.7244 17.7875 -15.5688 -0.738005 5.31615 -3.71753
2261 1 14.9024 -3.12861 -9.95549 -2.76572 -3.63597 1.52748
2262 1 17.3986 -22.6431 -0.672291 -1.43546 -3.0688 -2.94835
2263 1 1.82322 -16.6724 -2.97804 1.67156 -1.07363 -1.61545
2264 1 -3.24251 18.824 3.1173 -3.29016 3.24802 -4.38624
2265 1 -3.10847 1.36113 18.534 -0.757179 -3.00375 1.74939
2266 1 -22.0937 9.01275 13.4323 0.556046 -1.4599 1.31275
2267 1 -11.2009 -15.5474 -0.780982 -3.37227 -1.7248 -0.67773
2268 1 12.544 0.340356 -6.81525 -0.433229 1.62749 0.180337
2269 1 15.9247 9.95648 -19.7656 0.460255 -3.48808 -0.990602
2270 1 -5.78116 19.1291 1.63036 3.31852 5.5462 -0.0128244
2271 1 22.6563 -18.444 -9.00812 -0.734859 0.174361 1.45279
2272 1 0.0340277 12.2206 10.1327 -6.701 -0.728389 -3.16469
2273 1 -23.8964 -17.6916 16.0269 4.63572 0.7424 -2.14887
2274 1 -6.73413 -1.07469 17.8624 -1.31496 1.54835 -4.70046
2275 1 -12.3118 23.9221 -15.4813 2.11658 0.637778 3.10648
2276 1 0.657614 11.9565 2.28499 -1.52949 5.95841 -2.37195
2277 1 -14.503 4.04455 21.9871 0.807984 -2.52014 -4.98691
2278 1 -16.7132 -14.8194 -6.78362 -0.703383 3.06156 -2.91072
2279 1 -11.1666 1.7409 6.51463 -2.12327 2.6795 -0.72895
2280 1 13.0936 -10.236 -3.03794 1.08621 5.4748 -0.945564
2281 1 19.258 14.2419 23.1017 1.32153 1.44067 -2.65937
2282 1 -5.65629 22.4944 6.27505 -2.06707 1.66515 2.99172
2283 1 22.6609 -11.3726 6.61316 0.913626 -0.702993 -1.51064
2284 1 -20.1576 23.6966 -21.7096 -1.58318 -1.57041 2.66861
2285 1 -19.9736 17.3767 1.00451 1.09179 2.39119 4.43086
2286 1 3.57614 -10.1134 3.32397 4.91485 0.397333 3.23968
2287 1 20.5063 17.614 18.1143 1.0981 -0.656833 -0.955984
2288 1 23.6344 -7.36295 -5.75368 -1.7326 2.04101 -4.95218
2289 1 -3.75583 14.6188 -22.4061 -1.87198 -1.50773 3.17442
2290 1 16.322 -7.91465 23.0225 4.18374 -3.56894 2.9686
2291 1 -0.171055 18.5027 19.9236 -0.646793 1.49638 1.68908
2292 1 -13.2794 -10.8944 -2.16139 0.473829 -1.88353 -2.1629
2293 1 2.17263 6.10015 11.0928 0.528877 1.76712 6.38634
2294 1 -19.9414 9.75183 -18.6524 -1.04079 1.30938 4.01167
2295 1 -14.004 10.7337 23.3837 -0.545348 -4.85104 -2.01873
2296 1 -21.7925 -9.0199 -17.8125 -3.44692 1.40997 1.90146
2297 1 10.1238 7.18498 -22.2732 7.25073 3.99253 2.15554
2298 1 -3.3616 -20.9194 -5.37279 -1.84541 -2.00663 -1.21078
2299 1 9.14039 -11.4256 -2.99502 2.71583 -0.710807 -3.4802
2300 1 7.27445 11.4389 0.965908 2.75544 -3.49991 5.683
2301 1 6.60408 -23.6901 21.7214 -1.41232 0.790256 0.0080044
2302 1 15.3933 8.91062 -16.0097 1.51919 0.135421 -2.78253
2303 1 -12.3004 18.3472 -13.1416 1.84077 0.993111 2.95889
2304 1 10.8985 17.2328 8.17634 -4.19077 1.03418 2.04224
2305 1 -15.1934 16.9361 11.3812 -4.09781 0.220054 3.49191
2306 1 6.02911 -5.77153 21.7917 3.78231 -0.299088 -0.832325
2307 1 -14.4504 13.0093 21.6582 5.44763 -0.116623 -5.42659
2308 1 7.2532 3.66838 -17.2607 -1.18468 -5.70686 4.73518
2309 1 22.1835 19.0209 23.284 0.50195 4.84194 -0.05225
2310 1 5.41627 -16.6001 6.60392 1.59207 1.48921 -2.88074
2311 1 6.95773 1.65378 2.70031 -0.50008 1.46793 1.64063
2312 1 -19.8989 -19.3034 9.11629 3.06045 -1.3642 1.64489
2313 1 -8.21984 12.9358 -18.3111 0.638589 -0.12874 1.97501
2314 1 -17.374 6.02064 10.1344 -2.8144 -1.43649 -3.02767
2315 1 -11.0386 14.0959 14.4791 5.24051 -0.0359511 4.90059
2316 1 -18.4033 -11.8731 1.06729 -2.08855 -3.04156 1.09055
2317 1 -5.65202 -11.9028 -9.38953 1.40652 -1.6723 0.0489326
2318 1 21.0086 -7.93529 -4.38168 -6.15145 3.36546 2.77796
2319 1 4.79931 -8.78657 6.66994 -1.2733 -5.35263 2.70184
2320 1 21.6151 2.4594 -20.0474 -0.810655 2.69815 1.30271
2321 1 -2.37697 25.0279 24.1262 2.26019 0.623936 -0.669255
2322 1 -3.68581 20.4401 18.9552 -1.89609 1.32664 3.35758
2323 1 2.98886 -4.21144 -3.63159 0.386494 -3.79113 0.887836
2324 1 7.39846 -18.8857 -17.3506 2.73935 -3.27542 0.963995
2325 1 13.9337 -20.5249 -16.4004 -1.03458 -3.03091 0.444623
2326 1 23.653 -10.8144 -13.412 2.46379 -0.878653 -0.963163
2327 1 12.1073 1.56808 -17.95 -5.50074 0.985158 -0.059197
2328 1 -8.51951 -8.88732 -4.5671 2.63112 2.3508 -2.98319
2329 1 6.72809 6.27934 13.2591 3.21393 5.21189 0.129485
2330 1 11.5877 -23.2396 13.4059 -2.61232 -6.5662 -0.966484
2331 1 -15.2373 -14.9342 11.483 -1.07029 -2.78035 2.94687
2332 1 20.1356 -15.0525 11.3664 2.13339 -2.60742 -0.715161
2333 1 12.7062 -21.2631 -12.6739 0.0721668 -4.10933 4.29085
2334 1 -11.4692 17.2488 15.3136 -2.27654 -1.26098 -0.0164771
2335 1 -2.46044 18.0598 -23.7208 3.88433 3.43598 -1.21856
2336 1 16.2711 -11.5684 -20.5556 -0.129315 -0.340174 -1.13506
2337 1 8.64417 6.11494 2.07415 -3.80101 0.491315 -1.20342
2338 1 0.510864 -0.956171 -21.4826 -3.94166 0.636466 -0.898421
2339 1 6.81414 9.58023 -2.99783 -2.4399 1.99925 3.95986
2340 1 6.30717 10.3548 13.0961 0.125705 -3.28761 -2.54098
2341 1 6.38318 -19.2742 -21.4577 -2.57778 6.42341 1.09166
2342 1 5.85857 -16.3747 1.7117 4.24377 0.377129 0.63721
2343 1 9.96706 22.4443 2.78111 -0.434898 0.456918 1.08844
2344 1 13.8252 24.2953 4.15891 3.82646 -0.983807 -0.874409
2345 1 7.63138 15.4042 -14.3763 -3.54499 -0.585965 -3.41478
2346 1 -4.49376 -19.3165 7.73497 2.63499 -4.62321 -5.11023
2347 1 -14.0564 12.1256 -14.8291 2.6697 1.67694 -3.41239
2348 1 6.56188 -3.16859 4.26783 -1.06963 -1.88915 -0.700497
2349 1 -9.01816 21.5082 15.0289 5.26666 -0.0727307 -4.3256
2350 1 11.5226 6.26428 -11.7417 4.591 1.52967 0.882218
2351 1 17.4301 10.3131 -13.3348 -4.41432 0.763271 -2.25293
2352 1 -2.64474 20.9411 -22.6021 -3.76423 4.43374 -2.64978
2353 1 14.5507 -3.16489 6.61515 -2.47547 2.89759 4.23844
2354 1 21.3343 -17.7336 -23.4184 3.43123 -0.457306 -6.5053
2355 1 -8.10092 -0.116909 0.573845 4.43626 -4.03827 -0.109243
2356 1 14.6645 -24.0413 -9.40174 -0.367288 1.82767 0.695766
2357 1 -2.28112 -1.79301 1.33973 5.66343 2.72233 2.50358
2358 1 2.99014 -9.75241 -11.5304 3.1172 -1.33481 -1.89583
2359 1 7.61954 11.0179 8.62291 -2.14599 -0.293579 1.48697
2360 1 14.7656 16.1106 2.37856 -1.69524 -2.16368 4.12182
2361 1 -22.3944 9.85821 -11.3947 -0.567584 -1.86618 1.18441
2362 1 -20.173 9.93167 11.3585 -3.77331 -2.62366 -1.56233
2363 1 17.7336 -11.1474 -0.51526 -1.26827 2.33034 0.385418
2364 1 2.05589 -2.04173 0.197684 4.7578 1.90777 -5.12851
2365 1 23.4202 -9.52101 -3.56009 1.95153 -0.546972 3.35631
2366 1 11.0543 2.87142 1.84207 -1.9064 6.25629 0.594438
2367 1 6.00737 17.5713 10.5167 -2.30647 0.925044 1.40142
2368 1 -8.14614 -18.2214 -8.76573 -0.873111 -0.50853 -2.78463
2369 1 20.899 5.72224 14.7925 2.05344 -6.68131 -3.74694
2370 1 -20.5197 -11.4011 -6.63206 -0.722845 0.505488 -0.731591
2371 1 18.9416 -20.7715 0.442157 -5.91862 3.31609 3.99481
2372 1 23.2485 4.71639 -1.93807 -0.926183 -2.37544 1.50578
2373 1 11.6982 12.2205 16.3223 -1.08282 -2.35954 -1.47317
2374 1 -5.99912 7.97973 -2.04456 0.812914 -3.25256 -0.0798275
2375 1 10.7127 22.7707 14.1548 -1.69697 2.31063 -0.2631
2376 1 -14.8442 -0.40251 22.86 0.569846 -3.43461 1.00257
2377 1 -5.96138 -9.92752 -4.92019 0.216256 0.833043 1.17445
2378 1 6.40109 -1.06332 19.4551 -1.01133 -2.60542 0.664386
2379 1 -24.3494 13.4184 10.3716 -0.136422 -4.50945 -0.227076
2380 1 8.77433 -12.7411 20.7843 0.0769701 0.964148 -2.83681
2381 1 12.6434 -7.9695 -4.80907 4.22663 -3.66196 -1.46641
2382 1 -14.3716 16.2352 -17.0458 -1.04949 1.97334 1.81701
2383 1 -24.5944 -17.1479 6.13431 -2.94833 -0.292565 -0.133746
2384 1 9.13491 -11.9665 23.6469 -0.527696 -8.05829 -1.1852
2385 1 -0.860664 8.35001 1.64892 -5.81853 -0.596695 -2.44699
2386 1 2.69566 -2.49095 8.43271 -0.141221 6.49313 -3.85424
2387 1 -12.3091 -6.65775 10.7026 2.94908 2.49588 1.30332
2388 1 9.63269 23.0079 21.2997 4.6695 6.00611 -2.79034
2389 1 6.78567 -8.93201 12.3912 -0.647643 3.27977 3.9677
2390 1 -23.4337 -7.78415 -8.26929 0.805207 -2.02986 -5.74617
2391 1 -9.17473 -3.23681 7.96406 3.7272 1.60853 3.35823
2392 1 9.56612 -21.4303 -15.2462 2.51844 -2.13927 -0.672002
2393 1 3.96784 -16.6818 20.4947 -2.74175 6.56843 0.123321
2394 1 17.001 15.7942 -4.26764 4.30824 1.00037 -1.55681
2395 1 4.29566 16.961 20.0231 0.664631 0.0094549 -4.1496
2396 1 -15.4045 -21.1564 -0.00312683 -2.80908 -4.52934 2.62888
2397 1 -13.6547 -7.44149 18.4976 8.1232 2.45194 2.41618
2398 1 -9.72707 -1.41224 14.1713 1.75839 -1.56153 1.5598
2399 1 -12.0272 -9.58969 9.61119 2.35631 3.95387 -0.0573787
2400 1 11.8521 -9.1314 15.6758 -1.60741 -3.97371 -1.98273
2401 1 -17.4914 21.5455 -4.91691 3.16623 -1.74274 2.78345
2402 1 15.9549 12.6087 -18.8628 4.31369 1.17639 1.17674
2403 1 -9.44717 0.290165 23.5517 -0.823165 -0.984646 0.30343
2404 1 -21.5036 -6.84199 -22.2819 -1.02837 1.12541 1.70454
2405 1 -4.22081 -10.4974 -22.0914 -0.250455 1.32536 -0.0479993
2406 1 -24.3758 7.99301 -11.0356 -1.06575 -5.79859 0.297153
2407 1 -13.5958 -12.4402 14.4944 1.39303 2.03227 0.631276
2408 1 -20.5017 -5.23489 -12.7779 0.679223 1.05287 1.17045
2409 1 3.85316 12.2633 15.9175 4.52621 2.26232 -1.18383
2410 1 6.46169 -21.8601 -22.6904 -0.706934 -4.99916 1.92285
2411 1 9.57049 12.1213 -17.667 -0.846706 4.58374 3.77278
2412 1 11.006 19.5674 17.6435 -2.08704 -3.8056 -0.876138
2413 1 -6.78392 19.8761 4.23382 -1.84786 -0.614629 0.271307
2414 1 13.9874 -6.78977 -7.11326 4.77364 -2.59834 1.5877
2415 1 22.395 -24.4746 -23.1649 1.63093 -4.07644 -2.82259
2416 1 7.35878 14.0921 9.40604 -1.31646 2.89362 4.0137
2417 1 -4.89647 -6.71963 0.178493 -0.0217482 -3.51776 -1.10271
2418 1 13.9253 2.89129 -7.06383 1.14363 1.08261 0.0184708
2419 1 22.6839 6.30238 -17.4375 1.99817 -5.95315 2.59742
2420 1 -3.04669 -6.12802 -8.24792 -0.320012 3.46577 -0.860464
2421 1 22.779 16.2593 -7.38266 -5.89002 2.27318 0.604392
2422 1 -16.1152 5.01473 15.1714 3.61547 -0.439809 -3.23889
2423 1 14.4015 21.6483 5.39393 1.38539 1.6263 -4.14823
2424 1 23.1698 16.3346 9.07455 -4.11523 1.67004 -0.308372
2425 1 -15.7734 10.1413 -22.735 -2.20501 2.88918 2.05558
2426 1 -0.27048 15.6128 19.677 -0.667846 -13.1199 2.44742
2427 1 13.7952 4.77109 4.87767 2.10277 -1.16631 -2.07156
2428 1 13.0009 -14.6183 14.1796 0.160783 0.173988 -0.113646
2429 1 -8.40756 -10.1485 -11.9612 -3.03965 1.84435 -5.86188
2430 1 -14.7547 -6.6387 16.0676 -1.01451 0.898503 -2.9553
2431 1 -18.2014 15.8727 -8.80413 2.55692 -1.32161 2.78101
2432 1 19.6072 15.0103 -17.8113 5.62769 -3.90279 -1.25398
2433 1 19.8526 -19.7548 18.0628 3.46918 -1.85806 -4.89737
2434 1 -0.158412 -22.3999 -3.73429 1.46838 0.0882565 -0.802301
2435 1 -13.761 23.1314 10.9479 -0.578976 0.667 -0.908873
2436 1 -7.49698 9.77075 18.8894 -1.10169 -0.619193 3.33861
2437 1 -14.2252 -4.3395 10.9946 0.63334 0.0504456 -4.04234
2438 1 -2.46045 -22.3923 -22.5286 0.956325 -0.669698 1.11383
2439 1 -13.9599 18.6496 9.54945 1.3339 -3.24263 -0.492697
2440 1 6.53192 -3.39846 -16.6626 5.93251 1.40901 -1.64894
2441 1 -22.4418 14.0311 19.8089 -4.25304 -2.9715 2.49958
2442 1 -1.93632 -9.23638 -16.9338 -5.12919 -2.64 -1.95866
2443 1 5.09409 10.316 -20.9676 -0.30396 -2.2449 3.70426
2444 1 13.5326 22.0121 20.3008 -1.59558 -4.39985 1.22393
2445 1 0.433653 2.61949 21.5537 0.0630861 0.704896 3.43817
2446 1 -1.01729 -6.07343 17.1816 0.364379 2.39811 5.72107
2447 1 -0.104151 -13.2671 17.3791 -2.17314 0.406039 -4.08003
2448 1 1.03481 -13.4074 -9.91146 -0.901666 1.59944 -2.56113
2449 1 16.7947 -22.985 13.4295 1.23465 1.45783 -2.83665
2450 1 8.56466 12.7257 22.5482 2.04383 -3.33945 4.49102
2451 1 8.71919 -22.341 4.33459 -2.37256 0.389641 -4.80701
2452 1 13.186 16.7351 -14.5466 -1.22444 6.00074 3.17201
2453 1 -2.33637 8.14182 12.976 4.28706 1.46691 -2.50414
2454 1 -5.3135 8.07337 -17.3099 -2.38049 1.28046 -5.3472
2455 1 10.8713 10.0217 14.5828 1.99342 -1.28502 0.807393
2456 1 21.3259 21.6265 23.825 1.28717 -0.642176 -5.78905
2457 1 -3.48598 2.01134 11.748 0.938288 -0.956218 2.72965
2458 1 -21.5487 22.199 -3.2312 2.90283 -4.66911 -0.438088
2459 1 -20.5086 15.7353 -7.01453 0.191368 0.98836 -2.20941
2460 1 9.13428 11.4359 -14.8654 2.36674 -2.82572 -1.98868
2461 1 -20.1498 17.2773 -4.28094 2.21996 -5.13168 -3.40267
2462 1 -11.6472 23.3422 2.72671 -3.70549 -2.10855 -2.47881
2463 1 -14.6595 -21.5313 23.9222 0.392667 2.42838 -5.49698
2464 1 8.6897 20.6149 -14.967 1.35546 -4.5257 -3.01921
2465 1 -9.65208 -14.442 -11.021 1.40531 -1.53019 -1.17952
2466 1 0.777226 4.17328 -3.06296 2.11278 2.65287 4.42002
2467 1 1.8843 -17.1867 8.93441 3.03243 0.595222 0.0293993
2468 1 -19.4299 -22.5983 -5.79496 0.688153 -2.30789 -0.362816
2469 1 14.7169 -23.4441 23.4949 -1.75952 -0.979697 1.11653
2470 1 14.3765 -19.9085 -8.70749 -0.436469 -1.93394 0.194356
2471 1 -3.26724 23.6612 -21.952 0.372179 -1.19315 1.47469
2472 1 -19.7335 0.0702138 13.7652 7.61007 -5.14123 -0.301814
2473 1 13.3536 9.82356 -6.23092 -1.60649 8.05234 -4.45949
2474 1 -4.33038 -10.7651 -17.4192 1.19606 1.71721 0.88426
2475 1 -15.6723 11.4168 9.30796 -2.26667 -1.97296 0.54557
2476 1 -8.03166 -20.6233 -19.5255 -2.13336 2.45008 5.41594
2477 1 12.5608 10.0467 0.503824 -2.93286 3.4091 -1.49315
2478 1 -4.32565 -22.7421 -3.15282 -1.54765 -0.479645 -0.818618
2479 1 -21.4724 -4.23239 3.18941 4.32128 -3.30901 -0.446237
2480 1 -1.28756 22.5665 -9.07294 3.09763 0.485256 -0.448471
2481 1 -15.4992 -8.55795 -9.01336 0.166959 -1.26128 -1.23991
2482 1 6.64703 -4.96052 -0.917107 2.19767 0.305578 -0.616511
2483 1 0.404369 8.98456 -11.3483 -3.63938 -2.91927 -2.12256
2484 1 0.612441 -13.8601 -7.08091 -0.618403 -1.702 -3.11479
2485 1 -1.77957 -19.5388 4.59596 7.37236 -0.296174 2.19526
2486 1 -1.8091 -18.5319 7.66331 4.09252 5.43589 -1.34052
2487 1 4.55834 18.7939 0.0672529 2.71617 0.494359 2.36902
2488 1 -7.56269 19.2825 19.418 -1.0965 0.21803 -1.99073
2489 1 4.78438 21.6169 -9.74241 -0.378964 1.19681 1.38205
2490 1 -12.7359 22.4589 17.6827 -3.21957 -3.0177 -1.1543
2491 1 11.0519 -21.0628 -2.71392 -3.94569 -0.727951 1.5904
2492 1 23.2428 14.1081 2.78003 -6.85796 0.306192 -4.4115
2493 1 20.1028 22.9645 -19.6916 2.19531 -3.42536 2.0333
2494 1 -15.1197 -14.1158 -22.6925 0.733362 0.711322 -1.50035
2495 1 16.3973 -14.1297 -10.4494 0.615797 4.51839 -4.6167
2496 1 3.80037 3.50753 -22.0616 -2.5929 0.934155 -0.708293
2497 1 5.35832 8.76775 20.9594 -4.78477 0.0232032 5.69561
2498 1 -2.94895 6.13905 2.50359 4.04668 -5.48447 -0.177379
2499 1 23.801 -15.3851 8.43219 1.58293 2.43762 -4.26132
2500 1 10.2296 21.818 6.65454 3.82277 -4.18452 2.09301
2501 1 5.13827 12.7136 4.85044 -1.0157 4.71657 -4.93418
2502 1 -6.66594 -10.8582 8.93476 -4.60393 0.894099 0.373124
2503 1 18.4752 15.3961 -0.439605 -0.803674 -2.37534 1.9748
2504 1 9.69918 13.5825 11.0288 5.80274 -1.30741 -0.160087
2505 1 -10.1511 18.086 22.2387 -2.88336 -1.46416 -0.491943
2506 1 -23.7804 10.7937 -9.03182 -1.92617 1.0725 -2.68697
2507 1 9.2428 -2.44873 -16.7224 -3.21496 1.00453 -0.909587
2508 1 13.0218 22.2181 -5.42761 1.96455 2.06638 2.49081
2509 1 -4.18964 -4.91145 3.22886 0.903477 4.99914 -4.1077
2510 1 -21.7168 1.05408 -1.1446 -0.520238 6.83766 3.21717
2511 1 4.71308 6.28952 19.584 -0.540463 -4.82615 0.61462
2512 1 -9.74058 10.8178 13.8132 1.89727 4.90472 0.916135
2513 1 20.8905 9.25449 8.23088 1.78878 4.07902 2.20269
2514 1 21.8782 10.8267 22.803 -4.24431 0.496073 -0.37444
2515 1 1.9657 -21.5231 3.32116 -4.93931 0.886945 -1.20974
2516 1 3.16958 12.0848 -19.7644 -3.15115 0.923211 -2.83938
2517 1 -11.6106 -13.0234 16.4031 1.65368 0.215004 -3.30495
2518 1 -3.06148 -6.21256 -3.32465 3.39315 -2.83737 -1.61782
2519 1 -23.345 21.0498 15.0483 2.78195 -0.470266 -1.74988
2520 1 -23.8511 1.08072 -8.13712 -1.9837 -2.19857 1.10763
2521 1 7.97661 6.91098 15.8397 2.19561 -2.59948 3.60331
2522 1 -4.63158 9.96483 -0.0521151 -0.648476 -0.0724075 -4.41151
2523 1 -18.1441 -23.9173 -21.694 -2.99088 -0.972033 -2.41024
2524 1 10.274 22.395 -21.3089 -0.967952 1.73717 2.57655
2525 1 -12.6932 -16.0898 -9.11739 -0.574586 3.34217 2.61527
2526 1 -9.23863 -4.59698 -14.4422 1.65104 -3.69332 -0.0174229
2527 1 5.26097 5.26667 8.48341 6.62823 2.26293 -2.61575
2528 1 -8.41625 11.8325 6.28288 2.25952 -2.57812 -2.66432
2529 1 -18.5051 -8.77963 -2.30033 -1.44853 0.90123 1.53094
2530 1 3.46203 -13.3344 -15.7168 -0.562276 -3.25653 -2.53789
2531 1 -18.9423 -9.0215 -17.1562 -1.78811 5.01444 2.15572
2532 1 -14.2937 -17.1194 1.05722 3.14606 -5.04251 1.8269
2533 1 -14.5268 23.7897 -1.97565 1.89927 -6.98148 2.42628
2534 1 -17.324 -12.8603 -2.62326 -2.09996 4.95565 2.65077
2535 1 15.142 -6.60346 15.6651 -2.19669 -1.80369 -0.614357
2536 1 23.3223 -21.0574 23.9181 1.76301 -2.31604 -1.38424
2537 1 -0.111934 -23.7322 13.4887 0.263458 -2.47061 0.20178
2538 1 -7.74658 3.70685 -23.6702 -1.08354 0.203402 -1.73956
2539 1 11.6435 -11.4924 17.3159 0.325056 -0.366744 -6.26238
2540 1 19.2714 -7.38358 16.5125 6.60459 -8.17539 2.40228
2541 1 4.88296 8.14263 14.1809 -0.188814 -4.16951 -2.06269
2542 1 -11.1955 -6.99854 -21.1963 1.55676 0.18084 -4.86688
2543 1 -18.3478 -7.51845 -6.38441 1.00835 -7.80901 1.63757
2544 1 13.8985 2.46917 6.43048 -3.54209 -4.44938 -4.23066
2545 1 -11.9294 10.8292 -20.703 -5.88576 -5.45885 -1.38695
2546 1 -14.9697 4.15979 12.8802 -0.540392 -3.49142 3.13843
2547 1 -12.9733 -2.00413 6.05507 0.183165 3.59435 1.3272
2548 1 17.5049 -6.53429 -7.80735 -2.43395 4.01174 2.1571
2549 1 7.27832 13.2615 -16.4416 1.9803 4.54218 -1.50767
2550 1 -23.4661 -18.2114 -18.0204 -7.11675 0.811963 0.854744
2551 1 -6.22234 10.5389 -16.3807 3.14178 5.1165 -1.51853
2552 1 -1.40267 -14.2269 8.2834 4.38328 -2.01901 -1.16617
2553 1 0.604743 22.7037 15.6431 -2.83576 0.405541 -4.12953
2554 1 17.9638 24.4777 -8.13438 -1.3409 -3.03264 2.22734
2555 1 3.89032 13.2661 -7.66778 0.511833 1.19854 2.78914
2556 1 -9.40753 -10.6096 9.53112 -1.3167 1.88517 -2.10504
2557 1 15.6554 -21.7 -12.6598 -1.11694 -1.12347 -1.23612
2558 1 -20.1302 8.93495 -21.673 4.684 -0.629505 0.180281
2559 1 -18.3702 7.02303 5.27984 4.22433 -0.270218 2.46759
2560 1 22.0176 -23.0925 10.0819 0.825163 -2.75479 -0.155543
2561 1 -10.7252 -1.99544 11.2659 -1.66679 0.901288 -2.51786
2562 1 -21.6421 -5.56204 -9.02253 1.5747 -0.459624 1.85909
2563 1 20.481 -3.07572 -22.7863 -0.86957 2.10295 5.175
2564 1 -11.962 -16.4493 -12.007 -0.490528 -2.18121 -2.64566
2565 1 12.7159 19.5027 14.1644 0.575953 -1.36714 -3.60953
2566 1 22.7686 -7.62246 14.7311 -1.3285 1.99842 0.00865325
2567 1 -12.2274 -0.921459 -18.2885 4.61256 0.203272 -0.469053
2568 1 20.2426 -11.4762 -19.2099 -1.44888 1.3289 -1.20581
2569 1 -24.0849 -18.2799 -11.4171 -4.04042 -2.24978 0.569658
2570 1 -21.4367 16.0963 -16.6957 5.10673 -0.645965 -2.40336
2571 1 12.0179 0.664448 21.3836 -3.83783 2.43252 2.19257
2572 1 -23.0907 -19.3653 -4.62779 4.40717 6.56691 -3.34048
2573 1 18.7005 -23.7547 -3.25594 -1.07639 0.3244 7.26184
2574 1 -17.3388 -23.6748 -7.57147 2.51127 4.7845 -5.88279
2575 1 3.85037 16.9988 2.61117 5.59055 1.95046 0.137845
2576 1 23.2495 18.7466 15.726 -0.384767 2.85026 1.82042
2577 1 14.9972 20.7742 -2.26217 -0.700028 -1.99542 -1.92925
2578 1 -20.1239 -16.0879 -2.82499 1.16716 0.714324 -1.00693
2579 1 -9.84236 9.69274 2.75301 1.1852 5.95006 -1.77189
2580 1 23.6332 10.5073 -21.1351 -3.54785 -2.706 -2.26345
2581 1 -6.97988 15.8151 21.4879 4.32875 1.70752 -0.387044
2582 1 13.633 24.667 9.0528 -1.62267 -0.337509 -2.88681
2583 1 5.83666 18.5591 -2.49666 1.65082 -0.796251 3.25047
2584 1 -10.714 -22.9852 -11.1748 -2.22853 1.40832 1.03642
2585 1 15.7642 -14.178 19.9168 -1.92426 2.11784 -0.13914
2586 1 -14.5332 14.4941 12.787 2.02061 1.85286 -0.531932
2587 1 17.6021 -17.4451 7.91056 4.91392 -1.83565 0.99059
2588 1 16.4523 -0.188209 -16.7536 0.815853 -0.357199 1.58128
2589 1 -0.743081 -7.75395 7.71072 -0.353076 2.99142 -0.272294
2590 1 14.2464 2.91587 -9.91066 -3.62227 -2.70124 -5.4626
2591 1 -3.0198 -20.7138 13.5318 -3.02736 -0.698143 -4.67016
2592 1 -0.810888 -18.0444 10.4209 0.234628 -8.01926 -2.80385
2593 1 -24.1211 -5.82232 -22.2194 -0.280715 1.62863 1.16487
2594 1 22.0729 -5.88281 17.1695 -4.59403 -2.01975 -2.96029
2595 1 -2.74188 -19.0981 -21.2327 -1.67167 -3.82829 -3.67406
2596 1 -14.8862 10.0512 -20.0781 1.2489 3.92761 -0.771443
2597 1 -19.0596 -2.61221 -17.5584 -2.22888 1.46504 -0.493118
2598 1 20.1071 -0.475274 -3.45651 2.13636 -1.89673 -4.3135
2599 1 -6.99079 2.68223 6.6915 4.28492 -1.06052 0.47846
2600 1 4.65103 22.7522 0.507292 1.03422 1.52077 1.25014
2601 1 -0.589564 7.28468 4.44242 0.173783 0.915161 3.64137
2602 1 -6.07214 -12.2814 -1.52159 -0.179165 -1.61983 2.72792
2603 1 -24.0307 18.7632 -6.93388 2.15844 1.87365 3.79841
2604 1 14.204 -12.3865 -0.923978 -1.34187 0.464509 0.259396
2605 1 -17.5368 8.07494 -5.01535 -0.594094 0.617988 4.43765
2606 1 18.1182 16.9997 19.7735 1.14957 1.65281 -0.434686
2607 1 11.1367 2.52015 -22.7754 1.7843 0.694955 -0.473126
2608 1 12.9513 -19.1737 -23.3967 -3.17812 -1.37865 4.29869
2609 1 -12.7923 -4.60232 -18.2863 -8.18556 -0.525555 2.83313
2610 1 0.321833 5.641 -15.6922 1.94545 0.498552 2.06861
2611 1 -21.2904 24.5803 -19.3225 -1.91264 -2.7666 -3.14268
2612 1 -16.957 -21.8329 17.6789 1.26264 -2.66632 -3.61841
2613 1 -23.1848 4.98406 15.6282 -4.86934 -1.56187 -0.315562
2614 1 -13.231 12.2242 -18.6652 2.36131 4.74527 8.04728
2615 1 -3.94295 2.26944 15.9785 -3.10416 -0.147422 0.602357
2616 1 -24.3386 -2.57632 -10.3442 3.33729 -3.18819 -0.316797
2617 1 -4.59814 12.1469 -17.9163 -0.635167 5.09944 -1.08963
2618 1 -8.1323 -18.6422 -11.8587 -0.389538 1.80486 -5.63985
2619 1 0.924245 8.45527 -20.6302 1.72007 1.53507 -1.47249
2620 1 -9.18808 14.54 5.64519 -0.186583 -1.769 1.41525
2621 1 4.56541 -21.7901 6.45048 6.44216 3.13299 1.60272
2622 1 -2.41118 -18.1907 20.7981 -0.269369 -2.05058 0.178534
2623 1 -20.7962 19.6278 -23.0264 -2.61515 -2.15082 2.65096
2624 1 -19.5612 18.8066 -6.64782 0.512577 -1.44992 -4.67348
2625 1 -7.02823 -5.22744 22.109 7.45213 -0.806475 1.49398
2626 1 -4.79214 2.37203 20.7777 -0.393246 1.91841 -0.726806
2627 1 16.2654 24.6764 8.27644 5.3918 1.44883 4.24472
2628 1 13.4132 -8.15656 -22.166 -0.58407 0.24904 1.72789
2629 1 -22.2303 -1.75797 7.32781 2.20888 2.68496 3.88088
2630 1 -11.3349 -9.07831 18.2399 2.00834 -3.34538 3.03423
2631 1 19.2717 16.3381 2.31403 0.342184 -0.35866 -5.11743
2632 1 18.1883 -2.34422 -17.808 -4.36553 -3.92536 -1.79303
2633 1 -4.42478 -16.2067 -13.4877 0.523717 1.10552 0.335873
2634 1 -6.72383 12.8629 -23.9702 -0.983061 2.58702 -2.9192
2635 1 -1.29035 8.51688 22.7866 0.869962 -1.5821 2.54028
2636 1 -14.1323 -19.2162 15.7279 2.04942 -3.76832 -3.45671
2637 1 10.1718 -14.6976 -15.6825 -0.056973 -1.03441 -3.8705
2638 1 12.4283 4.88848 -5.80548 5.5422 -6.94169 -2.67902
2639 1 -1.29219 -9.85263 20.1266 4.27388 2.85968 0.436963
2640 1 3.35636 14.9839 -19.2331 2.09788 -2.22103 3.3693
2641 1 23.426 8.0527 -13.8418 -3.84376 0.934922 1.59695
2642 1 -5.67486 -19.4373 4.962 2.96826 -2.61884 -0.104939
2643 1 -3.56061 -14.7358 -24.2298 7.54868 -3.8891 -0.00155137
2644 1 22.1273 -23.3585 -14.9751 4.77806 -2.4297 4.2567
2645 1 5.38894 -22.0968 15.1172 2.24737 -2.64209 0.446352
2646 1 -3.90568 10.0514 -2.94477 -0.208816 -6.2113 -2.91507
2647 1 -13.4099 6.91026 2.5463 -1.73647 -0.173802 -1.52499
2648 1 18.1767 1.33066 3.45024 3.86125 1.2832 0.774629
2649 1 -18.2937 18.482 -9.85567 -1.66916 -2.65428 4.45819
2650 1 -4.90203 8.84701 14.1501 0.739034 2.17312 -0.0314099
2651 1 -17.2528 -18.816 16.6071 -0.618042 -0.281223 0.467028
2652 1 -20.3036 -5.80239 -15.3999 -1.41819 1.12877 -1.48619
2653 1 -8.3358 9.10151 -3.04343 3.29919 -1.32245 -0.0389524
2654 1 20.7214 -9.14818 2.04299 3.16264 4.80904 -0.0945561
2655 1 -7.57914 -10.2356 1.46226 0.630299 -1.0508 4.59818
2656 1 -6.23728 8.24519 -21.0169 2.65941 1.34646 -1.17805
2657 1 -10.0124 -6.35369 6.2051 3.18223 -0.830299 -2.92741
2658 1 -6.58654 1.41769 16.2898 -2.80735 -4.36021 3.15047
2659 1 16.1971 -5.43867 -22.7366 0.490505 1.66834 0.460727
2660 1 -11.3559 23.0555 12.2292 1.90921 -3.15486 -0.323099
2661 1 5.77905 7.20486 23.3741 -0.757468 -3.22524 -0.538446
2662 1 -21.8733 -21.1297 8.69122 -2.34771 -2.61057 -2.07033
2663 1 -10.0166 9.77156 21.7458 0.47215 0.365647 2.79965
2664 1 -15.4523 17.4941 22.6476 4.0632 0.0632247 -3.75835
2665 1 -21.3351 2.43742 1.25966 2.92839 2.7279 -2.45168
2666 1 19.7352 -21.8517 3.00028 3.03449 0.0382919 4.24908
2667 1 -11.0451 -4.98085 -6.33991 0.0197345 -1.20102 -4.97526
2668 1 -8.07481 -18.2842 -22.2218 -2.11206 0.262997 -2.44088
2669 1 2.16023 -7.78559 18.2573 2.99432 0.846698 1.43264
2670 1 -23.9969 23.7918 -15.5096 0.239759 -0.265325 3.17881
2671 1 12.4638 19.8556 21.4708 -2.39744 -1.68995 -1.51947
2672 1 5.80468 -5.19824 9.3436 -4.01088 -2.25838 0.623236
2673 1 -14.0736 -23.4923 -1.09444 0.472421 -0.950863 1.60529
2674 1 -8.60678 -22.1614 -0.385847 -3.87506 3.27891 -1.25031
2675 1 16.6422 4.51101 -9.29941 -2.13096 0.868037 -1.5449
2676 1 21.9542 22.7182 -17.6219 -2.40455 -2.00278 -2.59356
2677 1 -0.539197 -22.1007 0.645072 -2.06954 -4.11294 1.65973
2678 1 3.87479 -19.2197 -15.1388 2.53919 -2.1427 1.42604
2679 1 7.91444 -1.2434 2.87677 -1.99852 -1.86536 2.58641
2680 1 10.5979 -4.52146 -7.75887 2.67479 -1.28945 -5.29537
2681 1 -14.4823 -7.5651 -18.2028 0.124913 1.49662 1.36043
2682 1 -21.8105 1.6193 13.5986 0.58264 3.50147 -2.10565
2683 1 -17.1933 4.87286 -18.0789 3.52322 0.039492 -4.60647
2684 1 -22.9481 -10.504 4.66306 3.37776 1.73601 0.0745737
2685 1 -2.65527 -8.80838 4.07479 3.28845 -1.12111 -0.781441
2686 1 5.63239 -23.332 -17.4207 2.74568 2.71047 -0.165615
2687 1 18.9222 -16.7051 -13.9387 2.1536 6.49493 4.00072
2688 1 -16.4248 -2.90815 0.0390529 -3.91152 4.12101 0.756405
2689 1 -5.83699 -1.42976 -9.8051 -1.71747 0.704782 1.28282
2690 1 -14.2637 -13.5403 -18.6372 -4.68019 3.23425 2.01593
2691 1 -20.1681 -21.9819 19.951 0.0368578 -4.70897 1.82622
2692 1 3.47148 -0.0312616 -10.5025 0.986276 -1.98366 4.84612
2693 1 8.82433 19.2024 -18.6946 -1.43125 2.4996 -3.76866
2694 1 -5.75402 -11.588 20.5913 2.70633 2.15592 -5.3744
2695 1 15.1586 8.30358 13.4488 -0.425088 0.900185 0.490296
2696 1 21.7014 -19.3041 22.2464 -2.39063 1.48121 -2.38439
2697 1 5.64863 -0.452891 -4.98685 0.217032 1.91106 1.07347
2698 1 16.0438 -13.2722 22.4284 1.08751 0.1921 -4.23132
2699 1 -17.5324 14.6159 -1.821 -6.62981 1.59463 -2.20462
2700 1 -9.0315 -19.5403 2.77432 -2.36627 1.7629 -2.31815
2701 1 -20.235 24.3894 0.0238948 2.20538 -1.43095 -1.54063
2702 1 -7.49598 17.7086 -18.6662 1.58395 1.16092 1.37138
2703 1 12.3655 -5.86421 -11.1988 1.58034 -1.10229 -7.67854
2704 1 2.35252 -23.2894 0.934569 0.331656 3.37692 6.89168
2705 1 -3.87004 -2.15261 3.7734 3.92611 2.34347 -1.5356
2706 1 1.99224 -23.7098 -23.8291 0.335796 -0.198252 -0.494182
2707 1 -10.4913 -13.4711 0.953797 -0.700419 0.525908 3.93742
2708 1 -12.9918 1.95485 23.0605 0.63671 2.40477 2.19859
2709 1 20.5029 -2.69871 21.6373 -4.19983 -1.19889 1.46752
2710 1 -4.67253 14.7994 16.1977 3.98221 2.13953 3.64749
2711 1 -14.1765 -6.25743 23.7942 -1.71101 -0.809768 -3.82353
2712 1 18.3472 14.092 3.96323 -0.643281 -1.07819 3.15324
2713 1 21.9262 3.57324 -7.03641 -0.0029645 0.545436 0.98547
2714 1 -19.379 3.82137 -11.703 0.613207 -4.23389 1.35398
2715 1 -11.4677 11.454 19.7049 3.32636 -0.447944 1.89315
2716 1 17.6989 11.0888 3.27789 0.197156 0.856952 -1.47698
2717 1 11.9123 20.8064 10.1165 3.08512 2.60141 -2.85942
2718 1 9.7857 -14.8597 -24.3832 4.88994 4.46041 -2.57281
2719 1 22.7288 -9.85137 4.10115 0.625575 7.81975 1.94171
2720 1 -13.2721 -9.01219 -20.3155 -1.72968 -3.06801 2.96203
2721 1 2.4255 -11.0383 12.8479 5.98143 3.19968 2.09191
2722 1 -10.8409 19.801 -6.649 3.02954 2.18472 0.782822
2723 1 -5.12324 16.438 12.9701 -2.3429 1.04417 -3.09
2724 1 -3.78577 5.28252 5.20316 -0.924248 6.23844 -4.93835
2725 1 -1.48224 7.44616 -17.453 -0.109481 4.2941 -1.23152
2726 1 -9.5521 -8.19989 -23.39 -2.43292 -3.69346 1.63475
2727 1 -13.8817 -19.2805 -1.77453 1.94411 -2.16065 0.720642
2728 1 21.0896 -3.20747 11.9614 4.74821 4.22615 -4.19866
2729 1 -4.14977 -22.8902 -18.9427 -0.0719889 -1.21252 -0.0893525
2730 1 -8.13438 -14.493 10.0421 -2.87957 -2.07582 -1.59183
2731 1 -23.1189 23.5182 -7.99299 1.41258 4.19617 1.5673
2732 1 1.74687 2.65861 4.72481 0.950656 2.04297 -1.32926
2733 1 -8.64264 9.12029 -19.4632 3.29882 -2.13125 -4.87661
2734 1 17.7862 -9.27451 21.0004 -3.26946 0.100327 -2.52805
2735 1 -3.52292 7.83081 -14.9647 1.88653 1.91331 -2.61914
2736 1 16.2544 13.5907 22.9564 -1.59059 7.45161 -3.72245
2737 1 -21.212 -18.4098 -0.245637 -1.08526 3.02275 -1.92239
2738 1 -7.2837 9.17411 12.722 -1.40757 0.123433 -4.4507
2739 1 -10.2031 -8.54824 20.7381 2.80889 -1.48987 5.3811
2740 1 -12.7662 -13.5967 -20.8558 -3.52357 3.37491 1.07928
2741 1 -8.00165 7.1501 2.32426 7.96475 5.27524 -2.65569
2742 1 -15.3 14.7222 5.29154 3.11642 -2.17541 -7.52281
2743 1 0.705599 -20.4303 -7.31188 2.52633 -3.26453 -0.403982
2744 1 -16.4656 -19.8771 -20.566 -1.93172 3.06738 -0.630636
2745 1 -11.6021 20.3675 2.56627 -2.62367 -2.75308 2.22503
2746 1 6.0277 -12.1818 -3.16928 1.84454 -0.0390775 -3.83406
2747 1 -1.19217 2.63714 15.0978 0.805013 1.66816 -7.11338
2748 1 -4.23344 -0.702038 -12.0126 3.28799 -0.627774 5.42216
2749 1 -11.9066 -8.01556 23.0704 -3.65461 -2.68486 -2.13027
2750 1 -14.394 21.4247 -19.0302 -1.87218 0.812787 7.34156
2751 1 8.81708 -22.9507 6.98098 -1.26567 -2.63238 1.92295
2752 1 -8.91935 20.4119 -8.99438 -0.650566 -0.76945 -1.65358
2753 1 -2.15258 -7.94864 10.5566 1.45284 3.44959 -3.68375
2754 1 -12.2014 23.5446 -0.0475486 0.362959 -1.34649 -6.35151
2755 1 1.77599 -11.5061 15.8641 2.02153 -0.233336 -5.09537
2756 1 23.0025 11.6777 20.2075 -0.387435 2.92168 5.5352
2757 1 16.0775 -19.1487 19.4125 -2.31207 -0.601103 -1.75303
2758 1 -21.6394 -15.7503 -7.93368 3.05265 0.856401 2.29298
2759 1 -17.3906 -16.4609 8.27225 -0.586662 1.4728 2.89027
2760 1 0.261859 12.914 -17.182 1.2504 5.96449 3.16542
2761 1 -7.07059 -15.5904 16.0583 0.528683 4.57686 -1.47012
2762 1 -10.5977 8.99641 8.97025 -2.42824 2.1146 2.79091
2763 1 -6.0346 -11.7308 17.9069 0.00524014 -2.29968 -4.83402
2764 1 6.23771 22.1938 -12.4055 0.822464 -1.93026 4.15478
2765 1 8.69456 -16.9161 -19.0365 -1.69833 -0.105691 -1.78743
2766 1 8.74086 9.60985 16.5903 -3.0983 -0.733884 1.47089
2767 1 -13.1801 -19.3005 -21.7317 -0.65063 -1.571 -1.72928
2768 1 -4.41857 22.7309 -1.08017 0.671949 -0.881039 1.66323
2769 1 -16.4206 16.1721 15.5874 3.92021 1.40469 2.0694
2770 1 23.7325 8.88501 3.64462 -1.62239 0.730772 3.28469
2771 1 -20.5786 -15.5631 -19.3712 -5.09722 -1.82381 1.08286
2772 1 -14.439 18.1669 -19.2503 2.21772 4.03747 -2.96093
2773 1 9.17161 23.9633 4.95698 3.24766 -2.00758 -0.0388401
2774 1 21.9505 1.00766 -17.3076 -2.31117 -1.98197 1.33092
2775 1 -2.12729 -18.0742 14.5562 3.44587 -4.66921 2.55919
2776 1 9.04512 7.59878 -7.91458 0.324312 0.661688 -2.46682
2777 1 -13.1675 15.9219 3.32004 -5.09171 -1.11426 2.34751
2778 1 -22.2589 16.9844 20.0884 0.786932 -3.40002 0.908191
2779 1 20.9595 14.6907 17.6981 -2.16968 -0.465352 -1.25062
2780 1 -13.998 0.386972 -7.12532 3.7175 0.688514 0.351402
2781 1 13.517 24.4913 12.0119 0.748892 2.06607 -1.21791
2782 1 8.18135 -10.4917 14.5609 -4.15613 -0.0635481 3.00582
2783 1 8.94361 -6.92468 -14.4037 0.508759 -1.23785 -0.0848402
2784 1 -11.9574 2.10703 -0.485526 -2.82121 -0.701399 -2.96086
2785 1 21.5904 -4.30409 -12.9749 1.5824 1.83969 1.12298
2786 1 5.76397 -4.47815 2.12766 3.70348 -0.86726 0.0723487
2787 1 -15.2232 14.2088 -0.283541 0.887939 -2.76041 -1.09967
2788 1 -20.6684 15.3367 12.723 1.63415 -0.49974 -0.095716
2789 1 8.54773 -5.83448 -5.33448 8.26366 -2.65406 0.189622
2790 1 -7.50737 -6.49314 -15.8023 -0.073603 -1.89235 -3.17862
2791 1 19.9895 15.2794 -7.028 -3.29965 -0.546116 -5.01991
2792 1 -6.56638 -4.57589 1.39431 1.62149 1.41435 2.64793
2793 1 -1.69964 0.480011 7.68162 -2.01672 -3.32813 0.729501
2794 1 8.13982 18.8073 -9.75343 -0.908197 -1.28004 0.959827
2795 1 20.8684 12.9438 -19.6397 2.60535 -0.295716 -1.46365
2796 1 18.6982 -14.077 13.5078 1.54931 -0.10392 -1.00636
2797 1 18.2431 -11.1634 -22.889 0.113116 3.33449 1.39675
2798 1 -21.8095 -1.62232 -4.04953 1.62516 0.0654509 3.68248
2799 1 -0.838374 -16.5153 -7.10623 -4.34839 -2.49977 0.590688
2800 1 -14.399 -16.1595 -17.2939 -3.29295 3.43394 2.77037
2801 1 2.29256 17.3806 6.24034 0.606727 0.163645 4.53603
2802 1 7.41526 11.4448 -10.6381 -0.0541596 2.86951 4.04267
2803 1 -24.4755 -5.40697 -13.7878 -2.68047 2.01878 2.88417
2804 1 -18.4851 14.331 -11.111 0.475219 -0.871301 -1.34831
2805 1 -16.4929 4.21406 -10.8504 -0.00424109 0.286132 -3.14607
2806 1 -4.0882 18.4365 -15.632 -2.24918 1.09106 2.758
2807 1 -20.8581 18.5228 -1.45684 -0.55199 -0.695335 -4.45403
2808 1 5.16052 -23.6377 -11.0216 -0.404608 -3.4836 0.114997
2809 1 -11.9769 17.7632 17.9794 4.29729 2.27918 1.05344
2810 1 6.35361 24.0636 -15.3558 1.10506 6.16577 -2.39528
2811 1 -13.9277 12.9906 3.13349 -5.54748 0.887867 3.58594
2812 1 -8.37631 -1.74839 21.6004 -0.141506 -1.34906 0.918686
2813 1 0.0345087 -11.3649 -17.2663 -6.96849 -1.39716 0.344887
2814 1 21.8426 -5.0926 -6.67077 3.02702 -1.98739 5.25625
2815 1 22.2901 11.8714 6.9849 6.04761 -0.379964 2.28295
2816 1 2.59545 -14.7025 17.6079 -0.395067 -4.16143 -0.156864
2817 1 5.11557 -17.3172 -23.1803 5.40275 -3.62147 -2.20158
2818 1 0.422528 -2.41055 2.64412 -6.82411 0.00816373 5.18693
2819 1 17.8067 13.6044 15.4503 -1.55278 -4.38464 -5.27772
2820 1 -15.0122 21.336 9.18471 3.80624 -6.34286 2.02325
2821 1 20.0091 -12.6133 -12.6634 0.288604 -5.32136 -0.728063
2822 1 -15.3872 -3.35747 5.33467 -4.01772 0.389303 3.66041
2823 1 13.8352 -14.4201 4.88965 -1.04833 2.40776 3.14492
2824 1 7.86305 14.4378 15.7883 -6.09211 5.95341 -0.842211
2825 1 13.8047 17.9461 -9.05692 4.16777 0.857489 1.41354
2826 1 6.65976 -17.879 -2.22559 -1.75777 -1.38792 -0.152074
2827 1 8.23377 -9.19981 24.0847 0.246816 -0.228396 -2.0475
2828 1 4.36909 -5.76435 -19.0675 2.24832 4.94411 -3.4866
2829 1 18.1464 -21.7633 9.12994 0.172516 3.13884 4.1303
2830 1 -21.7248 7.03847 0.306791 -2.25014 1.11863 0.0329805
2831 1 19.0802 4.65638 -12.3802 -4.75801 -3.56614 0.32563
2832 1 -23.523 -20.1533 -7.65555 4.84686 -6.22282 -3.63585
2833 1 -24.0571 0.449598 6.33865 -1.4733 3.33621 -2.76218
2834 1 -9.20416 -17.7765 20.0052 -3.93761 -4.42237 1.89156
2835 1 -5.14982 5.51283 -0.840157 0.59991 -2.03796 -1.62082
2836 1 -13.4475 20.9693 -5.81746 -3.91908 -4.11364 0.0598367
2837 1 -17.1377 9.25035 -9.69142 2.26221 1.90656 -1.33105
2838 1 18.2749 -11.7704 22.6955 -2.63734 -2.55427 -1.08604
2839 1 -16.3081 -2.22971 -22.2839 3.99975 0.877754 6.18096
2840 1 2.79918 -18.3972 -23.7515 2.4351 -1.47621 -0.451727
2841 1 18.1257 -18.0775 -3.5538 1.43793 -0.483211 3.28438
2842 1 -2.60921 -11.8997 -9.48598 1.25987 3.12127 -3.81811
2843 1 13.2194 4.25125 -21.9987 -0.887886 0.850624 -1.98857
2844 1 19.8032 16.5442 7.19538 3.76982 0.955582 -2.01488
2845 1 18.9449 3.67467 -19.5327 -1.84674 -3.29117 -1.07767
2846 1 -23.9861 -0.996136 3.87676 2.231 1.4587 -0.181435
2847 1 6.8082 13.4628 -0.860177 -1.73157 2.30455 -1.65806
2848 1 -15.3763 46.9956 -9.10663 -1.95708 0.157105 -1.17487
2849 1 -22.2032 -19.7719 14.6056 -4.42753 -5.48652 -0.290814
2850 1 0.199256 4.68393 -9.26469 1.45867 1.00247 2.0449
2851 1 -6.14353 23.6689 17.9532 -4.10052 -1.62133 -4.52109
2852 1 2.31175 -4.80486 0.898975 2.69874 -3.84155 -0.596718
2853 1 -2.70407 24.436 21.253 -2.39995 2.81243 2.2132
2854 1 6.12681 -6.92256 -6.31266 -2.05872 0.0565601 1.00139
2855 1 -17.4129 -5.8731 -20.7441 -1.51059 -0.912869 1.15059
2856 1 16.2271 -14.9516 -0.732857 -0.403864 3.59762 2.29043
2857 1 18.0335 10.1822 10.3033 -2.48689 3.39738 -1.57104
2858 1 12.4458 -0.517713 -19.9948 -3.34531 -3.94893 6.02691
2859 1 -24.0015 -23.2448 -18.4242 -1.33836 -2.90384 2.15519
2860 1 -21.8036 7.11464 20.0477 0.724229 1.36691 2.30014
2861 1 13.8803 12.8276 21.3552 -2.23458 0.0125356 -1.08841
2862 1 11.8299 -3.57548 -16.5333 3.35428 -3.67843 4.84169
2863 1 20.9802 -19.0467 -18.9645 0.846793 -5.81622 -0.588562
2864 1 -14.9169 12.27 16.2165 -2.1801 0.29354 0.546395
2865 1 3.10305 11.2331 -0.316833 0.949643 -0.993124 1.36596
2866 1 -17.8977 25.3602 -7.15694 0.0484111 -1.52274 0.744965
2867 1 -16.9851 16.2351 -15.4781 -0.64991 0.624883 -0.0341432
2868 1 3.78286 -23.7396 22.2162 1.85057 -0.776726 2.54173
2869 1 -21.1265 -15.0085 17.9483 4.44952 2.39554 -3.68799
2870 1 -12.3103 16.2776 -11.2609 1.81182 -0.0223102 0.783415
2871 1 -14.6769 20.0644 23.8751 4.79112 -1.34694 1.15917
2872 1 7.99392 7.94531 8.96415 1.98461 -1.96763 1.48011
2873 1 -10.8491 -1.90798 2.57796 -1.48574 1.12162 0.205244
2874 1 0.102999 -9.17345 -11.6452 -1.6434 0.0571746 0.835981
2875 1 21.7425 -3.57699 -9.19512 0.168189 2.06036 -1.9563
2876 1 20.2431 -22.9236 -22.1376 -2.36017 2.83266 -1.03473
2877 1 10.3926 -6.29104 4.25903 -2.98048 -1.72249 1.05277
2878 1 -18.008 21.5751 -13.7741 -0.483057 -0.750627 4.9187
2879 1 1.25513 16.1708 3.65054 -2.62945 -1.62567 -8.14987
2880 1 -1.32525 -0.313962 14.8419 3.78027 -0.477067 -3.82314
2881 1 -16.4528 14.9975 -21.1857 1.61986 -2.13094 0.407639
2882 1 -23.1547 -16.7124 21.1339 -7.04051 2.80857 3.10945
2883 1 12.5568 -14.5115 0.365609 2.33922 3.34775 4.33098
2884 1 10.8757 -4.08503 -23.6382 -5.03797 0.0396521 -5.21117
2885 1 -5.68118 2.76454 -6.86352 0.28389 -2.58202 -2.18088
2886 1 12.3364 24.0642 1.80727 -3.64835 -1.41291 -2.99792
2887 1 -23.5384 18.5985 22.9101 -2.27708 1.92344 -1.81561
2888 1 -11.0726 5.6761 -22.413 2.87754 0.498006 6.59619
2889 1 5.39592 -2.42588 9.8175 -3.80319 1.14494 -0.942842
2890 1 -1.17011 -7.51546 -23.712 0.00414728 0.269066 0.218586
2891 1 6.5364 -4.57051 16.4523 0.979876 3.76418 -4.04044
2892 1 23.0325 18.2124 -11.9738 -2.06418 1.19931 2.08306
2893 1 -12.4209 -15.9244 22.8951 4.85269 0.196899 -0.248037
2894 1 -8.45175 2.71549 14.4367 -1.6863 1.02454 2.34603
2895 1 -18.2061 19.8182 19.9087 -2.03862 -0.494317 -0.19843
2896 1 -13.6397 5.53081 16.8527 -0.0423916 -2.80965 0.523627
2897 1 -2.32016 15.4544 -2.78967 -0.184975 -3.98448 3.95144
2898 1 -7.33522 -9.04399 -19.4856 0.693205 -2.4013 -1.05921
2899 1 -4.61075 -22.511 19.4097 -2.20456 1.16205 2.059
2900 1 15.4705 2.99676 -23.4489 -3.27639 -6.03564 -2.27378
2901 1 -14.4348 -19.1339 -16.4751 1.27333 1.74974 1.75766
2902 1 -21.7602 1.20055 -21.8418 -2.43566 1.58617 3.56671
2903 1 -14.8727 -13.0192 3.8378 1.04585 -2.74729 -0.833535
2904 1 -6.8528 12.3926 -2.49589 -2.49799 3.79121 -0.160435
2905 1 -17.1437 22.5134 20.6792 -3.89491 -2.04729 -0.263394
2906 1 12.6805 2.70133 19.7396 1.36923 2.65687 -0.629137
2907 1 -15.0189 25.5102 -6.70684 0.108526 0.982668 9.86484
2908 1 -0.0537288 9.35369 18.3659 -2.56137 1.35576 1.24834
2909 1 -8.43109 -5.38215 -23.8158 0.697561 -2.29081 -0.763719
2910 1 -13.6903 8.19166 17.54 -4.50995 0.376599 2.44533
2911 1 0.353409 4.41706 -19.2791 0.990696 3.25139 -7.52168
2912 1 10.5828 -16.906 -7.41774 -0.523028 0.773418 3.77001
2913 1 16.3741 4.59724 -3.92493 3.00196 0.570116 2.9554
2914 1 1.14093 -0.473127 13.5229 1.85296 -1.94552 -2.11965
2915 1 -15.4969 -11.356 -24.0968 0.74571 3.07424 1.11139
2916 1 19.6178 23.3637 -10.0342 0.313738 2.01348 0.681514
2917 1 -8.32919 8.39314 5.0854 1.61212 -5.47279 5.73085
2918 1 20.5264 6.96988 -5.23626 5.31987 -5.00031 -5.87142
2919 1 22.8462 -15.8729 -5.27999 -0.0494545 -1.91575 -0.638795
2920 1 -23.5689 12.7932 7.58339 -0.933679 -5.23774 -4.0332
2921 1 -17.6569 21.0407 9.81962 -3.01283 -1.03487 4.1196
2922 1 -16.7137 -20.1001 -23.4431 -2.05812 3.88107 3.5234
2923 1 -15.0614 1.11955 18.642 0.420214 0.74821 0.0667005
2924 1 -1.60378 -16.7044 23.4083 1.16966 0.011814 4.65961
2925 1 19.9116 -7.18322 13.6088 2.67473 -1.1685 -0.890559
2926 1 -7.56212 7.56218 -13.7808 0.592487 -1.18789 6.78688
2927 1 12.0992 6.35535 -0.908617 -4.18092 -0.836959 3.08263
2928 1 -21.5714 46.9666 -8.91632 -2.13423 -1.38501 2.02383
2929 1 4.46156 -11.8159 7.72122 -2.77556 4.80962 6.64354
2930 1 -20.4071 4.43534 -0.531563 -1.12267 0.489546 -0.205025
2931 1 4.50393 -9.09542 -23.5278 -0.0764462 1.41141 -0.853516
2932 1 9.69558 17.9161 19.4397 -1.6459 -0.278275 3.24125
2933 1 22.8506 -4.25298 9.70066 0.168215 -3.413 -5.66808
2934 1 9.00429 2.87711 -20.7943 5.20217 -3.88521 1.3459
2935 1 8.05474 23.3148 0.805316 2.74318 -3.02315 -0.196816
2936 1 22.9078 9.31417 -6.69942 -3.5681 -1.35321 4.90576
2937 1 -16.8541 2.69013 -14.1575 3.80402 0.0956399 2.57423
2938 1 -7.29379 -6.2936 -5.35924 -2.00432 -4.81272 1.14791
2939 1 -10.8978 18.0106 3.98866 3.39249 1.14115 -0.969347
2940 1 17.1832 18.0157 0.0986133 7.02321 0.112534 -2.00884
2941 1 -7.89427 2.74196 -9.76963 0.0930453 -2.92916 6.25486
2942 1 -21.3102 13.3088 22.2737 0.946476 2.09577 -1.22108
2943 1 23.8186 9.11089 7.45065 2.06058 0.69124 -2.48069
2944 1 7.90317 -21.843 13.9944 2.45541 1.49345 -2.2736
2945 1 -7.9715 9.98882 -9.96164 -0.720593 1.03837 2.32851
2946 1 11.1191 -1.11783 12.4073 0.900365 0.544937 2.79747
2947 1 18.2914 -13.6087 -21.8107 0.696207 -2.7628 0.659352
2948 1 -0.619101 -19.6587 -1.19506 2.89035 5.17299 0.752115
2949 1 -10.5457 -20.3361 23.5494 1.82561 -0.589603 2.91291
2950 1 -20.2529 15.808 5.43466 0.874105 1.28191 3.54188
2951 1 11.8095 -16.5591 -10.2112 1.30392 -0.937449 -0.312243
2952 1 -12.984 21.3671 -21.7071 -3.9589 3.96809 0.146276
2953 1 13.4328 4.64655 2.09102 -0.49093 -3.87513 -3.18003
2954 1 -15.5347 -1.80646 8.85139 -5.28685 -2.67376 2.39345
2955 1 8.86998 -10.4738 18.5146 3.57708 -2.01173 2.88221
2956 1 -15.5893 20.297 -1.88043 -5.88099 3.95364 -0.36711
2957 1 0.972512 -17.5708 14.3583 5.71947 -0.12887 -6.64864
2958 1 5.93851 -7.00028 -11.3812 3.98417 -3.48713 2.74594
2959 1 -18.0923 17.1277 -22.165 -0.0527499 2.48544 2.52301
2960 1 -10.8683 -1.05952 -22.7104 -0.407159 5.94928 1.97275
2961 1 -11.3196 -11.0639 -20.6973 4.31359 3.78829 -5.31979
2962 1 -7.27736 -0.552043 -15.7311 0.907004 -0.576138 -0.0628171
2963 1 -23.8681 10.527 -4.36257 -1.16972 0.577464 0.312457
2964 1 -0.162236 -19.9895 -21.1364 5.96287 1.60168 1.04754
2965 1 19.1836 -2.37059 -14.9262 0.990462 -3.16236 0.65814
2966 1 -2.26703 -21.9585 17.8046 -1.28663 1.83611 -3.21728
2967 1 2.03816 10.1405 10.1118 0.917368 -1.20846 5.29165
2968 1 -5.35541 -13.3201 1.16433 -3.68068 -2.56651 -4.40032
2969 1 -3.11193 -3.96403 17.2954 1.88652 0.746525 -0.692256
2970 1 21.9153 -13.4691 -15.1824 -1.9536 -4.63571 0.852779
2971 1 -4.16074 18.3319 10.8635 2.36995 0.387773 0.793557
2972 1 -9.21675 7.90204 -11.3261 -2.85532 -0.637999 -0.182674
2973 1 -11.6718 16.1062 21.0445 -3.45801 3.21133 0.29858
2974 1 22.8254 -1.68461 18.8809 -0.301034 -4.91403 -0.0591848
2975 1 17.9239 11.4413 -0.800401 -0.244299 -1.61724 -3.07835
2976 1 -20.1696 17.07 -13.2705 -0.401243 -0.547771 0.465317
2977 1 3.57489 -8.64859 -2.07385 4.26163 -2.09364 -0.82635
2978 1 13.1327 18.7268 -17.1305 -5.73196 -2.3857 -4.48235
2979 1 5.77194 7.5916 17.4191 1.96281 1.47139 1.68388
2980 1 -2.54105 13.3415 -0.408703 -1.21668 0.120832 -0.0264995
2981 1 -11.6896 9.46572 15.799 0.407263 -0.64059 2.02591
2982 1 -13.5438 -5.66562 6.68893 -2.58401 -4.73514 -0.909965
2983 1 -8.65718 14.6217 23.4815 -1.96701 0.277652 0.785761
2984 1 0.892634 -2.17367 -24.1045 -0.698339 1.30154 2.94088
2985 1 -13.0927 -11.7637 11.6087 0.210872 -3.8285 1.5519
2986 1 -6.3211 17.7534 -21.3594 -1.79519 -0.955089 1.82286
2987 1 -21.6584 -24.4264 -6.26323 -5.41842 -2.76706 -5.34894
2988 1 1.06386 -23.8779 -6.22382 -4.37722 -6.4413 -5.43199
2989 1 20.6418 18.7374 -13.3653 -2.04528 1.29017 0.812628
2990 1 12.6014 -16.751 16.7452 0.540791 -2.17546 7.51956
2991 1 1.20761 1.87492 11.0233 -1.5265 -0.596801 -3.82014
2992 1 22.0163 11.5571 -10.1041 0.0432475 5.31696 0.452211
2993 1 23.3749 17.1702 18.3276 -5.03569 2.79036 -7.29718
2994 1 17.5223 2.99607 12.9232 6.36765 -1.66059 5.10002
2995 1 -3.80826 10.3207 -6.87398 -1.0433 1.8686 -2.99133
2996 1 13.9527 7.25943 6.19132 -6.09815 -0.588742 -2.29735
2997 1 -7.96403 -18.1057 6.19782 -1.96076 -4.31086 -2.14777
2998 1 2.9024 -15.2482 14.47 3.73369 1.75879 -0.41281
2999 1 11.8652 -16.6808 -2.4681 -2.06443 -2.20915 -6.15071
3000 1 -2.483 10.7812 17.3039 1.03461 4.96353 -1.68139
3001 1 9.91937 10.7948 10.3583 2.77232 1.02754 -1.40722
3002 1 -20.773 16.8329 17.5502 -2.78102 3.17878 -7.73896
3003 1 15.8171 12.1045 10.5882 1.56067 -0.826073 -4.51507
3004 1 17.4894 16.6961 -18.4678 -0.0625511 -1.0535 -1.17486
3005 1 3.5494 5.33997 -6.03242 -1.46324 -2.38696 -0.369819
3006 1 18.2657 10.141 -21.9477 2.17256 4.45506 3.4817
3007 1 -7.16264 -21.0553 -22.4148 -3.11432 -4.83849 -0.410072
3008 1 -5.45121 -20.8 23.7411 3.43473 -0.85491 4.60136
3009 1 -13.3268 -19.9238 9.33409 -5.20349 1.41721 0.66538
3010 1 -15.1975 -20.6636 -14.2174 2.01349 -1.97 3.82587
3011 1 -8.55644 -1.63722 -11.2572 -0.707582 -0.0018102 0.87202
3012 1 1.11153 -21.7795 -18.4087 -0.583819 -0.308461 -1.72345
3013 1 12.3656 -17.2546 20.7222 1.56431 3.58308 1.15661
3014 1 -23.7325 11.7402 22.7268 2.99403 -5.02319 -1.52892
3015 1 -4.98774 11.0411 8.54768 0.227236 -1.62915 -2.31567
3016 1 19.7423 -14.2937 -19.6109 -3.85846 4.20882 1.27238
3017 1 -13.6664 5.9812 24.02 -3.34311 -1.87323 4.36999
3018 1 -22.3465 -1.51175 -14.4302 -2.17003 -1.28969 2.25998
3019 1 -21.5971 -18.1494 11.2521 -2.24989 0.95544 -0.905079
3020 1 -14.3321 -10.4672 8.07179 -2.22007 -0.863581 1.33507
3021 1 -17.1151 22.7361 -2.2661 7.2461 5.96161 -2.84179
3022 1 15.7548 -11.42 1.28062 4.67092 1.10931 3.70522
3023 1 3.66406 18.3155 -4.3232 -0.634348 0.190775 -5.21625
3024 1 23.1836 5.11338 0.991839 0.870719 3.71849 3.86853
3025 1 5.46952 -23.8248 8.38095 -2.00631 -4.68567 2.56481
3026 1 1.14449 -20.9024 8.18097 -3.00609 0.905021 -2.0904
3027 1 13.238 3.07339 10.85 0.686878 1.53362 2.89662
3028 1 -13.8412 12.6166 18.9848 -2.03985 5.19792 -1.88735
3029 1 7.13814 3.18205 13.0789 0.241428 -0.318286 -3.57899
3030 1 -16.7828 20.2536 -11.7476 -4.01558 5.68243 3.15876
3031 1 -24.3198 -8.6832 -19.0624 0.914548 -0.768012 -0.0237869
3032 1 18.4714 -10.4161 -4.64848 -0.517651 2.82864 -1.14343
3033 1 -12.0551 4.18325 5.15245 -2.13568 3.77327 -0.311743
3034 1 -10.0025 -8.00933 -16.2081 0.437746 -1.20956 0.74044
3035 1 21.938 14.8413 6.74358 0.751606 1.66157 3.2649
3036 1 13.8473 17.163 21.4333 -1.53276 5.64723 -0.998589
3037 1 -2.68435 -9.70829 6.81142 -4.88922 1.28644 0.647021
3038 1 -18.9975 -24.0684 -17.6019 -2.16849 -1.88177 -2.58679
3039 1 16.2618 -22.2942 16.2613 -5.53239 2.51611 0.194468
3040 1 5.64901 -18.34 12.9241 -2.76934 3.18289 1.42841
3041 1 -21.7027 21.0061 -0.656932 -3.93297 0.35176 5.04315
3042 1 -7.65089 19.4404 14.1174 4.16183 2.30908 3.5958
3043 1 3.83387 -11.712 -18.3161 -0.397659 1.12109 -6.70861
3044 1 -6.50708 16.1987 -5.76808 1.2156 4.38268 2.12427
3045 1 -2.70622 -3.48749 6.20626 -1.25637 1.01446 -2.00437
3046 1 15.6082 -10.7171 -16.9999 6.02055 -4.3228 -0.935218
3047 1 7.57513 18.5549 7.16865 -0.4018 5.66854 0.627278
3048 1 5.94659 -12.08 20.0184 -6.41302 -2.15408 1.5186
3049 1 -11.8688 -22.8352 -13.8751 -5.2145 -4.36982 -2.07465
3050 1 2.55961 -23.439 18.0815 0.640318 -2.11881 4.07464
3051 1 -19.0679 -0.557634 -11.1364 -1.55099 -0.785603 2.65365
3052 1 -20.8647 14.3998 -13.109 -1.6913 3.56672 -1.02493
3053 1 21.7757 -21.4529 -0.911402 -2.60578 0.864685 -1.08129
3054 1 22.0198 -4.10661 23.4276 -4.68183 0.196799 -3.8528
3055 1 19.6875 4.03883 3.47005 -1.06683 -3.35155 -5.06939
3056 1 -23.363 13.5103 15.7504 -2.19466 -3.90447 4.06434
3057 1 16.976 5.3906 -23.3046 -2.62414 1.63786 0.053628
3058 1 11.1073 -7.01044 8.14484 3.90789 3.62411 -1.52491
3059 1 -10.8738 -24.3633 -5.52162 1.57128 -1.87915 2.03107
3060 1 -19.9756 25.4906 -5.19712 4.00426 1.65548 -0.732579
3061 1 -8.71135 20.9042 -16.2274 1.41364 -2.96047 6.37121
3062 1 -9.76419 15.1493 -17.2076 0.392802 0.76925 -2.34379
3063 1 9.32202 23.7974 -14.4257 -1.86329 -2.46544 -0.772141
3064 1 -3.88151 10.9364 -20.4078 1.58062 -2.34775 1.99883
3065 1 6.77442 -12.1206 -12.6759 1.23529 -3.56994 -1.69517
3066 1 21.7117 -1.97018 0.742384 0.30518 -4.12599 1.51193
3067 1 15.2294 17.42 -12.6097 0.412822 2.0525 -2.24948
3068 1 21.3404 17.7281 -2.47505 -0.353865 -0.39813 1.47328
3069 1 7.47206 -8.15876 -4.10387 -0.188604 2.23709 -4.12731
3070 1 23.1866 -8.1043 0.42339 4.63984 1.22351 -3.82408
3071 1 -4.36292 -5.14962 -5.63302 4.3732 -4.00617 -1.74966
3072 1 1.75883 8.75376 22.3677 -1.46857 5.26437 -4.51575
3073 1 2.60515 22.3248 -1.48951 -0.202822 4.11575 1.92723
3074 1 -10.3815 -9.05557 7.13151 -0.98762 -1.38025 -3.12487
3075 1 19.1827 6.63257 23.7462 -0.00213296 0.0121953 2.06714
3076 1 -11.6692 18.613 11.3008 -1.69817 -4.74455 0.0543087
3077 1 -13.5905 -24.7454 -6.82184 -0.578236 -0.258338 5.26425
3078 1 -19.9514 6.18456 -15.2613 -0.594077 6.12531 -1.30558
3079 1 12.1372 -3.76407 -5.33781 1.67805 -0.0427366 -0.324143
3080 1 -21.3399 11.0059 -7.34264 -0.532302 1.52384 2.94814
3081 1 -18.7831 9.56546 8.44629 -0.503504 -4.02227 0.51493
3082 1 -2.96759 0.968973 -23.7225 -4.5035 -0.944086 -0.699674
3083 1 7.37234 -13.9373 -7.21307 -1.55082 1.63177 -2.98737
3084 1 -17.4125 -21.9823 7.00389 -0.934382 -0.711148 -2.16544
3085 1 -16.6938 -3.20417 -5.82426 4.75434 -0.546418 -1.99386
3086 1 16.4508 20.6694 3.69919 0.178186 5.69943 -9.77645
3087 1 -9.30095 -22.1511 10.7912 -3.25899 1.40135 1.58998
3088 1 9.66586 4.75632 17.0694 1.29945 0.544891 -6.77007
3089 1 8.54926 -19.3229 12.5727 -0.410407 -5.30914 -0.221645
3090 1 16.3593 -2.90497 -5.44127 4.18404 -0.279392 0.957214
3091 1 -1.81282 -1.06882 22.6615 -1.45016 2.62816 2.84501
3092 1 -6.58307 -8.26091 19.2241 2.70103 -0.25433 -0.512958
3093 1 -13.8435 4.91584 -21.6831 -0.91993 -0.0103063 1.2803
3094 1 14.2822 7.69426 20.5152 2.78934 0.37953 -1.90962
3095 1 -17.3495 -15.1464 -4.02312 -4.46493 -3.33578 3.05858
3096 1 4.55578 7.88796 -22.4143 -2.0115 -1.53137 -3.46794
3097 1 -8.36534 -11.6352 -20.2757 4.42054 0.326173 -3.9885
3098 1 -10.2659 -18.0926 4.94477 -2.72545 4.37171 -0.292431
3099 1 -20.3215 7.95254 23.0813 5.26748 0.257829 3.14457
3100 1 18.4493 -9.28836 -20.7056 -2.48209 -2.08538 4.52013
3101 1 -24.2134 -15.2192 -18.4286 -1.99625 3.79721 0.53079
3102 1 3.11541 3.35714 22.5377 1.0242 -7.06138 1.86327
3103 1 -6.52945 -13.8691 23.5428 -5.3083 1.06396 2.15186
3104 1 -22.64 -6.3118 6.23453 0.931902 -0.0496646 -6.35879
3105 1 -23.4541 -5.14242 21.184 -1.54156 -4.02095 4.57924
3106 1 1.99395 -10.7304 -4.91834 -0.92656 3.95116 -5.3134
3107 1 20.5559 -13.629 22.5886 0.262487 -5.01896 -0.157619
3108 1 8.90374 -15.6627 -5.31999 -1.59868 4.22074 0.878665
3109 1 2.61708 0.424429 1.65067 -0.793323 1.67361 3.1593
3110 1 6.34919 6.93406 0.834835 1.22265 1.34919 1.13018
3111 1 10.004 -18.8774 -16.2995 2.00222 -2.97616 1.63538
3112 1 0.339805 -13.7384 -22.2449 -0.39517 -1.69602 -2.5827
3113 1 6.49585 -11.4309 -17.4773 -4.44614 1.30178 0.300948
3114 1 4.65901 4.41538 -14.908 -3.46125 -0.241091 -3.7652
3115 1 -19.2724 17.9249 -15.9196 6.85115 3.53446 -2.73667
3116 1 -12.8319 15.4001 -0.822756 3.53781 -2.85564 -1.27526
3117 1 16.1858 -10.8013 -2.74191 -6.47199 1.76251 2.73
3118 1 4.32934 5.54706 5.65535 0.198685 6.03704 1.06547
3119 1 -10.1214 -9.60255 3.22658 6.80853 1.93849 -0.892551
3120 1 -10.5742 -3.26973 -18.8751 -1.88828 -1.74802 -2.73413
3121 1 -2.53509 -22.9825 15.1986 -0.395063 5.28823 -0.0828859
3122 1 -12.9234 24.0342 22.0981 1.51694 1.82823 5.30109
3123 1 14.1994 17.1671 13.8148 -2.19585 2.48593 -2.09614
3124 1 -13.5362 12.8041 -8.35058 -0.720499 3.28772 -4.2823
3125 1 -2.27346 -15.7049 -1.51001 -0.598452 4.08998 -0.976366
3126 1 1.34833 7.37522 -9.16015 2.85243 -3.06556 6.04234
3127 1 16.28 5.72735 4.12833 -0.0994869 -0.717464 0.491372
3128 1 2.81895 8.98229 -16.498 5.67946 3.81519 -1.49106
3129 1 -3.94358 -9.87963 9.70835 -1.14095 0.878686 -0.81261
3130 1 23.3773 -8.83903 12.0862 3.5551 0.702317 -0.665496
3131 1 -9.73256 13.8125 1.44167 -0.172036 2.84647 6.50647
3132 1 3.38748 9.6308 3.63185 4.18676 -4.4918 2.7874
3133 1 -1.50689 15.3945 -11.4259 2.27979 2.68353 -0.928408
3134 1 21.7165 7.17127 -1.73487 2.71329 3.02746 -1.43376
3135 1 -21.1445 -14.4921 -5.22115 -3.62927 -6.25963 1.98694
3136 1 -18.7892 -19.7638 6.24224 2.97418 1.6001 1.02659
3137 1 7.19873 -6.04703 -18.0942 -2.3446 0.497391 -3.34054
3138 1 18.5386 -3.23758 23.5232 1.33139 2.40952 5.30654
3139 1 6.33893 10.9089 -13.3389 8.4149 -3.29867 -0.580256
3140 1 0.504451 16.8001 -18.0166 1.53695 -0.835964 -2.32564
3141 1 11.1571 -0.727261 -9.0797 -3.18368 4.96272 -1.37999
3142 1 2.40148 22.0274 -22.1733 -3.45009 -3.22555 1.38717
3143 1 22.3082 24.4571 -21.0104 -7.4217 -1.41423 0.137931
3144 1 -0.248587 15.5002 1.21691 5.56238 -2.13699 1.45008
3145 1 19.6882 -19.2304 8.74253 -2.54061 1.6135 4.10382
3146 1 -1.87238 7.52805 -9.89301 2.23067 -3.2373 -1.64329
3147 1 -3.23523 -19.7309 0.54382 -3.98874 -2.84007 -0.954325
3148 1 6.81424 -6.04083 5.43576 -5.3217 4.37056 2.84619
3149 1 10.7651 8.99463 -15.6605 2.67067 3.47108 -7.15649
3150 1 -22.7722 14.631 4.04562 2.26369 1.2198 -3.98353
3151 1 -11.8522 46.3608 -16.6589 -1.33595 -1.90488 3.87372
3152 1 -13.8364 15.9286 -21.1359 -0.647256 2.99378 5.20709
3153 1 14.6587 6.0912 -20.3299 3.3337 2.59405 -0.0985323
3154 1 6.25725 20.2614 3.61881 -4.24844 -2.30893 0.825252
3155 1 -5.77366 -11.2859 3.41056 1.10096 -1.22869 -3.54999
3156 1 20.9814 -3.12567 7.81991 1.57067 0.960864 -0.155456
3157 1 11.0564 3.79762 4.83352 0.627854 -2.4324 -1.39033
3158 1 19.4252 -21.8783 -7.62893 -2.55903 2.69626 2.21867
3159 1 18.0244 5.52175 -6.07447 6.65138 -2.62546 0.907184
3160 1 -12.8739 -24.7392 22.9786 0.799625 -3.28007 -2.36379
3161 1 -10.6016 -19.195 -2.78338 -0.826338 4.17926 -8.39185
3162 1 -16.9769 -14.8873 -16.2546 -3.32105 2.7177 0.757768
3163 1 21.1805 2.20913 14.2384 -4.10632 3.11763 1.49476
3164 1 -19.3005 3.99367 20.9821 2.94808 1.31607 0.964846
3165 1 -6.13612 18.677 -13.4241 -0.0735805 -3.52427 3.26369
3166 1 16.1406 -10.1721 12.8895 2.99011 1.26772 -2.97066
3167 1 21.602 -16.215 -18.8153 0.361227 3.95623 -2.71368
3168 1 -19.7426 -17.5828 17.868 -2.80671 1.11759 2.98888
3169 1 10.8938 -19.9503 -19.9168 -2.36667 2.25734 -0.516064
3170 1 5.24178 21.1283 22.4577 0.0936867 1.97514 -1.78912
3171 1 -6.48257 14.9304 -21.734 2.31814 -0.829802 4.62449
3172 1 -7.069 2.40635 3.67197 4.09941 0.191271 0.490474
3173 1 12.2566 17.9279 10.593 0.959213 0.708417 1.00234
3174 1 23.046 13.9066 -11.2418 -0.565421 1.75789 -1.28401
3175 1 18.9056 3.91282 -2.75735 0.787083 -2.7659 0.269759
3176 1 18.8846 3.82195 15.4336 0.418445 3.26615 1.88132
3177 1 0.0425845 -11.4623 -24.0701 2.84531 -1.02853 -4.39429
3178 1 15.797 19.8897 16.2989 -2.57848 -2.52655 -1.83509
3179 1 0.125345 -0.25088 20.9329 -1.76868 -0.473661 -5.20675
3180 1 2.34255 13.518 4.10011 -1.0294 0.0900361 -2.37854
3181 1 -21.7754 -16.7264 -23.518 -1.93754 6.43727 -1.33635
3182 1 -17.4288 -23.3936 20.1283 -0.0188051 -0.820975 -3.95188
3183 1 22.1737 18.1979 -5.15334 -0.499002 1.97007 0.614705
3184 1 14.991 -4.87028 4.23179 1.04773 -2.60555 2.66429
3185 1 -15.871 19.0681 -21.7247 2.46145 2.06656 -1.43761
3186 1 -4.21064 19.808 5.50638 1.39702 -3.41603 -2.07402
3187 1 -21.1011 -15.1144 3.62035 -1.41938 -1.87569 -7.30577
3188 1 -20.3086 12.0048 -11.4461 1.078 0.651104 -0.181332
3189 1 15.3181 10.7728 7.72954 6.98572 -3.42287 3.95206
3190 1 -21.208 21.2552 -16.6721 2.02723 0.1849 1.47492
3191 1 7.96564 -5.53671 -8.32868 -0.61661 -0.417313 0.77692
3192 1 21.2794 11.0262 1.36521 1.25335 -0.277622 -0.0209171
3193 1 -17.582 23.0539 0.577132 0.0997727 0.141704 3.2952
3194 1 -17.4571 -6.58458 1.97088 6.91878 1.06867 2.43463
3195 1 -17.0127 -0.154198 3.78485 -0.86057 -3.80884 -0.624154
3196 1 -0.600524 -1.60858 -0.859916 -0.149702 -2.7941 -5.83224
3197 1 -1.69487 10.1792 3.71136 -0.592987 1.67335 -0.676934
3198 1 10.3333 3.75481 -15.1737 6.19556 6.64566 -4.50639
3199 1 13.5564 -23.0674 7.43275 -2.05663 5.17717 2.63571
3200 1 -24.5406 -4.47724 -4.81361 -0.709061 2.03938 0.363877
3201 1 -15.8135 -2.82466 18.3777 -0.362188 -1.57278 1.67916
3202 1 -17.1398 -10.8911 -9.31338 -0.43525 3.07805 -2.61376
3203 1 16.0577 9.69994 21.3405 -1.39557 -0.0900035 4.84408
3204 1 -16.1836 -8.19737 10.5399 3.51677 -0.997164 -1.26751
3205 1 -14.8732 5.53472 -4.40109 -4.26632 2.88953 -1.14249
3206 1 15.3053 11.8778 -3.22667 0.880971 -3.02123 -0.261924
3207 1 -0.422422 -6.89962 -19.5362 -3.90405 -1.82734 -3.43811
3208 1 4.92476 -7.92904 3.83051 -1.86585 0.195972 2.24834
3209 1 12.2997 -15.0003 22.7128 -2.20106 6.74421 6.24551
3210 1 -14.3817 10.0726 -2.71368 0.816475 -1.08078 -0.855237
3211 1 -1.82936 17.3236 11.8886 -0.772074 -0.945311 -2.58212
3212 1 -13.0581 4.74385 -18.7971 3.95269 -0.0933263 5.17447
3213 1 -1.24288 2.57342 -15.5655 1.44882 -4.01182 0.0327282
3214 1 -1.67054 14.9774 15.823 5.29854 -4.92857 -0.193825
3215 1 10.8915 1.42148 11.2382 5.95471 -2.31072 -4.16111
3216 1 21.0746 -0.448054 10.9867 -0.458251 2.4902 1.48349
3217 1 11.548 2.1685 8.53695 5.63552 1.55918 0.742164
3218 1 -4.58588 21.5798 -7.21616 3.27022 -6.80413 -2.03556
3219 1 -7.79921 -20.7575 -15.1676 2.42262 -4.43962 3.99105
3220 1 -3.20254 -9.62352 15.3112 5.67154 6.36767 -3.02077
3221 1 -5.92004 -9.35705 -1.93937 0.599998 2.86156 -0.904525
3222 1 -15.7523 -19.2645 2.08242 6.47108 4.68088 -6.10225
3223 1 23.7833 8.08525 18.1665 2.9854 5.2 -1.73615
3224 1 -4.78368 -8.95946 2.00624 4.59813 -1.48712 -1.90201
3225 1 -8.67156 -6.47557 15.1526 3.94901 -3.74189 -4.40733
3226 1 -20.9889 22.3354 -11.9643 1.91587 0.27951 -2.04862
3227 1 5.47528 20.9722 -6.26288 5.64629 4.76068 1.09229
3228 1 -12.0525 11.4369 -10.4939 -2.29236 0.503973 1.98485
3229 1 -9.36641 0.664123 -5.91777 1.5377 3.7177 -2.95584
3230 1 23.2438 12.6404 -23.497 1.37009 0.859334 -2.53345
3231 1 -18.8202 -16.4591 -0.2322 -2.2124 2.94389 -0.620786
3232 1 -23.5855 15.5375 6.67693 1.37446 2.2538 -2.18911
3233 1 -1.05374 16.3427 7.56834 2.10367 -0.526054 0.375539
3234 1 9.85745 -4.18773 -13.3704 2.19795 0.460936 -2.04555
3235 1 -6.06534 11.4583 -11.5816 0.500983 1.52871 3.61622
3236 1 16.2326 20.2212 7.29727 -4.15661 1.8404 0.400705
3237 1 -4.08756 -13.4165 21.8564 1.2563 -0.965535 1.58956
3238 1 22.5389 22.0099 -4.81356 -3.48712 -0.109912 -0.904745
3239 1 -13.243 -16.5251 8.00141 1.41472 0.404281 4.23411
3240 1 -13.357 -23.4123 -17.7039 4.21757 0.396952 0.753404
3241 1 0.576993 -20.4055 15.4841 3.70372 -2.10118 -4.38147
3242 1 22.0172 -10.0748 -17.5982 1.38744 0.554496 -0.486189
3243 1 8.93584 16.4841 22.4324 -0.514792 3.66367 -2.32391
3244 1 18.4107 15.5071 -14.076 0.45268 -0.385252 -0.578804
3245 1 -7.28737 18.9296 8.70306 3.67671 -6.35144 0.672483
3246 1 18.0665 4.45288 5.99741 0.473226 -0.961467 -1.01642
3247 1 -4.38919 7.73713 -11.3715 -3.47141 1.46752 -0.771966
3248 1 7.66911 -0.952005 0.0678962 -3.7517 -0.763764 2.22268
3249 1 9.30618 -3.05266 13.2235 0.0456404 -1.50174 2.52801
3250 1 12.3528 5.81056 -17.6217 -3.31579 -2.38864 0.807047
3251 1 1.8617 16.3798 11.3519 -0.780128 0.404582 -1.8849
3252 1 19.4609 -22.7027 14.287 -1.17388 0.843993 0.548499
3253 1 10.1411 15.3947 3.47116 -0.720421 -4.64098 3.77849
3254 1 19.308 4.21468 -8.17251 -2.3227 -3.08135 -2.26078
3255 1 -19.265 11.6258 -20.8429 1.79569 5.33505 1.40127
3256 1 -7.32718 18.0628 -9.3536 -3.99059 4.17764 2.8841
3257 1 -12.2188 4.86006 20.3407 4.51393 -1.46208 3.6188
3258 1 -17.6013 -6.59015 20.3727 -1.79075 -1.14657 -4.78492
3259 1 19.4919 20.1259 3.62174 3.36786 0.768813 -0.715738
3260 1 17.1423 47.2266 -5.60134 -1.81966 1.84748 -1.20399
3261 1 -14.4225 -3.08745 -16.1386 -0.610735 -0.574443 -3.92209
3262 1 9.55056 6.58148 12.314 -8.21567 -0.961102 4.19402
3263 1 21.4362 4.56679 19.9521 6.97127 -0.185516 1.28201
3264 1 9.82804 9.47909 -23.7135 -3.23333 -1.79298 0.754684
3265 1 6.31998 -6.31449 -15.1559 -2.496 -0.656483 1.53783
3266 1 9.1391 -0.207081 20.2936 -4.22407 1.59421 1.73809
3267 1 -17.0958 8.86908 0.751046 -3.02366 -3.37675 1.9269
3268 1 6.78914 -21.4575 9.47411 -1.51086 -5.09962 -2.3738
3269 1 8.27065 17.9216 -3.58555 -3.10476 0.0333766 -0.478215
3270 1 18.4865 -16.1651 15.3428 -5.36183 2.80808 4.82219
3271 1 5.43404 -9.47492 20.4468 -0.713858 4.75954 3.65643
3272 1 2.95061 10.5796 -6.98565 -5.00283 -3.41058 6.31852
3273 1 -17.8394 9.88814 -15.9995 2.43801 2.16431 1.73903
3274 1 15.0153 -18.595 5.52212 -1.39294 0.0536015 1.26408
3275 1 22.652 8.60715 10.5737 2.7412 -4.74335 -1.11719
3276 1 9.92883 2.89502 13.5103 -0.9811 0.32989 -3.37504
3277 1 -3.50872 -18.1113 2.78588 -5.85547 0.158053 6.00817
3278 1 0.570846 -5.54921 -22.1985 -5.86235 -1.08032 -2.87648
3279 1 6.64525 -0.299791 16.5022 -0.204159 1.53558 2.33977
3280 1 9.90734 16.4204 12.0726 -0.234325 3.85458 2.79341
3281 1 -6.24733 -12.7112 11.2777 3.58407 3.26398 7.0577
3282 1 5.83196 -0.354805 -14.9828 0.15939 0.173499 0.714325
3283 1 -4.15542 0.447962 13.7489 0.696569 -2.90041 -2.83047
3284 1 14.6864 24.7637 -19.2572 -2.88318 -1.39332 -0.499005
3285 1 0.378109 20.1093 -14.1238 -3.7936 -2.17028 2.58614
3286 1 -15.8113 19.6939 4.35549 -2.06916 4.52079 3.43578
3287 1 -4.29112 -16.3258 16.008 -2.73651 0.405581 -2.45094
3288 1 1.46819 6.7369 -18.0378 -4.38674 0.549107 4.47355
3289 1 -17.5036 -21.0152 9.61225 -3.21447 3.95834 -0.351572
3290 1 -13.8871 19.902 18.0786 3.43409 3.48974 -0.521099
3291 1 22.1313 23.2916 -11.5885 2.4024 0.813848 -0.499917
3292 1 -21.167 22.3089 1.79773 2.76584 2.32383 -0.0171829
3293 1 -10.0298 11.9878 23.5229 -2.04485 -2.22665 -0.800374
3294 1 -20.2391 1.28596 -16.1144 -2.143 2.62722 0.156835
3295 1 5.56263 -24.5625 -1.17759 3.2187 -2.01945 2.95115
3296 1 -17.2217 -13.8795 15.4417 6.54933 0.755957 -5.89257
3297 1 -17.2101 21.6992 23.3695 0.329598 -1.30264 -0.360338
3298 1 7.99547 -8.96836 -17.6392 -1.35557 1.85825 4.21617
3299 1 -15.545 22.6155 -6.59614 0.30883 2.27396 0.743306
3300 1 -2.57276 3.45881 -9.06916 -2.44774 3.42724 -3.3301
3301 1 -23.3289 7.76112 -8.29125 0.158081 1.11561 0.974479
3302 1 -18.4537 -9.5639 20.5604 -4.06303 2.98202 -2.07352
3303 1 22.9982 47.3481 -12.6315 1.33343 7.14681 1.09838
3304 1 2.57036 14.5377 13.9503 -0.115757 -2.61427 -0.497172
3305 1 1.37302 7.03967 -6.03027 4.16541 1.41717 1.75317
3306 1 -8.22883 10.5361 -23.0149 5.29004 2.42967 1.68762
3307 1 -17.1476 12.6802 21.1489 -0.641894 -1.83863 -0.031215
3308 1 -16.7013 18.7858 -4.2687 -0.517497 0.375508 -4.77918
3309 1 3.4725 -0.0289228 10.8135 -1.91815 -4.12423 -1.20291
3310 1 17.1832 22.8066 6.52854 3.04987 -1.073 -2.57432
3311 1 7.10201 2.62933 -9.78929 3.62948 -3.16428 -2.94174
3312 1 -23.9731 7.04916 13.7771 -2.79821 -2.63753 1.0029
3313 1 14.5951 11.1849 12.9463 -5.83362 1.68892 -3.01796
3314 1 -1.57578 -3.2746 9.78993 0.34379 5.1421 0.616297
3315 1 21.7935 -11.5981 -21.627 -0.702105 -1.60596 1.78948
3316 1 3.35125 -6.12168 -5.96115 0.588761 0.761837 -1.93469
3317 1 5.31645 0.773638 6.57596 -1.04918 0.878689 -1.46185
3318 1 -12.4655 0.762397 17.2952 1.13238 0.42788 6.81758
3319 1 1.62936 3.08406 -16.3603 -1.19282 2.4818 2.79114
3320 1 1.60162 4.20238 -11.6347 -3.47444 2.64272 2.17272
3321 1 -8.97654 -19.1999 17.2895 -1.60517 -3.36722 0.0494863
3322 1 14.2711 -11.4686 23.7089 2.32092 -5.10472 -0.183456
3323 1 -2.10026 17.6743 14.8028 0.489033 -4.59026 0.648778
3324 1 14.5691 -17.5258 -10.4613 3.5871 1.5208 -0.54677
3325 1 -11.1091 13.6096 3.76049 0.0769872 0.792146 -3.86473
3326 1 22.4396 6.59806 -22.1079 2.65065 -3.252 3.86119
3327 1 7.04516 -22.4337 -9.22368 5.37331 -2.22897 0.838317
3328 1 2.14626 -17.9833 -8.80782 1.43888 0.458236 1.30573
3329 1 11.4978 6.23802 -14.6948 1.057 -3.64569 1.2097
3330 1 -8.77359 17.2576 -13.762 5.75642 2.68512 -0.496053
3331 1 -18.5322 -4.87334 -0.22669 0.520968 1.27688 -2.90744
3332 1 -4.27438 6.06436 -24.1107 2.37869 0.728793 0.399616
3333 1 9.94896 -6.24238 22.9698 -0.115393 -1.44119 0.623972
3334 1 -22.173 20.9133 17.625 0.26548 0.944634 5.33878
3335 1 22.9172 -0.0217032 -3.09781 -2.71536 -2.8958 -3.5646
3336 1 14.1765 -15.9463 2.56629 2.38476 -2.28474 -2.09992
3337 1 -12.9524 11.0043 8.1782 -0.28687 -1.30477 1.70584
3338 1 12.1228 22.4053 17.7705 -2.97717 4.56183 -6.97273
3339 1 10.9594 18.1108 -20.4064 1.5138 0.667161 1.55728
3340 1 17.4827 -0.508902 -21.1755 2.07934 0.52819 -1.38579
3341 1 20.9016 21.7296 -13.6526 -2.83307 -0.94656 -3.12928
3342 1 -0.841537 0.818942 3.18416 4.82862 -0.664032 2.81084
3343 1 -22.6588 -4.15125 -15.8893 -3.73505 -3.73418 1.94058
3344 1 16.9893 -19.5919 16.7812 0.200058 -4.76908 4.57899
3345 1 14.0232 22.5709 -22.8996 -1.34563 2.64566 0.733777
3346 1 11.1423 -24.0588 0.504827 2.77998 -1.58887 -2.81022
3347 1 -23.4124 12.9259 -13.6142 -1.02178 -3.48041 2.47672
3348 1 -11.7097 -19.9497 2.30865 -2.84014 0.817422 1.80149
3349 1 14.0085 19.6823 -14.2898 2.84477 -5.08677 -0.445365
3350 1 -4.66983 -5.40457 13.0892 -3.80265 3.40875 0.144522
3351 1 -20.9122 -8.97138 16.9567 3.56561 2.21944 -7.07624
3352 1 5.97845 15.5019 3.896 -1.63481 2.04027 -0.669545
3353 1 -24.5545 5.21175 18.2502 2.94672 -0.362563 5.17066
3354 1 -15.3746 7.80369 -1.32371 4.52309 1.60883 0.514794
3355 1 -15.5131 -21.864 -4.32223 3.79624 0.304043 -0.923772
3356 1 -9.58909 20.9754 4.8033 -1.59793 -0.488867 0.735715
3357 1 7.85875 -8.05334 21.6278 -3.0815 2.45443 0.238652
3358 1 -1.15528 20.696 14.5474 -0.18082 1.58104 3.03667
3359 1 -3.5166 21.0314 11.0147 -3.50516 3.09596 -3.29375
3360 1 -9.33417 -17.2016 15.4303 0.97454 -0.7851 0.395362
3361 1 -3.82918 22.1279 8.54345 2.76414 0.827726 2.11078
3362 1 -7.0646 5.06357 -12.6172 -4.53339 -0.117447 -2.15538
3363 1 12.7375 -4.91526 -14.1925 3.07879 5.58662 -0.778744
3364 1 -20.8109 -8.58171 -0.536319 -4.34862 2.27036 -0.732759
3365 1 0.258021 -8.99445 11.7248 -1.72977 -0.885011 1.27175
3366 1 -22.0625 -23.032 -20.6571 -6.85768 -2.46235 0.202602
3367 1 0.430867 -19.0519 -18.23 3.50574 3.23161 3.20581
3368 1 20.8749 -20.6681 15.5132 3.27681 -2.25874 0.206555
3369 1 -3.86295 -3.25227 -10.7284 3.79369 1.78456 3.11574
3370 1 -18.3058 -16.2276 -14.0933 3.17677 2.11156 -0.344361
3371 1 -7.56768 2.35648 9.67375 -0.133404 -1.10295 2.00493
3372 1 6.35893 -3.29739 -8.14422 0.402348 -3.97429 -1.53123
3373 1 13.0228 -6.16039 19.5509 -1.06116 0.0936044 -1.28247
3374 1 21.945 -14.2547 -23.2388 -0.16042 -6.60473 2.12094
3375 1 21.0566 -11.7459 0.653568 1.67382 -3.13978 3.77691
3376 1 -16.3666 9.99375 13.2178 1.39634 -1.20909 -5.8075
3377 1 5.54878 -11.5268 13.4204 -1.71529 1.82618 4.4844
3378 1 -6.13692 -18.829 -0.367695 -0.16443 1.37117 -2.22469
3379 1 8.53014 -5.65224 8.41564 -0.952961 -2.0505 -4.00011
3380 1 0.0312304 14.9473 22.4552 -1.74359 -2.4215 2.07366
3381 1 -5.15714 -16.4152 -22.8348 -2.63225 -1.6058 -3.2756
3382 1 -19.3187 13.5307 15.7168 -0.827154 -0.662484 -1.92483
3383 1 -19.3483 23.5643 -17.0704 -0.677101 4.70843 1.65875
3384 1 18.2714 -20.3966 -11.5573 4.09756 0.828708 -2.1543
3385 1 -4.70982 -19.8457 -7.7261 0.654939 0.757771 4.46921
3386 1 11.5196 -10.7364 -21.7605 6.24755 1.06771 -2.05891
3387 1 -19.3011 -2.12365 3.2942 0.244736 2.20486 -4.81001
3388 1 -20.4472 -1.89564 15.8176 -0.451135 -0.319163 1.66225
3389 1 -11.9985 -12.2469 -14.1101 1.90772 0.751407 3.37711
3390 1 22.9015 -19.1679 14.0155 -1.97256 0.491371 -0.0253979
3391 1 -9.05555 -13.8668 3.3394 1.24393 -6.52739 0.728197
3392 1 -7.62708 1.86819 -17.1014 0.572001 -0.821906 1.01596
3393 1 -12.3533 15.0286 -19.0338 -1.65193 -3.49071 0.0292846
3394 1 -12.7153 -1.02059 13.2163 0.770767 -1.87572 1.36379
3395 1 12.7113 -14.0356 10.0881 -6.5661 -4.99805 1.75429
3396 1 -21.1718 6.21037 -4.79369 -0.7252 0.039848 -0.176318
3397 1 -4.00427 -1.41994 18.6881 -1.86664 1.53773 2.66783
3398 1 -8.31801 -19.6428 -4.3486 1.27699 -3.85897 2.90272
3399 1 0.127096 -3.91859 5.25881 -2.91081 -3.21737 -1.13679
3400 1 15.7319 -21.7254 -22.8091 5.37499 -1.20304 1.9975
3401 1 -20.2153 47.4643 -12.4159 -4.97606 0.888096 3.50436
3402 1 14.74 -16.6496 -18.4847 -5.92151 1.22918 -1.76592
3403 1 -14.7352 -22.752 2.14755 -2.64943 3.49592 -0.642472
3404 1 -17.4002 -9.21957 0.257468 -2.16099 -1.75045 0.44957
3405 1 15.6787 5.54783 13.6591 -0.159645 0.741216 1.95906
3406 1 2.95229 -3.64865 5.55619 0.0197687 5.1638 -3.75168
3407 1 11.9752 0.566128 -12.9982 0.171456 6.43924 -3.79403
3408 1 -18.6569 13.1851 23.6922 -1.1178 2.59974 -0.387406
3409 1 -1.67823 -19.3782 17.0169 -1.27448 1.35408 -3.40379
3410 1 -19.3852 -11.6502 15.0181 -2.3069 0.625801 1.79403
3411 1 -5.2438 -5.63568 19.898 -1.43685 -3.6091 5.21363
3412 1 6.41069 -2.83309 -10.915 0.978883 -0.496044 -3.84485
3413 1 -4.17727 -16.9919 -16.204 -2.06161 -2.03551 3.31361
3414 1 -18.3868 3.59638 -7.24965 -3.33456 1.61891 -0.694652
3415 1 -16.5916 -0.0196815 -14.9868 0.350378 -5.1893 -4.47895
3416 1 20.0413 -21.9036 -4.74481 -2.30155 -3.43507 0.82355
3417 1 -21.8827 -11.1944 9.85336 -1.99104 -1.49996 -3.61963
3418 1 20.6777 19.938 15.8842 -2.35589 -2.08708 2.52755
3419 1 -12.8572 -12.0366 0.584495 -4.93777 3.05538 2.2605
3420 1 -18.5208 12.0825 10.0256 3.95787 2.62277 -2.56117
3421 1 10.7271 17.374 -12.9739 0.0610257 -3.13817 4.0306
3422 1 4.34055 -14.6537 -2.57345 2.44246 -0.435686 -4.09768
3423 1 -14.799 3.2086 1.27589 -6.41354 -1.23394 -5.15387
3424 1 0.689989 -11.9869 1.50901 5.27445 1.88099 -2.32219
3425 1 23.305 -8.63599 17.4012 -3.38593 -0.35665 -5.20864
3426 1 -20.4859 -6.69353 4.6094 -1.0601 -1.18986 0.200274
3427 1 23.7558 11.7979 -16.2291 -3.08404 0.295708 -1.51294
3428 1 -3.97951 11.5181 13.9243 -2.87918 0.946425 1.58566
3429 1 3.13736 -17.4464 16.492 -2.52047 4.84528 -1.23652
3430 1 -11.8433 -14.3834 20.2923 -0.292928 -2.0932 -1.45013
3431 1 -8.71404 -5.3484 -1.34824 1.68112 -0.415021 1.29217
3432 1 -2.606 9.1828 8.51424 5.05592 -2.43474 -1.8067
3433 1 -7.32193 -3.23684 -20.435 1.66338 -10.6022 -2.02946
3434 1 13.9596 15.4661 -10.7025 -3.46235 0.92823 -3.00475
3435 1 -4.82791 22.8654 -13.7962 2.3346 -1.82097 3.80231
3436 1 -5.61317 8.92101 16.7879 1.44062 4.29364 -2.21689
3437 1 12.8827 17.5858 -6.25524 -0.0471175 5.83873 -0.528936
3438 1 -18.887 9.53439 3.03928 3.25414 -3.9845 2.11779
3439 1 0.789048 -13.4841 13.5187 -5.57635 7.25007 3.22123
3440 1 2.26895 20.9444 -10.5619 -0.358031 -1.14164 2.83233
3441 1 4.80523 -13.732 -5.60598 -1.10386 1.48164 1.81831
3442 1 -9.37626 0.500199 3.31442 -0.499426 -0.725037 0.681099
3443 1 21.8093 2.3062 -0.251836 1.74046 -2.98714 -1.83128
3444 1 -20.3644 11.9873 3.25412 2.5516 -0.479029 -0.314151
3445 1 -12.0462 0.386515 -11.0328 -4.38841 -2.21294 4.16205
3446 1 -3.48691 -21.3469 -16.2701 0.837109 -0.110218 2.57363
3447 1 -5.33102 4.07744 -9.61454 6.69388 -4.62328 -4.89813
3448 1 -20.1237 4.83236 15.1445 0.60269 -1.09087 -0.70121
3449 1 6.72453 25.7849 -17.4927 6.39914 -0.0577467 -2.29196
3450 1 -2.31884 -14.1975 -12.9189 3.28873 -3.11308 -0.060267
3451 1 2.66732 -12.5983 -20.6422 -7.38356 -3.00677 1.56446
3452 1 -9.88061 0.174624 -12.937 -1.31201 -0.0534372 -2.07418
3453 1 14.1077 10.2921 -22.1899 1.00975 -1.33691 -5.14008
3454 1 -21.3186 18.3683 9.37636 0.555407 -2.80943 -1.96802
3455 1 -18.045 15.1137 20.1723 1.76199 0.673561 -4.68115
3456 1 9.34791 25.1119 -16.9707 -4.74736 0.874133 2.18709
3457 1 21.6028 15.6832 22.0532 3.55749 4.97901 4.32797
3458 1 13.1367 7.1364 -22.5897 3.78942 -2.34228 -1.85954
3459 1 -1.50927 19.207 17.4959 3.45908 -0.544666 1.96348
3460 1 1.23402 20.6809 17.4768 1.93804 -1.04837 2.35628
3461 1 -12.7171 -22.6154 17.9329 3.64309 -2.69329 -4.40211
3462 1 -11.9493 22.3193 -8.13847 -1.04545 -2.02181 -1.05228
3463 1 21.1464 7.08244 -19.7859 2.81673 -0.671243 -2.70717
3464 1 -17.8612 -20.1945 13.8266 -1.45905 4.84524 -2.346
3465 1 -0.0973556 -3.80019 12.4957 -4.27579 -1.61955 3.12906
3466 1 -8.25748 3.47598 -6.01193 -2.63243 -0.271865 0.271839
3467 1 14.2478 13.2035 15.1347 -5.05155 0.774783 -1.40792
3468 1 -7.68618 -9.87101 21.5771 -3.33765 1.10763 3.83937
3469 1 -1.58006 -10.0743 1.65049 1.28034 0.557544 2.11408
3470 1 -16.0918 -21.0932 -8.36075 -0.254315 2.6006 -0.663307
3471 1 -16.9315 -20.598 -17.7453 -0.611942 2.01861 1.59014
3472 1 -15.0507 9.21127 -15.0548 -2.25712 0.255389 2.9624
3473 1 -24.0907 24.012 -18.6014 -1.0228 3.26051 -2.95853
3474 1 15.4819 -2.24157 13.33 -0.180992 -1.34456 0.150913
3475 1 22.8593 -10.9517 19.5063 -5.42516 3.78612 -1.49794
3476 1 4.08829 14.0988 18.2202 -0.273338 2.33951 0.267502
3477 1 -19.222 -1.2509 -14.8163 0.427947 -4.3105 -0.528945
3478 1 10.4685 -14.4906 2.56502 -1.52457 -0.213298 0.308393
3479 1 17.8077 -6.97637 9.4042 -6.83448 -0.765352 -1.51876
3480 1 -22.6368 25.1128 -5.7278 -6.81883 -0.413426 -0.602168
3481 1 1.68443 -20.911 -22.9923 0.11778 -2.34097 -0.745088
3482 1 19.8649 18.9348 0.761992 1.41324 -2.1882 -0.0970643
3483 1 11.2413 21.6518 -1.0896 -11.2908 0.108829 3.62343
3484 1 3.71998 10.5706 7.96603 -1.93145 -2.79744 3.41021
3485 1 2.09066 8.00123 -3.3697 4.37635 -2.82768 2.32509
3486 1 16.5691 25.8763 17.1115 0.616308 2.58788 -2.83133
3487 1 10.9787 -9.87199 -13.5199 2.08033 -6.13953 -3.57359
3488 1 15.7864 14.4087 -13.5871 1.12342 -1.29963 0.16467
3489 1 19.232 1.37151 -7.35678 3.21714 2.71933 -0.762352
3490 1 -18.738 4.09025 6.36038 0.604514 5.43359 -1.25898
3491 1 -11.3656 8.15351 -20.4975 -0.502544 -1.35819 1.77147
3492 1 17.814 -1.3889 4.37332 -1.99208 -4.12223 2.6144
3493 1 4.2812 10.1838 18.2563 0.713264 -2.96562 7.31402
3494 1 -17.1397 3.84794 22.7485 -0.134387 5.56853 2.8744
3495 1 20.3663 -2.83098 15.6349 0.805069 3.74382 -4.58951
3496 1 -9.66136 8.1284 -15.7106 -1.18731 4.54966 -0.6331
3497 1 -16.7825 11.6468 18.187 -1.51791 1.86503 -4.2386
3498 1 -18.9137 12.1268 6.00525 0.361004 2.84782 -2.97579
3499 1 -20.4462 21.2374 -20.5564 0.215137 0.451621 1.94734
3500 1 18.0906 17.6685 -6.12312 -2.46383 -0.337509 -1.59515
3501 1 -15.9534 15.4704 -7.05342 1.9048 2.27982 -2.09636
3502 1 -6.55157 23.0571 -3.97921 0.151752 3.71863 -1.01899
3503 1 18.0213 -21.5905 5.26978 -3.13367 0.594125 -3.25172
3504 1 17.2499 -2.74314 0.0853978 -0.142354 -2.98776 -3.07858
3505 1 -1.13265 -14.1515 2.38629 -1.37726 -1.69437 2.43634
3506 1 -22.1998 19.5331 -4.95235 -0.147453 -1.87385 -2.72828
3507 1 9.4416 9.51599 -10.2459 -0.496998 0.396598 -2.72261
3508 1 -2.39573 -12.6108 -22.8129 4.24202 -5.11755 -1.09327
3509 1 -22.5075 -19.2037 -22.2884 3.82176 -3.12076 0.506331
3510 1 -11.1383 5.68303 15.6322 -1.18067 0.596721 -0.230692
3511 1 15.1446 10.3575 -0.658557 -1.4623 0.896978 0.18073
3512 1 -18.9694 3.18066 2.81391 2.26713 1.54519 5.23437
3513 1 -21.3228 -22.3545 -17.8815 -3.98094 1.38151 -1.77422
3514 1 -4.46178 17.9985 -8.68114 1.30397 -0.0930825 0.606483
3515 1 13.9673 -16.7381 9.66626 2.97397 -0.705068 -0.553069
3516 1 -20.1172 4.06432 -17.3138 0.616767 -0.754495 -2.23886
3517 1 -5.20816 18.3081 17.7629 3.13283 1.97855 -2.23546
3518 1 -1.61025 0.770681 0.393439 -2.40996 -0.266014 1.99922
3519 1 -4.10933 5.10049 16.1041 0.309797 -0.452141 2.28388
3520 1 -4.35631 -15.2421 19.5871 0.528569 -3.41464 2.29201
3521 1 2.28774 14.8371 -13.6733 6.58818 -1.85084 0.486873
3522 1 22.6152 15.7095 -23.2275 -3.20059 0.758477 0.615857
3523 1 -10.4691 -19.5923 8.58826 2.52413 4.58129 3.27769
3524 1 0.377509 24.1579 1.05677 1.8517 0.0693183 -1.77535
3525 1 -17.3314 12.5843 -22.286 2.82957 -0.816581 4.97349
3526 1 10.7519 19.5043 -7.1025 -2.19808 2.4542 -3.23762
3527 1 -0.496387 9.42752 6.47689 -0.841086 1.06742 -3.27937
3528 1 23.555 -21.7291 1.1436 2.54035 -2.31887 0.266281
3529 1 -22.4826 9.36244 21.8046 -6.80293 3.86043 -1.21457
3530 1 -11.2578 8.29324 6.3025 0.526938 -1.05492 -8.26031
3531 1 3.26458 6.16143 22.4286 -4.27194 -0.421954 -0.855686
3532 1 -8.81376 13.2275 -7.52184 -0.545433 1.70227 -2.02942
3533 1 16.8931 9.73697 5.58319 1.30258 -2.30959 3.4612
3534 1 7.47875 -3.75947 20.1111 1.36656 0.574597 -1.58019
3535 1 12.5408 -18.5022 -18.0065 -0.490188 -1.88883 -4.18936
3536 1 21.1914 -16.6519 9.30237 0.853605 -0.320184 -1.08175
3537 1 22.7875 23.3316 17.3407 0.941057 1.26982 0.900403
3538 1 4.80237 -7.59341 17.0553 1.88685 3.20784 -2.82554
3539 1 12.9156 22.0738 -12.8321 -0.108739 0.613189 -1.03707
3540 1 -1.20652 11.2402 -5.53704 0.274186 1.48718 3.29605
3541 1 12.3629 0.0397138 -22.9171 -1.17981 6.17526 -2.08133
3542 1 20.9787 0.653638 4.09634 -1.57071 0.847601 -4.65665
3543 1 -16.1464 11.5505 -7.89905 2.06986 -2.303 -0.466443
3544 1 -8.94696 20.4996 -2.65548 -5.5291 -2.22416 1.29124
3545 1 3.13723 19.6907 12.6937 -2.79717 1.32092 3.81889
3546 1 20.1143 13.8814 -9.48965 4.00302 -2.4879 -1.91701
3547 1 8.67716 -18.2884 -8.85896 -2.69433 4.9316 -4.30782
3548 1 8.56193 -12.0514 -19.2809 -0.737814 2.17724 4.67118
3549 1 -10.8169 6.94507 3.75779 -5.75097 -0.617149 1.87277
3550 1 -14.5206 16.3793 7.91064 0.796532 -3.6145 -0.918224
3551 1 14.2671 3.27341 -19.1299 4.2384 -3.23344 2.02863
3552 1 14.8571 17.4733 7.19159 4.59555 4.80363 1.79529
3553 1 -10.3384 15.0921 -3.80143 1.2868 0.283753 3.29647
3554 1 12.8534 14.153 -13.3347 -5.34605 -0.0474236 -0.361411
3555 1 -23.8425 -19.3646 -0.0548005 5.14028 -0.405426 -0.165839
3556 1 -6.99684 -14.2425 18.4143 1.4109 1.17397 -6.44449
3557 1 7.73304 10.4671 -19.5976 -3.77229 2.86923 6.13941
3558 1 -22.6838 -15.8743 -1.38876 2.16825 -5.46666 -2.74523
3559 1 9.53626 -5.14305 10.9181 1.37076 -3.15673 -5.44928
3560 1 -19.0112 13.6123 -18.2615 -3.13931 -4.36898 -0.738991
3561 1 -19.5161 20.9106 3.53511 2.90474 -2.59984 -0.00302354
3562 1 18.871 12.9509 1.22941 -2.52106 4.83398 -3.87041
3563 1 3.14785 -22.221 -7.03113 0.373402 5.78781 -2.01419
3564 1 20.0581 10.8826 -13.4431 -3.58662 -2.55897 -3.77019
3565 1 17.1909 -18.0502 -6.33877 1.38608 -0.448627 3.36694
3566 1 -10.8989 -15.2974 4.85899 -0.210415 -3.13975 -4.56073
3567 1 1.11901 -7.52915 3.80535 3.15482 1.4894 -2.02933
3568 1 16.7514 1.75083 15.7497 0.944897 -1.51159 -1.05482
3569 1 -5.02581 2.7898 -12.307 -1.53684 1.37791 -2.25558
3570 1 13.6009 24.4369 23.7963 5.74384 1.0123 -6.17306
3571 1 2.82119 22.7215 9.51432 -4.32162 -4.57177 2.71823
3572 1 -15.4624 -17.1105 -20.1046 -1.70137 5.11475 -1.5516
3573 1 17.5285 -5.24969 -1.38456 1.01149 1.02394 -0.730908
3574 1 -16.3057 -4.36442 -11.3571 -0.444735 1.77167 2.96345
3575 1 -10.5165 -12.0293 -9.84668 1.61154 -2.03528 -2.90303
3576 1 15.4896 4.22125 16.633 -4.53038 3.18446 -5.11933
3577 1 -7.15226 8.58783 -5.79648 0.709821 2.93718 5.0311
3578 1 21.4047 7.46193 19.8729 1.5455 0.494555 -5.06874
3579 1 -17.0508 -11.9786 -6.81696 2.06212 2.04053 -0.410735
3580 1 0.193745 -10.5717 6.83104 -2.99117 -2.90383 2.24443
3581 1 -14.818 9.48809 2.7289 -1.27749 -0.90508 -3.48618
3582 1 -15.3303 -22.8682 13.5465 0.319329 -0.662939 -0.195126
3583 1 -17.2711 16.5145 7.88487 0.919245 -3.0315 -0.554209
3584 1 8.58982 6.74549 22.2818 1.23279 -6.57051 7.44787
3585 1 10.8792 -2.72564 9.75505 -4.80207 -0.520669 -0.238201
3586 1 15.0068 -0.868034 -8.07837 -5.64246 -1.07766 -0.585235
3587 1 23.869 -12.4555 -17.372 1.71935 0.563223 -2.2601
3588 1 -21.4722 -9.53875 -11.9924 5.45599 0.9407 -1.78803
3589 1 -11.6036 2.07947 -6.61455 -4.5866 -0.558957 0.977342
3590 1 10.4069 0.932177 -5.20599 -4.17593 1.98502 4.40947
3591 1 -6.61226 -11.613 -23.0782 3.81031 2.22883 2.64444
3592 1 -7.87504 -16.7245 -5.0847 2.62964 -1.01554 -2.65826
3593 1 15.3691 -10.1324 -13.9767 1.8377 1.74198 5.35726
3594 1 13.7778 -0.423929 5.60937 1.90162 -1.98121 -4.05229
3595 1 -3.01926 -16.0578 6.97978 -0.647179 -0.949653 -0.634221
3596 1 -8.15161 -10.6408 -8.93052 -0.685849 2.7054 1.85211
3597 1 -3.09353 12.5455 4.13883 0.922591 1.13952 0.283229
3598 1 -13.5712 -10.8405 -6.15979 0.836751 -3.98353 0.197971
3599 1 14.7268 15.1292 -5.93537 4.04904 0.347228 2.41402
3600 1 -18.3425 23.5997 -9.21109 5.02818 -2.14451 -0.859476
3601 1 -23.335 -12.527 -5.68171 -3.57049 -3.07061 -0.326888
3602 1 -0.258857 22.7085 22.146 -0.0509114 -5.27591 -3.56326
3603 1 -4.98661 -1.98667 10.8405 -1.92018 -0.261501 -1.4231
3604 1 8.53081 13.3972 -22.977 -7.26639 1.49037 1.4492
3605 1 18.4701 21.5943 16.4501 1.14497 -0.765374 1.16614
3606 1 4.16312 9.07883 -12.8427 5.23326 4.51484 0.476389
3607 1 -18.5425 6.93187 18.2354 -3.74703 -2.75477 1.60871
3608 1 19.6804 23.1925 -16.0164 1.29977 -1.21649 0.235369
3609 1 8.52239 -12.835 6.49455 2.18446 4.08845 0.49817
3610 1 13.532 10.3226 22.6089 -2.16048 5.43378 0.366624
3611 1 -17.456 20.4464 -16.2877 -0.6673 0.5914 1.31422
3612 1 -3.66585 15.6337 -5.65105 0.237895 -2.55447 2.12506
3613 1 1.92053 22.2064 12.3149 -2.86332 -1.94852 -2.30096
3614 1 -0.534475 -5.85103 -5.0767 -0.328799 -0.175007 1.19724
3615 1 4.02033 20.633 2.23377 -3.47403 -1.84986 -4.82445
3616 1 -11.0411 -12.352 23.2766 -2.57449 -4.17262 4.61766
3617 1 14.8645 0.97615 -21.2789 -6.74681 -3.82321 -1.70979
3618 1 -0.334702 -7.36261 -7.58934 4.29234 -2.34789 4.70895
3619 1 1.88877 19.9898 8.58499 1.61603 4.31361 1.0544
3620 1 -3.26835 12.8676 -11.2968 1.65567 -1.55791 1.67503
3621 1 -9.25554 12.6175 11.3948 -2.84304 3.21129 1.57219
3622 1 6.74946 -10.8345 9.09658 1.25603 2.18624 1.06205
3623 1 10.4455 -1.12343 17.4516 -7.17672 -0.952651 -0.981983
3624 1 23.3196 -6.79269 4.68364 0.913335 0.505092 1.99831
3625 1 7.8285 -15.3459 21.9369 -3.89867 4.2771 -4.1868
3626 1 -15.4054 4.7296 -7.36611 1.70981 -6.69082 0.264163
3627 1 -3.84881 16.4193 8.57882 -5.24545 -3.70543 -3.02618
3628 1 10.102 -0.488628 7.93171 1.5241 0.0265438 1.23222
3629 1 -5.42233 -0.0557927 1.13971 2.10392 -1.67936 0.784642
3630 1 5.74057 -10.1905 -0.658218 -1.14353 -3.04271 -1.33382
3631 1 9.57729 10.4315 20.7615 0.773377 -1.59636 -1.62198
3632 1 -14.8828 -14.8878 14.4618 1.1168 -0.684731 3.16691
3633 1 10.2075 7.69167 -3.67763 4.34382 4.82313 -6.36033
3634 1 -0.926771 3.1619 8.32896 -3.7397 -0.138012 1.18151
3635 1 -0.747002 -16.3963 -22.2093 0.503606 2.61905 0.432996
3636 1 3.58582 -17.1028 -11.5668 6.23524 -0.63396 -1.36768
3637 1 -5.85343 11.2112 22.1653 -0.151971 0.275423 3.97283
3638 1 22.2577 -6.68363 22.0333 1.28201 0.422388 2.51556
3639 1 7.21033 -17.171 4.19675 -2.34844 2.08892 -2.80473
3640 1 18.9761 -22.2987 -13.6195 1.97375 -2.08388 -0.100867
3641 1 6.03147 11.0841 22.2832 1.56926 -0.25779 -1.96928
3642 1 -4.10909 -15.9258 4.40072 0.513447 -2.2414 0.782759
3643 1 1.91474 2.93838 7.67364 1.87798 1.93496 1.4964
3644 1 20.9904 22.2244 -1.4559 2.25983 -1.15918 2.77083
3645 1 -19.3356 -13.7344 -7.6935 -0.692025 -1.21169 2.81549
3646 1 16.738 2.79145 -16.4261 0.419499 -1.5322 -2.21337
3647 1 19.5126 -18.9304 5.78276 0.239069 -1.05144 0.855959
3648 1 -24.3786 -20.8563 -2.51661 2.04648 -0.726866 0.673947
3649 1 -16.0359 -1.31547 -17.5067 0.150266 2.76106 -4.65564
3650 1 10.5543 -7.66863 -16.8407 -4.57214 1.92509 -3.37122
3651 1 -10.2088 6.20092 10.2847 3.27942 -3.50359 -0.0968042
3652 1 21.4977 -10.5198 15.1755 -0.48988 -3.14598 1.98437
3653 1 0.079033 17.0796 -2.53476 1.95912 -0.0511696 0.2697
3654 1 -18.4033 23.0158 11.9694 -1.70812 -2.75382 3.9453
3655 1 -8.68492 20.4376 -13.1664 -0.270586 6.03918 -1.802
3656 1 -11.7158 -18.9107 19.8694 0.411565 3.01417 0.981648
3657 1 -23.5555 23.0728 -10.8338 -3.06112 0.132078 -1.3555
3658 1 22.3482 13.3545 15.5076 -6.20247 -0.560831 -1.63629
3659 1 18.3489 6.38445 -19.7792 -2.49736 1.24833 4.86606
3660 1 13.8422 8.0633 11.0602 -1.29685 -1.03372 3.81754
3661 1 20.8075 10.5594 -16.5165 -3.98176 1.46068 1.36951
3662 1 -0.266102 1.57197 -22.6562 -0.425311 0.417544 8.15021
3663 1 -18.947 -15.4142 -11.4066 -4.53134 -0.443579 -1.82338
3664 1 7.86231 16.7592 13.958 -0.0787636 -0.164891 -8.23179
3665 1 11.653 -10.2809 -18.164 3.8485 3.90196 1.43611
3666 1 1.03941 -16.8994 22.7138 0.559663 -2.21648 -0.437648
3667 1 13.2645 15.6718 -17.4444 0.884531 -3.59759 0.820911
3668 1 -14.4388 -1.29494 20.1818 -0.182812 1.6593 2.02435
3669 1 1.27456 20.8113 3.89933 -7.56204 1.68017 -3.44156
3670 1 13.3756 6.90251 -9.42132 2.32939 -2.86176 -1.00433
3671 1 -2.00224 11.8394 -13.7233 -2.46237 -2.17872 1.35001
3672 1 -14.3332 11.6594 11.9439 -1.81182 -2.53083 -0.507766
3673 1 -5.11408 -23.311 22.2312 3.01701 3.32668 7.65348
3674 1 -2.62413 -0.735372 -7.02833 -0.322811 6.73523 -5.77037
3675 1 -14.369 18.927 -9.1314 -0.475754 -1.59721 2.01358
3676 1 17.46 13.3425 -9.31544 -3.55701 1.68798 8.53636
3677 1 -5.92826 13.8086 13.7127 1.56022 -2.73115 1.68672
3678 1 -18.2811 6.94511 15.1414 -1.18834 -2.04802 2.63592
3679 1 9.51826 -18.4739 -5.13666 -0.194296 4.35916 -3.78071
3680 1 9.73178 4.90921 24.3903 -2.15005 -5.57222 -2.63972
3681 1 -6.95099 -0.0565925 13.6647 -2.03336 -1.20706 -3.84353
3682 1 23.2702 -21.3895 16.9659 -1.68036 -0.870716 0.32604
3683 1 5.49505 10.052 5.84288 -1.05709 -2.41238 -0.474685
3684 1 14.6048 16.2178 -22.7888 -4.92577 -1.07842 1.6772
3685 1 5.06638 -2.49459 0.180804 0.646031 -1.59011 -0.929406
3686 1 -22.8357 9.69891 0.416867 -0.115536 -1.31958 -0.946632
3687 1 8.03516 -13.7444 9.44604 1.39362 1.24297 -4.76527
3688 1 -11.0331 -24.0556 -0.383283 4.06814 4.2765 -0.625457
3689 1 22.1048 15.3342 -16.1537 4.62234 3.6008 3.96075
3690 1 -9.56844 7.31235 -6.32693 1.33823 -0.131517 3.38467
3691 1 19.8686 -24.907 -6.98295 0.950897 -3.97647 -1.26004
3692 1 7.19507 1.37858 -19.0296 7.98699 4.3995 -1.10881
3693 1 6.57878 22.8447 -2.49906 -2.85405 -0.645223 -0.0316339
3694 1 -22.5215 2.37204 -5.8951 -1.92516 -4.46132 5.19875
3695 1 -7.782 -7.36137 0.75488 2.378 1.87359 1.68701
3696 1 8.26831 1.5911 -15.2967 0.939324 -0.411075 -0.339479
3697 1 10.5124 6.22297 6.06811 -5.66145 6.70538 0.225042
3698 1 -23.4732 1.93019 15.9492 0.635721 -1.54253 2.69653
3699 1 -10.8213 -4.82977 12.4016 2.71031 -2.1522 1.75745
3700 1 -5.72211 -19.5765 -16.5138 -5.12449 1.60726 0.0177577
3701 1 13.2499 -3.27626 11.8499 -2.37956 -1.32348 -0.71559
3702 1 -6.80418 0.251939 -13.1747 0.091202 4.69763 0.51371
3703 1 20.4477 13.6616 -22.7139 -3.07108 3.92761 0.292034
3704 1 17.9304 -2.85287 11.6876 1.82154 0.0824664 -0.641535
3705 1 5.10416 -0.445799 2.44984 -0.516481 3.96373 0.486255
3706 1 -14.0854 4.92248 -16.044 3.56959 -4.51791 -0.768317
3707 1 18.7151 6.47101 -14.6535 0.644251 1.84452 2.18269
3708 1 6.83252 2.90793 8.40524 -1.75735 1.14742 -1.18607
3709 1 -21.0057 15.4565 8.08168 0.173704 2.0897 2.27943
3710 1 -5.03421 -8.52225 16.9035 -1.74566 2.60286 2.61748
3711 1 -12.6466 11.5807 14.1806 -0.197941 3.29278 0.345131
3712 1 18.0617 23.4517 -5.42781 3.37292 1.72595 4.11237
3713 1 3.1851 20.2161 5.82192 -3.59495 -1.13665 -5.95122
3714 1 -11.4672 0.407111 21.4098 3.56638 -0.905758 1.6362
3715 1 20.604 20.3333 19.0164 -3.10051 -3.7339 2.86755
3716 1 5.95036 3.39857 0.474676 -0.877755 -0.997761 -2.16793
3717 1 -3.0734 15.2984 -18.2667 0.634906 -0.0889022 1.61409
3718 1 -20.1638 6.7566 2.871 2.8769 4.439 4.06474
3719 1 -0.60698 12.9797 -7.99866 -2.85665 -0.519446 -0.126817
3720 1 17.5379 17.7067 16.8707 0.189809 2.83136 0.571001
3721 1 -1.59605 19.4493 -9.08772 -1.92053 5.65174 -1.15782
3722 1 21.2156 -8.16573 6.28048 3.05542 5.0019 -3.23818
3723 1 7.68556 5.50589 -14.8669 2.91095 2.53747 -1.32182
3724 1 -5.08973 0.465059 -3.75028 -5.32512 1.77752 0.737527
3725 1 -13.4504 21.339 -3.03241 -2.6742 -2.76933 4.581
3726 1 -8.93723 -14.2301 -13.8405 3.46954 -0.119331 0.413932
3727 1 6.60737 -12.7821 -21.4302 3.50169 2.7702 4.18503
3728 1 15.7381 -9.72521 -23.1995 2.16766 -3.53298 -1.6067
3729 1 -19.4752 -11.6371 -13.0491 -2.00652 -2.63756 3.57511
3730 1 11.6541 -4.65887 13.9914 1.89096 2.86084 1.81921
3731 1 2.93524 -17.5329 -19.1249 3.77673 3.62336 2.40187
3732 1 18.7322 19.092 6.21411 -0.678234 5.48471 -4.41914
3733 1 4.11509 -14.2754 0.0237374 -1.62036 -0.994322 1.79051
3734 1 14.8808 13.6604 -8.37227 3.13993 3.01229 -0.727108
3735 1 -7.53026 18.9743 -0.716134 0.916168 -2.03135 3.84498
3736 1 -22.8576 13.2699 -10.2683 -1.72317 2.35801 4.8268
3737 1 -0.535552 5.29698 0.777417 3.2626 1.36403 -3.19537
3738 1 -5.88079 -6.18603 15.5643 -0.827812 0.575099 -0.349609
3739 1 0.0216559 -4.89574 8.1982 -3.23315 0.84519 -5.96786
3740 1 7.55401 0.232389 -21.7176 0.691239 -5.85911 4.19062
3741 1 -18.1893 10.9491 -4.20637 1.37234 -0.205691 -0.299392
3742 1 -2.33717 -18.0977 -13.5186 -5.38736 -0.990499 -1.88524
3743 1 5.34464 -14.01 15.2334 -2.04613 -0.880489 0.560561
3744 1 -16.6318 16.8547 3.69995 -0.476834 -2.8481 3.93838
3745 1 2.72801 -7.81539 10.9279 -0.111931 -1.40752 -0.508975
3746 1 6.82119 -18.438 -6.73134 -1.90985 3.2738 3.28624
3747 1 -16.6798 22.8857 -17.637 5.31099 1.85482 -3.84567
3748 1 -14.3743 -1.59142 -20.0083 6.17258 2.16083 -3.9645
3749 1 -24.7548 -2.35307 12.9149 2.33591 5.76253 0.943785
3750 1 12.0083 23.0094 -15.4684 2.23691 5.07356 3.34227
3751 1 -4.75124 -2.89229 -0.142394 4.37987 2.55991 0.192133
3752 1 -20.1869 13.4429 -15.7804 1.4865 4.87777 0.101922
3753 1 7.51164 -2.86209 -21.8991 -1.97766 3.32175 1.53119
3754 1 -11.15 5.60588 7.64356 -2.94727 1.60199 2.01643
3755 1 17.7527 6.69582 -10.668 -1.2604 4.0479 2.01978
3756 1 -11.5719 -22.824 -19.8201 -4.47489 -2.32826 -1.73777
3757 1 1.04367 21.0108 0.665683 -2.66247 2.2631 0.880222
3758 1 -23.7249 -8.0358 -13.1924 -0.538261 -0.828587 4.23866
3759 1 -14.2182 7.41363 -19.9696 -0.98636 -2.69343 -1.8954
3760 1 16.7382 23.7037 3.72816 -3.1442 2.08725 -1.71188
3761 1 18.6069 -10.8644 -16.5626 1.86596 3.91446 -0.671064
3762 1 9.7284 -10.4665 8.04297 -2.28598 2.2177 -2.66151
3763 1 12.4208 10.3988 7.79564 2.05659 -0.0872117 4.69046
3764 1 15.2042 -9.54354 19.4241 -0.280192 0.959224 -1.97239
3765 1 -24.2071 -24.5657 -2.42004 -2.57161 2.19935 -1.14232
3766 1 -12.6539 19.1896 13.8483 -0.283695 1.1347 -3.96066
3767 1 -11.8595 -22.6658 2.08054 -0.230576 -3.85462 -5.91507
3768 1 -2.69083 5.22711 -15.6454 -2.39927 -4.58696 -6.21604
3769 1 -22.0217 -16.9193 8.70888 -0.241481 -3.20573 0.434622
3770 1 -7.32611 -5.24154 4.87052 2.48253 -1.90867 -0.879164
3771 1 -15.6383 18.5396 19.869 -3.2571 -2.97528 -4.23491
3772 1 15.5214 -13.8482 -3.32752 -5.41294 -1.35923 1.3455
3773 1 1.17889 -3.19106 15.2195 4.23013 -2.13421 -3.14991
3774 1 -5.89141 12.2296 5.15269 3.86527 2.23907 -3.71879
3775 1 3.47668 -2.93499 -10.9779 -0.139916 3.44577 0.339054
3776 1 8.71276 -5.65827 17.8675 -0.0950002 -3.66713 1.74371
3777 1 10.1052 -7.25551 -1.18146 -0.502105 2.39764 0.468333
3778 1 5.07823 15.0224 -10.573 -1.88181 4.69575 1.9342
3779 1 -8.55212 0.335564 6.43038 -0.0195012 1.28337 -0.95995
3780 1 21.652 18.3733 -15.947 -2.65118 -0.99742 -0.649294
3781 1 -6.39331 -3.74458 7.2908 -2.3519 -0.0754953 -2.91926
3782 1 -0.118972 -15.1311 -17.8417 -2.32942 -1.21231 -3.3048
3783 1 21.726 18.4292 4.20526 -5.30101 0.866108 -0.676107
3784 1 14.1579 -0.425656 2.70369 1.23473 -0.710324 1.75842
3785 1 -3.25788 -24.2307 23.9385 -0.327298 -3.27112 0.494423
3786 1 20.3626 7.09481 17.1694 6.77875 -1.42884 2.9506
3787 1 10.5774 23.0666 -18.3115 -0.192497 2.09863 0.83831
3788 1 8.47851 14.9428 6.75265 3.7323 -5.18661 3.03679
3789 1 20.1534 25.5208 -14.3415 -1.38178 2.91637 -5.45992
3790 1 4.9703 -18.5879 0.0105627 0.961642 2.68511 1.77261
3791 1 -9.3608 16.4245 -11.1695 1.12796 -0.340864 -2.13034
3792 1 -9.72601 -8.02992 11.0634 -5.01089 0.198308 0.708988
3793 1 -14.5257 21.5652 2.41343 0.998427 -0.471352 -1.04266
3794 1 -2.14266 -22.1978 -10.0157 -1.13244 2.4387 -1.93667
3795 1 15.0768 24.0101 21.4931 -0.479185 -1.27468 1.81835
3796 1 -12.9635 -13.4153 -10.0533 -1.23395 0.118415 -2.39288
3797 1 -15.2743 -14.5333 7.41036 -5.35154 -1.82559 3.40995
3798 1 4.01525 2.53609 -1.36698 0.691687 -5.77107 0.632632
3799 1 20.5358 20.782 -8.703 4.33067 2.95001 0.0905837
3800 1 13.226 2.07841 -2.32973 0.456541 0.873837 8.57981
3801 1 3.44076 16.1881 -8.58068 3.38768 -0.487716 0.975553
3802 1 6.54235 0.138881 23.832 -0.473263 -4.25381 4.32994
3803 1 -17.372 -4.65906 -23.5069 0.0274332 2.7929 -0.948288
3804 1 14.3058 15.9008 11.2963 -5.52404 -5.34313 0.634642
3805 1 -5.55721 16.3117 -17.0214 -3.42439 1.47449 0.686232
3806 1 0.00161426 0.557168 -3.71515 -2.78773 -2.84394 -0.783662
3807 1 -7.51874 20.5446 -19.0445 -0.454787 -2.4575 -0.74397
3808 1 9.63983 -13.237 -22.0391 7.36366 0.476515 -1.50826
3809 1 3.98208 -22.0058 -19.2408 1.54095 0.064951 -1.54058
3810 1 -19.0606 -3.7212 14.0581 3.89615 -0.610338 0.547287
3811 1 14.0218 -15.4917 -23.3083 0.593219 -2.20105 2.35143
3812 1 -4.84596 -15.9527 0.0259529 0.872893 -1.2577 -0.819644
3813 1 15.9755 5.70857 -1.53868 -0.795153 0.36797 -0.581209
3814 1 3.30222 8.45021 11.8712 1.48067 0.406863 -1.42603
3815 1 -0.311875 18.0187 22.74 2.7011 1.63817 1.70321
3816 1 -13.6397 -7.79176 5.00087 0.7175 5.54239 -3.26944
3817 1 10.6054 8.95992 -1.09528 0.402539 4.23135 -5.44808
3818 1 12.5828 17.1316 23.917 4.89477 7.41386 2.15603
3819 1 3.57029 22.9359 14.8396 1.72141 4.04627 -3.23339
3820 1 22.8217 13.1067 -6.52324 -5.25667 -1.04154 -1.02334
3821 1 10.0201 -12.5425 14.1782 4.89045 1.30027 -0.0381255
3822 1 10.2577 6.04457 9.60307 -1.36358 0.123891 -1.27235
3823 1 -5.62238 -19.0803 -10.3871 3.64241 -0.652754 -1.24365
3824 1 -8.39776 -23.8607 -6.57933 3.46083 3.54841 -4.22355
3825 1 21.1151 -12.3821 11.3777 -1.19995 0.126664 -3.41456
3826 1 -0.407779 17.4922 -15.2256 -0.465671 7.54084 1.10938
3827 1 -1.58578 7.42683 19.5786 -0.617134 -0.524334 1.6823
3828 1 -19.0781 17.2983 -19.43 3.73973 4.30868 -2.13196
3829 1 -12.2591 -18.3876 -5.74382 -6.90798 -3.5167 3.09812
3830 1 17.1332 -12.3118 -12.7964 2.29033 -1.56082 2.38963
3831 1 -1.81828 21.641 0.0523755 0.833606 0.763256 -4.02714
3832 1 21.6524 -1.82306 3.55005 -0.619572 -0.130897 1.63029
3833 1 20.1349 0.0996351 -10.8814 1.98387 -4.43808 -1.30319
3834 1 7.94447 5.48678 4.76402 -3.66436 1.57105 3.27841
3835 1 21.2215 -24.1711 -2.20532 1.32684 -2.06585 4.71944
3836 1 22.9249 14.0585 -0.168723 0.876973 -1.80339 -4.38712
3837 1 12.5489 14.3549 4.93688 -2.9356 -1.95814 4.6429
3838 1 -7.17707 4.056 -3.56729 1.947 1.75934 3.34812
3839 1 17.6629 4.95086 1.80476 1.23969 3.42201 0.35991
3840 1 -10.904 -21.4004 12.7216 4.29672 1.07562 -0.016711
3841 1 22.7355 4.29469 10.2642 3.27626 -0.0930128 2.16604
3842 1 22.7091 0.631795 20.2231 0.423325 -1.29381 -0.0982962
3843 1 -1.14625 -15.5252 14.1695 -1.55879 2.30132 1.65841
3844 1 -21.6226 -13.3989 7.09459 -1.60996 -1.88515 -0.273578
3845 1 -5.07431 3.90592 -22.5238 0.376508 3.64296 -0.0105143
3846 1 -21.8254 23.6356 19.9554 -1.26617 1.37839 -5.58518
3847 1 -17.3309 -18.8063 -13.2797 0.383077 1.1916 5.93941
3848 1 5.75673 -13.6245 6.17332 0.182777 0.937802 1.11898
3849 1 17.9798 12.7916 -21.0584 4.98633 1.94092 -3.97559
3850 1 19.5459 -21.3376 21.9885 0.569979 -2.58918 -7.21186
3851 1 -3.05976 5.386 -3.77417 0.115107 -4.85558 0.553658
3852 1 -4.93956 18.5148 14.8888 1.30715 1.18474 4.69423
3853 1 20.6306 -11.9871 3.61483 -0.0995028 -1.59522 -1.75828
3854 1 17.1724 13.7047 -2.30586 1.45801 0.404429 2.14776
3855 1 -2.50691 -5.53589 23.2198 0.18238 4.49108 -4.63569
3856 1 13.0166 -18.9405 -3.80589 1.52392 1.47566 0.383288
3857 1 -12.8641 45.8263 -11.6104 -1.12906 2.29324 -0.195215
3858 1 16.6834 6.9695 6.72246 2.36918 -1.57846 -3.03143
3859 1 22.3458 18.4779 10.6707 -4.53458 -0.9583 2.09496
3860 1 14.5914 -15.451 -15.8712 -0.501647 3.27576 1.12204
3861 1 -19.2123 -12.5415 20.625 -6.26945 1.47548 -0.198918
3862 1 -2.09673 0.593627 -17.8043 -6.74491 -0.884267 0.983312
3863 1 -14.3415 -3.31988 13.6669 -0.354285 1.55593 0.560181
3864 1 -3.2411 -3.41222 -15.1811 0.266433 -0.485103 1.01054
3865 1 1.93139 -23.0524 15.3361 2.59425 -4.58179 0.741972
3866 1 11.1815 -13.2357 5.15606 -1.27977 2.95571 -0.574411
3867 1 -23.8552 1.16899 2.06066 -1.91292 -2.81185 1.76143
3868 1 6.48595 5.35105 -1.53859 1.75241 -5.57125 5.53757
3869 1 -8.2891 5.1414 6.89495 -0.257182 -3.25686 -0.778755
3870 1 16.4661 -21.7791 -9.8774 -3.12583 -0.165522 3.62724
3871 1 17.5422 1.72209 19.2695 -3.37842 2.77811 2.1142
3872 1 21.9223 -23.694 -8.67493 1.54966 -3.21065 0.77823
3873 1 -4.3521 6.1011 13.5175 0.0759369 1.99913 1.06453
3874 1 -18.7859 -23.7222 -14.7703 0.397705 2.81316 -5.72781
3875 1 21.8217 1.53347 6.61771 -0.878411 1.36081 -4.90817
3876 1 -22.7147 -12.0911 20.5028 -3.99692 3.57034 -1.49793
3877 1 -23.1024 2.79255 -2.82428 2.86133 3.1481 -2.02487
3878 1 7.97019 -16.3798 7.97163 -0.687183 -3.64086 2.23329
3879 1 16.4997 -18.306 22.2332 -2.48386 -4.79711 0.546022
3880 1 -8.11968 19.0299 -23.2279 0.502529 3.38394 -0.109601
3881 1 -14.5838 0.0322483 -12.688 -1.3054 -1.16988 -3.07169
3882 1 23.6152 19.7344 -3.23655 1.66912 -6.09782 1.39937
3883 1 19.6857 13.7877 -12.2804 -1.75112 -1.46976 -1.68226
3884 1 12.6136 -18.6715 -6.76579 -3.60844 1.67569 1.50897
3885 1 12.3967 25.1344 14.7036 1.32893 3.02867 -4.76489
3886 1 -12.9403 -15.3139 -6.23545 1.04218 1.97446 2.4177
3887 1 -0.226548 -13.0106 -19.6561 1.99098 -0.655223 -0.24744
3888 1 -7.79509 6.78058 -18.1761 -1.50569 0.565143 4.3853
3889 1 -15.9034 16.1856 18.3674 1.08695 1.79256 0.382122
3890 1 0.775248 18.5437 14.2526 0.191025 -0.365168 -3.17989
3891 1 5.19144 -15.8858 17.8364 0.608316 0.592581 -1.72396
3892 1 -11.7666 21.7054 6.84449 3.73028 2.95116 2.17643
3893 1 -7.1574 10.9457 10.4078 1.29367 -1.07229 0.794786
3894 1 10.6395 12.5127 -12.6306 -2.99953 1.75603 -2.22923
3895 1 12.2124 -5.62673 0.206431 -0.238756 5.91095 4.4186
3896 1 -8.88726 -9.04429 -1.3516 3.522 1.71229 4.14057
3897 1 6.23955 15.194 23.3624 0.81386 -1.51702 -2.76577
3898 1 17.3623 -1.99294 15.691 -1.08301 3.95315 -0.391065
3899 1 6.15591 10.2688 16.0008 -2.85803 -1.0673 1.52096
3900 1 12.7779 -18.4624 -12.8279 -3.8798 1.05374 -5.21946
3901 1 -15.8729 14.3059 -12.5925 1.64935 -1.91124 -1.50508
3902 1 11.5965 12.1019 -5.97046 3.97908 -3.01598 -1.80018
3903 1 -18.072 -14.748 3.67741 6.66126 0.972224 0.456475
3904 1 11.4832 -6.96832 -8.71382 1.81123 0.588947 1.59328
3905 1 0.516262 -10.3017 3.98862 -0.730801 -1.27397 -2.11176
3906 1 -16.887 7.16689 -7.68184 0.892421 1.7479 0.400318
3907 1 -21.5031 0.0232676 9.63286 -2.35706 -1.90222 -0.552662
3908 1 22.6639 -13.278 15.7314 2.89942 2.92016 2.1999
3909 1 1.62515 -10.3714 19.8327 2.66739 4.24312 -0.483955
3910 1 -8.77636 17.5325 -6.6147 5.39618 3.57709 -4.25027
3911 1 22.71 18.6225 0.0807504 2.6738 3.66354 2.61683
3912 1 -10.976 -9.97768 0.286909 6.40161 -2.01579 -3.65503
3913 1 -9.42096 5.81043 0.426488 2.81145 7.60896 1.09104
3914 1 11.4818 -10.3438 -5.50126 -0.43019 2.26796 -1.9152
3915 1 7.12687 -1.01017 7.87843 -3.04929 -1.23188 -3.57716
3916 1 22.0752 -11.3253 22.2375 -3.37071 -0.188636 1.7044
3917 1 2.18418 -6.47109 -8.61441 3.3784 2.33055 -4.98262
3918 1 11.8233 10.2874 -17.9389 -2.62629 -0.728924 -1.83222
3919 1 7.39354 -14.2745 18.4789 -0.131922 1.81787 -3.14067
3920 1 -9.93214 10.7008 17.4779 -2.824 4.21377 -0.138204
3921 1 17.658 7.32175 -17.1142 -3.1092 -6.90165 -3.45235
3922 1 -17.7522 -15.1135 -19.287 -1.97371 -2.48661 -2.52334
3923 1 -21.6896 5.01925 -12.7974 -1.92517 1.1608 3.55255
3924 1 -11.2321 -5.06632 8.56195 -1.19761 -1.54489 -0.459099
3925 1 -22.6246 4.56248 2.13809 4.59696 3.46465 -1.29913
3926 1 9.20298 -3.38819 22.4368 -3.67582 -1.1436 0.393905
3927 1 13.3429 15.3887 -1.40717 2.70509 1.47404 -0.103558
3928 1 -17.8513 16.2437 23.4222 -2.12613 1.83937 -0.680361
3929 1 -0.983732 11.2869 -10.3909 1.91038 0.826953 0.61826
3930 1 15.0412 19.787 0.401382 3.23926 0.192246 -1.15968
3931 1 -1.88966 11.0064 0.88184 2.09754 1.72559 -3.59061
3932 1 22.3094 6.1594 12.1942 -4.47107 0.374577 -3.34211
3933 1 -3.85349 -9.26444 21.3226 -0.0475798 1.37687 0.339951
3934 1 22.0004 3.61705 -13.1342 -0.386553 1.61907 -3.55678
3935 1 12.0066 -14.7207 -20.7175 0.802204 -2.03063 -0.263951
3936 1 -0.463055 -24.0535 22.7845 0.52432 -0.155698 0.62641
3937 1 14.8693 -14.3651 -20.02 -7.18266 -1.36699 -1.53316
3938 1 18.9973 12.4652 17.8154 2.20358 -2.58076 4.32658
3939 1 21.61 -0.726942 13.9587 -0.782492 -2.26524 -2.80182
3940 1 -2.59815 23.2293 -6.07747 5.09639 -2.35335 1.80601
3941 1 -18.5198 3.56347 -22.7656 1.9418 0.109097 0.175052
3942 1 10.2108 -21.8429 15.7686 1.97838 4.34683 -0.422589
3943 1 -19.0322 -22.1919 1.34974 -3.00804 0.920081 -4.85934
3944 1 -13.8553 -8.68438 -14.5843 4.84224 -0.987331 1.81812
3945 1 -19.6351 -13.9703 -17.1905 -1.37125 -4.96766 2.26259
3946 1 -6.13544 14.7358 9.64426 -0.577493 2.66964 -0.112151
3947 1 -23.6364 8.08637 -22.4328 3.51071 0.189729 2.90365
3948 1 10.6599 17.0846 -17.5448 2.85199 -1.88039 1.69662
3949 1 3.59545 -13.0648 -12.8076 0.562241 0.816353 1.91165
3950 1 -4.04256 0.773135 -19.9748 2.15769 -1.75731 -2.74815
3951 1 5.25143 1.87014 -13.0406 -1.37952 -0.314627 -2.27573
3952 1 -5.24577 -4.42571 -17.4069 0.41399 -0.882641 -6.61913
3953 1 20.9466 -17.3897 12.9934 -2.84488 -1.43198 3.93618
3954 1 4.23745 3.63045 -17.7481 -0.17863 0.968642 -2.29428
3955 1 -7.55779 20.1506 11.4854 -0.687346 0.959657 -1.32761
3956 1 -13.4756 12.3856 -5.25905 -2.00298 2.37762 -0.801662
3957 1 17.2917 -22.9529 -17.7954 -2.71696 -1.00612 1.43834
3958 1 -2.53555 6.01254 -7.57383 -1.54034 -7.46084 -2.03645
3959 1 -20.2355 -5.48521 -20.3275 4.63934 1.98883 -4.93589
3960 1 21.0779 -15.5056 -11.9622 -2.94865 1.38721 -2.43862
3961 1 -1.09962 -19.7469 -4.04898 -0.576125 1.79055 3.16585
3962 1 0.251396 -13.8448 4.79526 -2.10131 -3.69759 -0.574182
3963 1 -15.8758 -17.6005 -3.05315 -0.312839 2.69741 3.1135
3964 1 7.90265 12.1916 17.493 -1.589 1.60256 -1.11279
3965 1 -5.77587 2.89715 0.927258 3.23076 0.0337793 -2.71984
3966 1 -19.5296 20.0366 7.94179 2.52781 -4.60452 3.34858
3967 1 1.48587 -7.91659 -4.92291 1.49376 1.81813 0.915201
3968 1 -2.39615 1.33696 -5.14455 0.223453 0.725308 4.14618
3969 1 16.9455 -23.7616 19.4649 -2.94967 2.25583 -0.661644
3970 1 -5.62959 20.7758 21.1367 0.529467 -0.110386 2.32848
3971 1 -3.70958 -2.46961 21.3548 -1.18793 3.48467 7.27921
3972 1 -5.62078 -10.0129 -11.7063 5.51235 -0.926785 2.69294
3973 1 -11.4661 -21.7515 -6.30276 4.85673 1.61843 -0.794391
3974 1 6.58387 23.1074 14.7984 -0.931337 2.05576 1.75323
3975 1 5.66085 -0.673989 -17.7531 -0.198149 -0.923518 -0.389667
3976 1 -2.55943 14.3552 2.18781 -3.24146 -7.7264 1.06626
3977 1 -9.0953 -17.9913 -18.6696 -2.04294 3.26773 -4.32399
3978 1 -1.8649 19.3353 -12.3829 3.4388 -5.15942 0.858671
3979 1 -10.1716 -23.6328 3.97244 5.60135 -1.76144 5.26549
3980 1 -22.3879 -18.6838 -13.8773 -0.63125 -0.428188 6.94763
3981 1 11.7518 -8.75466 4.17887 -1.01918 -1.29551 1.16264
3982 1 7.45171 -3.69634 -3.74868 -2.4401 2.23181 0.406986
3983 1 -22.8942 9.57793 9.75963 0.254809 -2.62541 3.05684
3984 1 -5.772 14.377 -19.0376 5.33368 3.5646 1.53106
3985 1 -12.0241 19.0507 7.6207 1.93023 -5.15099 -4.21496
3986 1 16.5831 20.0481 -15.8955 2.79922 -2.03681 -2.21637
3987 1 13.9479 16.0682 18.0596 -3.86407 0.490447 -6.42093
3988 1 -23.7638 19.3612 19.742 -2.84005 2.26236 -1.41374
3989 1 -14.8623 -11.339 -14.1004 -2.81175 -2.26252 5.56467
3990 1 7.98513 5.40201 -21.877 2.68682 -2.10641 2.76231
3991 1 -17.946 8.58087 -23.8114 2.27056 -0.422152 1.61442
3992 1 21.9009 9.41504 -3.72187 1.149 -2.59999 2.2289
3993 1 -6.7892 -12.7108 -5.56996 3.41535 -2.65073 4.08228
3994 1 -15.7825 -22.9636 -20.4776 2.52892 1.60363 1.65936
3995 1 5.0077 -23.1548 2.00938 -0.864156 2.88219 2.4606
3996 1 4.64862 -12.6348 3.8727 1.32761 1.87386 3.1877
3997 1 17.3708 -24.142 -11.7724 2.32676 0.748003 -1.87922
3998 1 -11.3517 -2.936 -0.0582825 3.79496 4.56694 4.09802
3999 1 -7.01532 17.1983 11.1473 0.582285 6.03139 -1.03554
4000 1 -18.4094 9.89832 21.9014 -6.52611 7.74539 4.21322
4001 1 -10.6487 25.5828 -4.3973 -4.32628 -2.81962 -4.32626
4002 1 -9.37356 28.0262 -5.15401 5.04754 0.541615 0.190513
4003 1 -6.88637 27.7771 -3.90519 3.3419 4.99005 -1.54772
4004 1 -5.46986 25.3363 -5.14979 5.71116 0.286043 3.07292
4005 1 -10.3088 24.9879 -9.04336 2.86439 -1.54571 -0.133972
4006 1 -9.77521 27.6114 -7.76475 -0.38888 1.58287 3.54961
4007 1 -7.22412 27.6118 -8.68363 0.259945 2.66088 -1.88931
4008 1 -6.02719 25.015 -8.21672 -2.72464 3.837 -2.45756
4009 1 -9.44585 24.5559 3.94608 3.56262 -0.380171 1.4728
4010 1 -8.99158 26.9836 2.65702 -0.855756 4.14689 -1.28954
4011 1 -6.21868 27.7537 3.3669 2.58389 5.73391 -1.2773
4012 1 -4.18541 25.7608 2.37651 -0.664075 -1.08111 -5.22588
4013 1 -10.1242 24.8167 -1.39146 -2.60021 -0.403815 -0.444624
4014 1 -8.90247 27.246 -0.0599429 0.261469 1.80583 5.71445
4015 1 -6.28935 27.6335 -1.18478 -0.324993 -1.49214 -2.00215
4016 1 -4.42724 25.5671 -0.38596 -5.53757 3.00592 3.41857
4017 1 -9.08603 24.4999 11.0437 2.22299 -0.141546 -1.65298
4018 1 -8.42087 27.2865 10.4663 -3.30215 2.21221 -6.20736
4019 1 -5.67113 27.2465 10.0991 -3.10347 -3.73575 -1.71881
4020 1 -3.85957 25.0615 9.24513 -1.48589 -7.62849 0.861068
4021 1 -9.27639 24.9126 6.58694 -2.65094 -3.56744 3.21093
4022 1 -8.408 27.3211 7.38088 1.7248 -4.48068 -1.50309
4023 1 -5.87411 27.2579 5.99299 -0.27522 1.44802 1.18424
4024 1 -4.20701 25.1187 6.35245 0.403117 -0.625861 -1.34838
4025 1 -10.8035 29.8616 -3.66985 7.86995 -0.695548 2.56203
4026 1 -9.73194 32.1052 -4.58978 -2.8924 1.09589 -3.58805
4027 1 -6.97552 32.048 -4.31051 0.946542 0.948126 -3.7619
4028 1 -5.39718 29.8069 -5.31642 2.80692 -0.43286 3.50502
4029 1 -10.8061 29.9747 -8.87997 1.77078 1.78111 -0.662434
4030 1 -10.4194 32.2959 -7.40615 3.6953 -2.56644 7.33049
4031 1 -7.60714 32.0154 -7.40647 -2.22948 2.46968 -1.73032
4032 1 -5.82846 29.9294 -8.0598 1.47098 0.907536 4.20003
4033 1 -9.55603 29.3875 3.78803 4.10674 1.45316 -0.490646
4034 1 -8.54637 31.8542 2.81598 -2.69987 -1.18557 -3.49302
4035 1 -5.6752 32.2526 3.4529 -4.6556 2.93788 -2.22702
4036 1 -4.98119 29.9917 1.96546 1.97439 -1.76198 -4.69136
4037 1 -9.66272 29.7618 -1.06282 6.02123 -1.5311 -1.70972
4038 1 -8.85813 32.175 -0.00104412 1.88345 -1.75821 3.08123
4039 1 -6.56232 32.252 -1.41912 3.60363 -4.0319 -0.363594
4040 1 -4.88476 30.0366 -0.731601 -3.03747 1.62948 -2.27237
4041 1 -9.27114 29.7618 11.5613 1.36996 4.07957 4.40126
4042 1 -8.20558 32.0761 10.3366 2.50586 0.870602 -4.06784
4043 1 -5.41996 31.8829 10.8472 6.95968 1.6642 -2.31965
4044 1 -4.37822 29.6867 9.45329 -3.09823 3.3978 -4.09831
4045 1 -9.9165 29.4457 6.57944 -1.24734 1.97626 -3.32362
4046 1 -8.23858 31.5785 7.46624 -2.57782 -3.19947 6.26478
4047 1 -5.8036 31.9857 6.36353 -1.9542 1.86414 1.31407
4048 1 -4.32408 29.5281 6.79416 -4.07004 0.46847 1.50079
4049 1 -10.6305 34.2568 -3.20519 0.0698942 0.809004 -1.0307
4050 1 -9.80774 36.5232 -4.74667 -1.23044 -2.54005 0.843743
4051 1 -7.08803 36.5597 -3.92561 -1.47052 -3.21133 -2.086
4052 1 -5.5688 34.4959 -4.96821 0.516918 2.70745 -1.00251
4053 1 -11.2037 34.681 -8.59023 -6.11897 2.77795 3.72414
4054 1 -10.0879 37.1207 -7.73244 -2.72906 -3.50726 6.26626
4055 1 -7.58261 36.9006 -8.71609 -4.12145 3.53411 0.873274
4056 1 -6.04424 34.4876 -7.88464 8.64815 3.95011 1.19314
4057 1 -9.54106 34.0504 4.09888 1.85543 0.8756 0.710267
4058 1 -8.7772 36.5821 3.02505 3.76332 -3.53505 -4.49842
4059 1 -6.14224 36.4876 3.65384 -0.625635 -1.92327 -1.93661
4060 1 -4.9797 34.4699 2.35042 2.73223 3.49354 -0.269755
4061 1 -10.4188 34.2854 -0.418352 6.03623 2.1605 0.0843765
4062 1 -9.28197 36.8144 0.329763 -0.186809 -4.54187 3.54837
4063 1 -7.09594 36.8932 -1.30404 -1.46074 -0.837471 1.77328
4064 1 -5.53275 34.6941 -0.621798 4.3251 5.61203 -0.0594635
4065 1 -9.22526 34.4068 11.2901 -4.53065 -2.83779 -2.42241
4066 1 -7.91583 36.5537 10.0914 -0.98968 -3.26471 0.98941
4067 1 -5.16251 36.6381 10.6431 1.47783 0.93098 3.75487
4068 1 -4.10284 34.1553 9.92681 2.46061 -0.198479 2.58082
4069 1 -9.65517 33.9042 6.79079 -0.357807 1.47363 3.09541
4070 1 -8.33918 36.2312 7.54314 1.10874 1.64899 3.08781
4071 1 -5.5531 36.4227 6.39388 0.858953 -0.744927 1.41722
4072 1 -4.37416 34.2133 6.99849 -2.42182 0.0888825 6.1382
4073 1 -10.9684 38.7562 -3.41138 1.67867 3.74765 1.33919
4074 1 -10.0711 41.2524 -4.33452 -2.53438 0.704622 -0.323348
4075 1 -7.40417 41.2628 -3.66962 1.85466 -5.62653 -1.8876
4076 1 -6.10921 39.136 -4.91425 -2.67318 -1.92817 -1.81986
4077 1 -11.667 39.5309 -7.98091 -1.95751 2.42088 1.88773
4078 1 -10.2971 41.5525 -6.97275 -0.698412 4.24267 -2.70243
4079 1 -7.56352 41.8049 -7.72717 2.28774 -4.09448 6.58853
4080 1 -6.2108 39.3006 -7.80355 5.14642 -2.59526 -1.45245
4081 1 -9.82581 38.5516 4.75425 0.266218 2.86731 -1.43782
4082 1 -9.23807 40.8633 3.27962 0.943429 -1.33339 -3.82892
4083 1 -6.49027 41.1096 3.62292 -2.86725 -4.46838 4.46027
4084 1 -5.14102 38.8837 2.282 3.20675 0.722974 -2.40827
4085 1 -10.6547 39.0753 -0.709055 4.6731 -1.4632 4.76963
4086 1 -9.55756 41.1452 0.471974 -1.55771 -2.64921 3.20388
4087 1 -6.95917 41.1791 -0.844126 -0.656012 -2.15749 3.05895
4088 1 -5.41807 39.0636 -0.477906 5.83858 -4.20582 -1.26449
4089 1 -9.37727 38.9691 10.4104 -1.6873 0.26526 -5.07686
4090 1 -7.88628 41.5035 10.7785 -2.45306 -1.36111 0.944372
4091 1 -5.03814 41.1182 10.5469 3.14237 4.8841 2.30349
4092 1 -4.00143 38.8638 9.45966 -1.59214 -0.222647 -0.548649
4093 1 -9.54743 38.7862 7.45174 -2.44736 2.65778 2.59082
4094 1 -8.34383 41.4004 7.93698 2.08516 -2.3166 2.0885
4095 1 -5.89661 41.2611 6.30671 2.48959 -4.13299 1.86095
4096 1 -4.3429 38.9856 6.76688 -0.309737 -5.32194 -1.2427
4097 1 -11.5486 43.4751 -3.15155 2.07029 -0.393058 1.14041
4098 1 -10.0882 45.3491 -4.6001 -1.57939 4.41294 1.97309
4099 1 -7.48372 45.6711 -3.64884 -0.416112 3.52702 0.847638
4100 1 -5.75834 43.4029 -4.37651 -0.091862 0.43881 -3.89959
4101 1 -10.5079 44.4399 -7.19737 9.75809 1.34675 -4.12562
4102 1 -8.16928 45.8942 -7.88755 2.15541 0.444776 -0.613446
4103 1 -7.89671 46.714 -10.5526 3.42651 1.17288 -6.21544
4104 1 -6.29833 44.107 -6.97637 1.69228 -0.109878 -0.00662558
4105 1 -10.269 43.341 4.30195 -1.86197 -1.19876 -7.47102
4106 1 -9.05195 45.8156 3.23902 -4.8183 0.674517 -0.995265
4107 1 -6.30409 45.7702 4.50778 -1.15513 5.46379 0.127369
4108 1 -5.51219 43.5793 2.66404 0.844682 3.71637 -0.720935
4109 1 -10.7769 43.4241 -0.483365 3.3459 -3.91234 2.43219
4110 1 -9.71467 45.7717 0.424477 -3.4419 -3.19447 0.125915
4111 1 -7.12683 45.8969 -0.807723 -2.56158 -0.0426286 -1.49344
4112 1 -5.46455 43.6139 -0.0569764 2.82603 -1.59699 3.37266
4113 1 -8.29657 44.3133 10.898 -0.983314 5.08841 2.38216
4114 1 -5.68665 44.8298 11.6076 0.34821 -4.65294 2.34846
4115 1 -4.30438 -24.7783 11.309 1.46611 -1.76176 1.15288
4116 1 -3.87105 43.4615 10.1172 -3.33879 0.756483 0.370985
4117 1 -9.92524 43.5706 6.95775 1.12459 2.83015 3.77306
4118 1 -8.78943 45.5831 8.42412 -1.03045 -0.79918 3.95637
4119 1 -6.38348 46.0969 7.38716 1.04406 5.33701 -3.99519
4120 1 -4.87436 43.801 7.45121 2.62571 1.34633 -3.30411
4121 1 -2.65562 25.7548 -4.66314 0.0330973 -0.331949 -1.72692
4122 1 -1.43026 27.7743 -6.13385 7.83536 -0.49912 3.19654
4123 1 1.3262 27.5697 -5.35244 2.66306 0.680559 2.45836
4124 1 2.05626 24.8028 -6.26304 -3.16481 2.96863 -2.61538
4125 1 -3.13985 24.7641 -8.59146 2.47964 -3.92867 -2.57031
4126 1 -1.81828 27.2601 -9.00323 4.30324 -0.162895 -1.81972
4127 1 0.965884 27.4642 -9.78464 4.02037 3.90639 5.49878
4128 1 2.10642 25.1694 -9.13583 1.2729 -1.90563 4.50396
4129 1 -1.43406 25.4638 2.81622 1.56036 0.210333 4.66785
4130 1 -0.925292 27.9595 1.53957 4.37547 1.63424 0.987578
4131 1 1.73873 27.7211 2.21568 0.210733 0.373695 -4.0187
4132 1 2.96142 25.2819 0.949704 5.3679 0.48979 -0.0251454
4133 1 -2.19073 25.3752 -2.00782 2.578 -1.50956 -2.00986
4134 1 -1.08245 27.7318 -1.204 -2.6686 -0.151135 -4.47321
4135 1 1.37473 27.6708 -2.47332 2.53724 -0.0111521 0.205704
4136 1 2.80322 25.2619 -1.84551 -4.25249 -5.46498 1.3951
4137 1 -1.01801 25.1671 8.49233 2.01434 3.05601 4.35151
4138 1 0.0614445 27.5529 8.77915 -2.02831 -0.769188 -4.73583
4139 1 2.50141 27.906 9.66505 -1.99594 -4.27452 6.33886
4140 1 3.89005 25.4303 9.04538 0.0637571 5.28622 3.48984
4141 1 -1.42852 25.195 5.63134 -0.733776 1.16891 -0.625787
4142 1 -0.445387 27.8866 5.9651 -5.4818 1.4456 -2.27406
4143 1 2.15319 27.6594 5.14236 -2.07962 -2.81964 2.23022
4144 1 3.78348 25.6931 6.18758 -0.66812 -3.40881 -5.3781
4145 1 -2.68173 29.9098 -4.74599 1.07798 -1.26502 -4.6469
4146 1 -1.49177 32.3516 -5.65354 0.360222 4.09656 -1.23896
4147 1 1.1809 32.526 -4.86798 2.56994 1.56895 -1.43229
4148 1 2.20597 30.1938 -5.83942 -0.737156 -3.05069 3.95279
4149 1 -3.19654 29.6924 -8.91505 -0.665702 -5.50041 2.60336
4150 1 -1.87066 32.0194 -8.32898 -1.05158 2.26316 -5.12671
4151 1 0.679157 32.1825 -9.24311 3.86663 2.98876 -1.95357
4152 1 2.01917 29.7848 -8.77094 0.866643 -1.9607 1.85763
4153 1 -2.25715 30.1388 2.70296 3.00722 -2.9473 4.09506
4154 1 -0.915123 32.3764 1.67336 2.57391 2.16758 -3.08263
4155 1 1.83924 32.2668 2.73033 -2.8463 4.65081 4.1786
4156 1 2.84252 29.9716 1.28108 -1.0041 2.07828 -2.58347
4157 1 -2.34055 30.1905 -1.87173 1.83165 -1.76416 0.907208
4158 1 -1.21173 32.7001 -1.15066 3.52269 -2.39107 -0.213175
4159 1 1.72619 32.642 -1.96251 -3.56512 -0.0283781 -1.42768
4160 1 2.61215 29.9582 -1.52732 -5.3669 -2.07189 -3.04486
4161 1 -1.39149 29.538 10.0495 -1.18368 2.50751 1.20494
4162 1 -0.0703189 32.083 9.5751 1.69047 3.12466 -1.04088
4163 1 2.60741 32.3857 9.85829 0.488975 -4.36145 2.23182
4164 1 3.83873 30.3098 8.98159 -0.402409 0.798398 -4.61917
4165 1 -1.88794 30.1471 5.57139 -1.61807 0.589446 -5.22731
4166 1 -0.593608 32.3705 6.8239 -0.44307 -5.92934 0.888427
4167 1 2.04301 32.4522 5.51028 -3.70244 -1.12277 -0.26083
4168 1 3.35683 30.0437 5.99833 -5.31484 -0.0548528 -2.03009
4169 1 -2.79898 34.7049 -4.59639 0.753084 0.0567718 4.28699
4170 1 -1.87646 37.0291 -5.55655 2.2657 -1.19932 -4.13824
4171 1 0.815021 37.3322 -4.90603 0.412878 -2.39993 -0.41422
4172 1 2.05193 35.0779 -5.8531 4.26227 1.11349 1.82736
4173 1 -3.25405 34.3431 -8.68978 -2.67567 3.21649 -0.332834
4174 1 -2.21791 36.9167 -8.21041 3.87567 1.47563 4.10628
4175 1 0.281924 36.9411 -9.1959 1.57654 0.407944 -2.90045
4176 1 1.71678 34.6479 -8.72739 -1.80022 -3.81791 1.64906
4177 1 -2.23965 34.7099 2.8757 4.66552 0.703566 -1.74794
4178 1 -0.961913 37.0124 1.89512 0.0222931 -6.3781 2.19068
4179 1 1.62361 37.0605 2.56772 1.31501 1.09795 6.60582
4180 1 2.72745 34.6953 1.71009 -2.23307 5.46914 -0.954226
4181 1 -2.98593 34.7224 -1.8031 -0.853956 5.01662 -1.10457
4182 1 -1.48544 36.9443 -0.76667 -0.5758 6.86797 6.1388
4183 1 0.944342 37.1149 -2.14629 0.803466 4.23668 -0.632698
4184 1 2.50961 35.0995 -0.928821 1.08729 -2.71758 -4.18182
4185 1 -1.28954 34.3763 10.1854 1.23736 1.16695 1.84426
4186 1 -0.0991844 36.6262 9.2232 -1.39064 -0.151171 -4.86083
4187 1 2.67843 36.8433 9.47498 3.20633 -3.06894 -3.02384
4188 1 4.04805 34.6499 8.92809 6.51442 -4.65142 2.45876
4189 1 -1.96422 34.4177 5.63677 1.58061 -1.46072 2.69939
4190 1 -0.509564 36.7273 6.47634 5.22859 -0.443396 0.259118
4191 1 1.96842 36.7051 5.15694 -1.19164 -0.45324 0.419119
4192 1 3.54748 34.6526 6.0348 -3.35802 1.6027 -1.04682
4193 1 -3.40623 39.3751 -4.33641 3.35216 -2.9759 -1.17378
4194 1 -1.80065 41.4861 -5.34058 -0.372011 0.403882 1.42283
4195 1 1.01087 41.6048 -5.10816 -5.64708 -0.107448 -3.04277
4196 1 2.22529 39.3757 -6.09235 -1.34619 0.247852 4.49212
4197 1 -3.75907 39.3058 -8.56004 -0.890819 1.13545 -0.869935
4198 1 -2.28994 41.5884 -7.94777 -3.1155 -3.21893 1.28388
4199 1 -0.102189 41.5949 -9.54591 0.889099 -0.404991 -4.24844
4200 1 1.48542 39.412 -8.72588 -4.45471 -2.58423 1.00147
4201 1 -2.39597 39.1046 2.94407 3.79149 1.63334 -1.11941
4202 1 -1.34873 41.4566 2.21484 -2.106 0.219665 2.90332
4203 1 1.44021 41.6006 2.44265 -1.90893 -3.88234 3.96595
4204 1 2.61877 39.3833 1.62001 -0.82036 -0.666225 -1.95481
4205 1 -2.89476 39.1639 -1.57253 0.0957115 0.818273 -2.77505
4206 1 -1.41558 41.2721 -0.490038 -2.01556 3.04488 1.52317
4207 1 1.02304 41.6382 -2.12623 -2.65163 -7.66837 -1.40535
4208 1 2.48282 39.4136 -1.18421 3.94936 1.06662 -3.72552
4209 1 -1.34365 38.907 10.0397 4.34553 0.166488 3.60884
4210 1 0.0311425 41.146 9.091 -3.48707 1.63335 -0.0378971
4211 1 2.85913 41.5109 9.0274 -0.979651 1.74701 0.466534
4212 1 3.78036 39.0966 8.37821 4.24625 -0.785832 4.55274
4213 1 -1.87 39.3147 5.70142 3.81617 2.7433 4.0265
4214 1 -0.606629 41.7062 6.48314 -1.52235 3.52052 -5.01616
4215 1 1.94288 41.726 5.14996 -0.973755 -1.63047 1.60533
4216 1 3.23503 39.0886 5.77917 -0.456573 1.49391 1.81135
4217 1 -3.16615 43.4279 -3.84483 3.81376 0.433926 2.16705
4218 1 -2.35914 45.5925 -5.13462 -1.52075 0.661405 -3.12614
4219 1 0.552894 45.5626 -4.99067 -2.97041 -3.95917 -0.50741
4220 1 2.19277 43.8013 -6.45465 1.05444 -5.4482 3.28198
4221 1 -3.28218 44.2005 -7.55824 3.35906 -1.71533 -0.424221
4222 1 -2.07189 46.6928 -8.45075 -0.929734 -3.58041 -1.38114
4223 1 0.63752 46.8622 -9.0302 0.244327 1.53078 4.25098
4224 1 1.52394 44.0913 -9.11845 -3.05504 1.08342 2.43557
4225 1 -2.60907 43.7836 2.9429 -1.2867 1.67772 -0.512298
4226 1 -1.28978 46.1136 2.02923 1.14675 1.15223 -2.42925
4227 1 1.5771 46.1782 2.17134 -1.9295 3.98396 0.84264
4228 1 2.84482 43.6202 0.99754 -3.01347 -0.351361 2.20127
4229 1 -2.8939 43.4702 -1.06732 -0.178233 0.563215 -0.165119
4230 1 -1.49033 45.941 -0.857422 -1.00247 -1.16484 1.25502
4231 1 0.998263 46.102 -2.35495 -0.949002 -2.71403 1.72501
4232 1 2.59504 43.961 -1.71654 1.29966 -1.98383 1.15836
4233 1 -1.03153 43.3204 10.2577 1.45183 1.37445 0.364731
4234 1 0.144178 45.7193 9.78324 -0.980295 5.91736 4.5339
4235 1 3.00455 45.6818 10.2482 -0.163978 0.527357 3.87644
4236 1 4.21604 43.8502 8.58294 -0.397534 1.21301 1.34065
4237 1 -2.57967 43.7579 6.00977 2.25574 -0.516491 3.03277
4238 1 -0.699024 45.8807 6.87058 2.93224 -1.61301 -4.84861
4239 1 1.54134 46.4941 5.01094 -1.68967 0.178672 3.65171
4240 1 3.18476 44.2337 5.93328 0.508361 -4.27667 -0.471687
4241 1 4.89282 25.0512 -5.80866 1.23752 -0.961797 0.230107
4242 1 6.44556 27.4696 -6.41826 -1.56718 0.170435 -1.20729
4243 1 9.14872 28.1743 -5.67205 0.107073 3.31632 2.39163
4244 1 10.7053 25.8298 -6.52794 -1.27284 1.43645 -1.67894
4245 1 4.84763 25.1962 -10.0209 2.67726 0.397595 0.473237
4246 1 6.31296 27.6689 -9.25264 -5.83771 0.865058 -0.163431
4247 1 8.90978 27.1793 -10.3188 2.9797 -1.08052 4.48542
4248 1 10.1741 24.8089 -9.55389 -3.12907 -6.05279 -4.5463
4249 1 5.75895 25.0236 1.93125 3.11628 0.986677 -3.27328
4250 1 6.65574 27.5758 0.88809 1.00436 2.31447 -3.46573
4251 1 9.22731 27.7374 1.90772 -0.376174 -0.0843929 0.978114
4252 1 10.9271 25.9374 0.48499 1.1164 -2.30856 -0.759792
4253 1 5.48254 25.3712 -3.09442 -4.53273 -2.4628 0.991566
4254 1 6.50491 27.7464 -1.79672 -2.23923 1.81258 4.01677
4255 1 9.13209 27.8972 -2.81168 1.48834 -4.73436 4.13807
4256 1 10.8004 25.7584 -2.40095 0.0693931 -2.34752 2.21911
4257 1 6.57353 25.16 9.54275 3.33333 5.01606 0.917202
4258 1 7.92475 27.4939 8.45451 -2.09004 -3.59662 5.80427
4259 1 10.4304 27.4411 9.50113 -0.610865 -1.15994 0.737313
4260 1 12.696 26.889 7.82112 3.35973 -2.99167 -1.84152
4261 1 6.36472 25.199 4.63838 6.06474 3.71358 3.84972
4262 1 7.39429 27.549 5.78989 1.66886 1.09865 0.410591
4263 1 10.0256 27.6941 4.4199 -2.89221 -4.88533 -1.19316
4264 1 11.4951 25.6523 5.46138 -0.939249 -1.17565 -0.192673
4265 1 5.07908 29.8806 -5.59884 -3.42082 -2.44461 0.556759
4266 1 6.21979 32.1249 -6.20086 -8.00815 2.59649 0.468204
4267 1 8.98278 32.6568 -5.65527 -3.75597 -1.25224 4.00202
4268 1 9.55772 30.4117 -7.04362 1.2963 -2.14041 -3.50787
4269 1 4.75367 29.9309 -9.3964 3.37386 1.85074 0.827301
4270 1 5.97546 32.378 -9.04383 -2.17116 0.690305 -1.18003
4271 1 8.21059 31.899 -10.6159 -1.1408 -0.072688 1.4373
4272 1 9.55624 29.8036 -9.78008 -2.19905 -1.92888 -3.38724
4273 1 5.53019 30.0327 1.99401 3.7527 4.24662 1.35618
4274 1 6.41646 32.5007 1.03263 -2.58895 -2.60437 0.678114
4275 1 9.10067 32.6005 1.63384 0.0937989 -2.28321 -0.821648
4276 1 10.0358 30.1476 1.20392 4.10055 -1.7572 -3.37795
4277 1 5.415 30.2035 -2.7661 1.79452 -0.170779 -1.0311
4278 1 6.52194 32.5907 -1.8323 -4.22416 0.822888 -2.92118
4279 1 9.14213 32.6277 -2.64445 -2.56731 -2.98764 1.84442
4280 1 10.1494 30.2246 -1.72569 -2.80074 -3.38526 -0.377879
4281 1 6.55551 30.1769 9.08145 -0.769745 0.848752 -5.997
4282 1 8.06811 32.4036 8.37322 2.03926 -0.71262 2.5132
4283 1 10.8257 32.288 9.01901 -4.35681 -1.13987 1.34159
4284 1 11.5256 29.8015 8.04458 -3.13727 -0.671834 -2.70939
4285 1 5.83171 29.7305 4.74053 1.12348 -0.861191 -2.92541
4286 1 7.10542 32.3893 5.69646 0.269638 1.37103 1.48223
4287 1 9.65712 32.5538 4.49833 2.40739 -0.312903 -0.76365
4288 1 11.1523 30.2104 5.30757 2.95889 -1.29901 4.661
4289 1 4.92593 34.6609 -5.64657 1.37719 -4.30154 1.82174
4290 1 5.83389 37.121 -6.49158 -2.57124 -0.574484 0.226272
4291 1 8.48301 36.9421 -6.26073 2.30576 1.75946 -2.03784
4292 1 9.34409 34.6992 -7.69112 -0.622424 2.94625 -2.45433
4293 1 4.30689 34.54 -9.51577 1.14643 -3.26093 2.72919
4294 1 5.3527 37.1282 -9.4192 0.199188 2.583 -0.240384
4295 1 7.79743 37.0729 -10.7408 -4.42503 -3.37471 -2.88825
4296 1 9.10901 34.5665 -10.6055 0.42076 2.66035 3.37757
4297 1 5.31745 34.7239 2.28942 0.0853571 -5.54829 -1.40378
4298 1 6.54191 36.907 1.04041 1.22821 -1.81225 0.0235043
4299 1 9.21069 37.198 1.81908 0.162699 5.83274 4.26235
4300 1 10.3905 34.6727 0.503272 0.296949 -1.32531 -0.777207
4301 1 5.02729 34.8304 -2.53375 2.32279 -2.11365 -2.98678
4302 1 6.1394 37.0678 -1.74537 -2.13856 3.96084 0.903325
4303 1 8.42475 37.0911 -3.51974 -2.78917 -1.01772 -3.99175
4304 1 9.94611 35.1787 -2.22855 -0.187138 -5.8061 -2.61503
4305 1 6.71992 34.7255 8.98584 -1.25405 -0.979839 0.997041
4306 1 7.81718 37.0036 8.32353 -0.68447 1.3092 3.55824
4307 1 10.6194 36.7929 8.5707 4.11726 4.39376 3.97725
4308 1 12.1582 34.5899 7.96499 -3.79358 -2.08154 -1.83317
4309 1 5.97943 34.6742 4.89438 0.940107 0.646235 -2.05235
4310 1 7.03425 37.1415 5.49337 4.0146 0.459813 -0.183182
4311 1 9.72418 37.2076 4.5377 -0.853062 0.601177 -1.64518
4312 1 10.9825 34.8946 5.28668 -0.0587216 -0.527522 4.22675
4313 1 4.87028 39.5184 -5.47308 0.147882 4.97438 -6.68631
4314 1 6.11944 41.6258 -6.74009 -0.242125 1.07087 -1.08219
4315 1 9.11243 41.3865 -6.05403 2.63163 -0.384397 2.16339
4316 1 9.75031 39.1612 -7.42225 -0.615987 -4.10221 -0.0927597
4317 1 3.90579 39.4762 -10.4069 -3.09025 0.137246 -4.63264
4318 1 5.32331 41.7624 -9.63899 -0.817598 -1.41674 5.60749
4319 1 8.05566 41.6475 -10.3841 2.36701 -2.17735 -0.75705
4320 1 9.26325 39.4042 -10.0949 -0.0465369 0.659219 1.34903
4321 1 5.37792 39.3651 2.16693 -3.86656 3.33246 5.89906
4322 1 6.51566 41.9544 0.949145 1.86903 -1.22097 1.53731
4323 1 9.12135 41.8311 1.7423 5.48415 -2.04972 -0.908278
4324 1 10.1739 39.4626 0.737452 1.02664 1.98343 0.137149
4325 1 4.82797 39.3472 -2.64999 0.510493 1.73221 0.246623
4326 1 6.62043 41.4085 -1.86282 -5.73624 1.22538 -0.885451
4327 1 9.00547 41.5621 -3.18903 2.60586 -0.189024 -0.13367
4328 1 10.0301 39.157 -2.19203 4.66435 -3.74643 -0.69122
4329 1 6.49743 39.4675 8.62314 5.27883 3.75192 -5.62245
4330 1 8.14009 41.7577 8.49595 -0.553545 -0.354829 -7.07489
4331 1 10.7491 41.6059 8.91765 -0.182937 -0.505287 0.387476
4332 1 11.4892 39.1838 7.57469 0.607313 -1.75157 2.67321
4333 1 5.84198 39.4616 4.77188 -5.1121 -2.2252 -2.43552
4334 1 7.18385 41.7232 5.8752 0.503133 3.52352 2.52697
4335 1 9.62589 41.9786 4.37215 -0.407547 -0.112448 2.88968
4336 1 11.1762 39.5513 5.01976 0.763718 -1.31807 -7.38882
4337 1 4.97325 44.0893 -5.60758 0.529202 0.627241 -2.52106
4338 1 6.90952 46.5547 -5.62674 -0.403437 3.25019 1.53105
4339 1 9.6667 46.4449 -5.74997 -2.67526 -4.97215 1.27151
4340 1 9.60359 43.8721 -7.17585 2.02538 7.11404 3.33043
4341 1 4.19858 44.3131 -9.85139 -3.61684 2.84111 1.51416
4342 1 5.86253 45.968 -11.2653 -1.40948 2.44724 0.56203
4343 1 8.4833 46.0145 -11.2841 -3.26775 -2.27449 5.46256
4344 1 9.55637 43.9215 -9.93433 -0.687905 -3.04388 -3.76849
4345 1 5.56048 44.262 2.09702 -3.03418 -1.00389 1.83364
4346 1 6.62517 46.6467 1.43237 0.00145341 1.61436 0.929685
4347 1 9.18954 46.0193 1.40191 -0.269485 -0.239846 -3.16216
4348 1 10.6209 43.7984 0.461985 2.4576 2.46283 -0.217058
4349 1 5.10747 43.5241 -2.77793 4.68203 -1.70345 0.95333
4350 1 6.54599 45.8341 -3.02682 5.44439 -3.34195 4.90935
4351 1 9.38795 46.3797 -2.91142 -2.07681 2.62044 2.14524
4352 1 10.5402 43.7997 -2.26774 -0.495331 -0.496763 0.454289
4353 1 6.89999 44.2042 9.02348 2.82166 -2.85126 1.46565
4354 1 7.63973 46.6707 7.89371 -0.110945 1.39437 1.16876
4355 1 9.77781 46.2713 9.90921 2.28533 -0.902112 -2.38615
4356 1 11.0545 44.2556 8.27367 -1.6234 -0.68139 -4.07562
4357 1 5.63493 44.0235 4.88333 -0.00518345 5.70604 -1.78861
4358 1 7.35777 46.2238 5.31876 -2.53332 -2.89767 -1.7816
4359 1 10.0515 46.2993 4.07457 0.456203 3.30206 -2.46332
4360 1 10.7596 44.1026 5.58397 0.749233 0.484619 0.735204
