ITEM: TIMESTEP
1300
ITEM: NUMBER OF ATOMS
4360
ITEM: BOX BOUNDS pp pp pp
-2.4601502805405296e+01 2.3792338705414522e+01
-2.4790255835494676e+01 4.7306691435494670e+01
-2.4201020611374993e+01 2.4192819011384067e+01
ITEM: ATOMS id type x y z vx vy vz
1 1 21.9214 -22.9872 12.2353 -0.85393 -1.08188 1.38197
2 1 -7.39986 14.9633 3.31466 -2.14115 -3.53097 -0.309358
3 1 3.95693 -6.65786 -23.587 2.2276 1.4969 -0.464763
4 1 1.79848 -0.841798 -7.04572 -2.11402 3.67958 -0.565845
5 1 -19.3061 -20.3912 21.194 -1.53136 1.95941 -6.56293
6 1 1.53958 15.9981 17.4619 -2.05657 3.24272 3.46979
7 1 6.45847 20.6261 6.94976 5.68068 1.8989 2.18722
8 1 -23.6731 -12.7009 -14.928 0.366622 -1.90068 0.602508
9 1 -13.0439 4.38711 3.80704 -2.22883 -3.94216 2.67031
10 1 -0.230783 -7.76697 13.9454 5.15469 3.27076 4.37157
11 1 6.80336 -10.3932 16.6946 -1.44658 1.6299 -0.244772
12 1 21.0511 -5.9583 -20.7572 4.3336 2.10747 -1.37409
13 1 -21.1441 -14.1448 13.3921 -1.53802 1.62274 -0.225836
14 1 10.7729 1.92301 -6.89876 -2.29796 0.850204 -0.861937
15 1 -3.88016 -0.112347 -13.6883 -4.45176 -1.45517 -1.79702
16 1 -18.1982 0.221646 6.18744 -3.11953 -6.54959 -0.0453049
17 1 18.4191 -7.89668 16.475 -2.84858 -3.89255 4.23655
18 1 22.2145 23.8099 3.04322 -3.32372 2.97539 -1.51401
19 1 -14.8144 23.0499 19.8826 3.46975 -0.781499 -0.241486
20 1 20.5894 2.616 20.3276 -2.6208 2.97457 0.771314
21 1 -22.8948 0.0387678 12.9038 5.63522 -3.02068 0.708572
22 1 -11.1867 -0.67324 -15.6422 -0.0277393 -0.648608 -1.12668
23 1 -9.39776 -23.9613 21.2107 2.94584 2.21619 2.13555
24 1 9.72059 19.8169 -4.37997 1.96175 7.36012 -5.60696
25 1 7.87821 24.1641 16.4309 -0.507193 -0.830968 -0.795758
26 1 -1.91824 14.968 9.80148 0.467863 -2.95959 -3.10256
27 1 -19.1583 7.91707 -2.05578 1.36436 7.85452 -1.40672
28 1 -21.2879 9.32283 2.70773 -2.73456 -0.0325707 0.871283
29 1 -8.88762 -11.5416 -9.92212 -2.41359 -7.53318 -6.4367
30 1 23.1407 -1.64908 -21.9726 -2.03154 0.807506 -4.30607
31 1 2.36447 -16.3016 -19.7204 -2.95944 3.66963 2.34957
32 1 -9.26671 12.7267 -20.6759 -2.38805 -2.45436 -0.462463
33 1 2.0825 1.93876 -13.6156 6.21924 -1.50039 0.81301
34 1 -20.2568 -22.7733 14.3752 1.16935 -2.72788 -3.0818
35 1 19.373 4.69151 11.7921 3.74255 -0.308273 -1.47343
36 1 -13.4404 19.5191 -16.8983 -1.21909 -2.56306 0.954807
37 1 -10.9498 -6.9579 -2.58738 0.24254 0.325826 -0.0923874
38 1 19.3747 11.1202 8.5866 3.26171 -1.8995 -1.69273
39 1 1.29057 8.23676 -23.0613 3.23109 -0.933255 1.32249
40 1 -1.51116 1.08838 -18.308 3.69826 0.0672739 -1.88437
41 1 5.53936 -5.96753 -10.2741 2.30975 -0.686093 -0.821655
42 1 -18.0342 -17.1538 1.08084 -0.449594 -2.02413 4.03937
43 1 -14.2348 -4.29337 2.4031 -1.29857 -2.68179 1.19038
44 1 -1.15518 -17.8382 -7.72041 3.78223 -1.85332 -4.08491
45 1 -10.7525 13.8361 -3.19251 -0.81027 1.47783 -1.58271
46 1 -22.97 -21.0055 17.5464 3.63375 4.07895 -0.588584
47 1 -6.49426 5.14945 20.6836 1.82596 -0.332567 0.0148083
48 1 7.53416 5.39419 -8.09171 1.33271 -1.47114 -0.436292
49 1 21.8761 12.0061 5.37384 -0.92934 -0.941927 -3.16235
50 1 15.9187 -20.2382 12.2888 2.32867 1.86326 0.518967
51 1 -8.44373 -2.4157 18.7681 0.933624 -0.41955 -1.99197
52 1 14.8546 2.79982 -15.2731 3.06433 -1.34549 2.80414
53 1 -2.04209 21.6183 7.49216 1.75381 2.10331 -2.14529
54 1 -17.1146 -8.87761 -9.64765 -3.00943 3.61413 -1.18578
55 1 -6.51335 -3.19578 -17.0636 -0.891245 -0.583112 -0.200305
56 1 -13.9581 6.55133 1.98186 -2.32306 -3.12677 -1.39265
57 1 -14.2108 -8.75589 -4.59639 -0.266084 0.500662 0.936525
58 1 2.57517 -21.0758 -3.89946 -0.218641 2.39228 -5.37857
59 1 -20.6205 10.9762 18.9207 -4.53206 1.37193 0.775036
60 1 0.745213 16.0957 -21.3412 -0.682877 -4.43688 -8.42962
61 1 -12.0879 -0.37047 0.929898 -1.57962 3.10457 0.868876
62 1 -2.14893 -10.8856 16.7727 0.593106 0.710019 1.27202
63 1 0.811232 11.0408 -15.6177 -2.73774 -0.0753626 -2.62079
64 1 -10.1326 -2.3931 1.57825 -2.64943 3.11694 -0.0369091
65 1 19.1444 -2.36198 9.13325 -0.837722 -3.1931 3.77292
66 1 -12.2603 -17.2272 -12.4924 -3.5245 -0.977141 -1.94435
67 1 -14.1107 23.5749 -10.2069 0.885623 -1.66972 1.88804
68 1 -0.163334 15.1717 -18.5054 -1.80486 3.95631 -1.09057
69 1 -7.77302 14.1201 8.96216 -4.5096 -1.02846 -1.10677
70 1 -16.714 14.7849 -16.2734 4.03033 2.48155 -5.09055
71 1 -10.2785 4.26783 0.787837 0.397001 1.78288 2.91468
72 1 -24.3633 15.714 20.0222 0.827789 4.69357 2.25616
73 1 -12.5255 -19.4923 13.4933 0.0737614 -3.00366 -0.952419
74 1 0.314002 13.5883 -14.1315 -2.16215 3.68391 1.62954
75 1 -18.7219 2.50547 -13.9336 -2.42753 0.683253 -1.57101
76 1 -22.9488 -3.60795 1.69321 -1.41316 -0.342408 -5.60471
77 1 14.2632 -22.5488 -1.65604 1.20922 5.49426 2.53044
78 1 -17.9711 12.3101 -8.42611 0.708384 3.3674 7.82515
79 1 -22.778 -0.401946 -15.9036 3.94729 1.16885 1.63067
80 1 -13.3433 14.2424 -12.8906 -0.660723 -0.935243 -4.97639
81 1 0.538836 -10.9717 -14.3692 1.70009 -2.33828 -2.03279
82 1 5.75501 -23.5669 5.70029 -3.08532 -1.00157 2.24102
83 1 -21.4572 11.726 -0.513941 -0.215775 1.06047 0.329997
84 1 20.915 21.6896 22.0188 2.60846 1.82046 -1.96937
85 1 6.03774 14.301 -1.80001 -5.99118 -3.9755 1.30255
86 1 12.7427 6.68314 13.8642 2.44656 -0.217843 0.5111
87 1 -1.10343 19.2537 -5.85696 0.989998 0.0573305 -3.69989
88 1 -10.8886 20.9072 -19.6748 2.43147 -1.78487 0.186708
89 1 -10.4656 -3.59226 22.8092 -2.25657 -2.28438 2.69636
90 1 7.47924 -4.78724 6.96701 2.88977 2.15415 -3.64092
91 1 16.5693 18.376 -21.0445 1.47987 3.4769 3.18483
92 1 16.9301 -23.0901 0.684296 -2.01693 1.04531 -0.22587
93 1 -20.2345 -22.2367 17.2993 -0.875248 -2.70959 -2.47387
94 1 22.6644 1.55613 -10.3705 -0.0935829 -0.281835 -3.46916
95 1 1.38613 -4.65027 -12.3418 -1.90474 -1.15602 3.32633
96 1 23.3611 -15.4144 22.0433 -1.61216 3.02519 4.87431
97 1 -7.86088 -14.1122 -21.8722 2.74809 6.4806 -1.51392
98 1 -4.54669 14.9383 10.8038 2.2276 -3.73962 1.51445
99 1 15.8281 -22.3713 -6.36884 -5.56206 1.16033 2.16706
100 1 -23.3318 -14.22 -22.7034 2.73012 2.67712 -2.0937
101 1 1.0681 -20.612 -10.0828 -0.584247 -2.69404 -4.2921
102 1 4.05308 3.35701 4.6037 4.24891 1.94935 -0.588058
103 1 19.1434 23.2391 20.2442 -2.78863 -2.53423 -6.40069
104 1 -15.5967 -22.7887 -10.67 0.790607 1.36859 -4.51764
105 1 5.4524 17.9645 -20.1843 1.47282 0.912963 -0.786437
106 1 14.3027 3.05082 8.83459 3.17722 -1.28378 -1.3726
107 1 21.203 -2.03029 16.8719 -3.18641 0.0311994 2.62947
108 1 -11.1288 2.17118 23.2086 5.92544 -2.31651 -4.10351
109 1 -12.3061 16.262 -14.7416 4.21061 4.3035 -1.18846
110 1 9.37068 -14.3608 -9.06175 -2.7039 1.14824 -1.3474
111 1 22.8483 -5.70501 -12.3032 4.90152 -2.56368 -0.986324
112 1 -17.1508 2.03629 -21.7785 2.53932 2.53473 -1.79605
113 1 -5.08706 -7.58922 19.7975 0.835345 0.80682 5.69514
114 1 -23.0898 -18.5383 19.2485 -2.95949 1.62254 -2.79075
115 1 8.18542 10.1083 5.47598 -0.786418 1.96462 -3.53707
116 1 2.72315 -14.667 -16.8621 -0.219508 3.10932 3.46211
117 1 19.1553 16.2486 -19.2927 -1.67735 -2.2845 0.266477
118 1 5.20098 -18.9274 -8.97641 -3.68023 4.15047 1.83779
119 1 14.4012 9.41781 -9.07084 -0.0732858 2.76998 -0.668163
120 1 4.63453 -2.80143 18.2482 3.92156 2.79459 -5.33425
121 1 -6.07647 -18.6681 23.5707 -1.88433 -3.45453 6.24655
122 1 -9.08039 5.47909 22.0066 0.632908 -1.52923 1.25688
123 1 11.8289 15.3928 7.11987 2.40964 -2.59923 -4.13224
124 1 21.7222 -21.6284 -15.7977 0.469347 -1.66983 -3.2758
125 1 15.1651 10.6313 -0.0278315 -1.46305 2.31104 -0.712194
126 1 -8.6917 0.701759 -6.24765 3.33665 -2.75642 -0.721389
127 1 12.1554 -3.08431 14.2795 -4.34758 0.266003 -2.69966
128 1 -20.4438 -1.61669 -10.4848 -1.02482 6.01929 1.66193
129 1 16.1638 -11.1387 4.05144 1.47753 2.17403 1.28331
130 1 -9.76154 16.1699 -19.6481 -5.34453 -0.17472 -1.88448
131 1 2.74683 -8.88348 -19.7176 -1.21106 -2.13369 -1.63089
132 1 -7.20296 -4.30038 -23.4494 2.12221 -0.867439 -5.77916
133 1 -17.8183 3.79805 17.1839 0.19884 0.401738 0.158397
134 1 19.528 -7.74799 -22.6941 -0.604792 4.26941 -1.3537
135 1 -14.1713 -5.832 -21.9431 5.00141 2.15839 0.949547
136 1 -0.808346 5.78235 -6.21191 -1.56097 5.19936 -0.653605
137 1 -10.4002 4.51154 -15.4009 -3.83234 -0.0954749 2.99646
138 1 13.3445 17.5477 5.9579 -1.80972 0.802924 4.43586
139 1 -19.1621 -19.7932 -15.7987 -2.52828 -0.629971 1.48105
140 1 2.05902 -6.99536 21.2992 -1.45296 2.16375 5.3447
141 1 12.945 -16.698 4.74015 4.58421 -1.9508 -4.92031
142 1 13.0471 2.12684 22.3256 1.1983 3.70416 -0.818796
143 1 -3.17851 -1.67612 -3.78403 -0.233846 2.24745 -4.03195
144 1 -23.5499 -9.78041 -15.1257 2.11974 -1.32003 -0.538503
145 1 16.9396 6.45979 19.8412 1.91448 -2.05207 -2.0246
146 1 -12.46 -9.73448 13.6674 0.379261 -1.21192 -1.39267
147 1 10.3775 20.5879 5.03082 5.33092 -1.13529 -1.68044
148 1 -19.2731 13.4015 10.585 4.03772 0.770389 -3.36292
149 1 -18.6922 46.6944 -20.8882 0.735766 -2.66985 4.27518
150 1 20.7369 9.04784 20.5918 -0.761541 4.09577 2.01747
151 1 18.6395 1.17243 21.8914 -1.592 0.446894 -1.88294
152 1 -6.08819 -3.62716 17.5284 1.18623 -1.8838 0.373769
153 1 9.16626 -14.6656 -3.82863 -4.22759 1.11739 0.3506
154 1 -8.49307 21.675 -5.90224 1.40398 -0.680448 2.62515
155 1 23.4316 -21.369 -20.1404 2.67146 -0.275585 -4.01618
156 1 16.0455 10.058 17.7764 -1.13924 -5.69467 -1.91541
157 1 13.4352 -13.8091 -14.8032 5.4364 -1.03678 0.0489091
158 1 10.5869 6.9372 2.79539 1.97719 0.744213 1.58183
159 1 -22.7992 -11.2251 11.2847 2.61561 0.0245267 2.27127
160 1 -4.4279 -16.6078 -4.45457 1.66754 0.569535 1.08438
161 1 18.3043 1.02946 -14.3559 -0.941952 -1.68677 1.13544
162 1 -16.03 -10.1552 19.9787 -3.64836 1.74077 0.0983705
163 1 2.29736 -1.17686 17.1914 -4.8835 -3.56343 -6.4925
164 1 18.6458 7.73115 13.8281 8.69517 4.108 -3.6049
165 1 -18.9363 11.5284 16.1572 -8.12245 0.298833 1.05832
166 1 10.4103 19.6543 -23.1563 -6.09245 2.60854 -1.27683
167 1 -11.9204 1.78741 -3.57358 -0.0122671 0.0474585 1.19164
168 1 22.6962 24.2963 -4.31372 -0.807168 -1.40747 -0.188509
169 1 3.7448 24.931 -12.7651 1.61094 -0.87236 3.07511
170 1 -5.80087 -19.4567 -13.4095 1.1227 -3.07919 1.71929
171 1 -15.2055 2.08703 14.9447 -2.40356 3.42434 -0.697542
172 1 -20.0136 19.311 -19.4962 2.55979 -0.8199 0.0841374
173 1 -22.4444 0.993385 22.4418 -0.367887 0.95937 -0.764855
174 1 -19.8718 6.3431 -21.5931 2.65478 -1.23997 -3.68731
175 1 10.3663 17.672 5.56251 3.66738 4.27297 -2.0476
176 1 -4.23593 22.1442 -3.19666 -1.93162 5.00407 2.95564
177 1 -3.8449 -20.5828 12.5076 -0.396259 -0.175583 0.735656
178 1 -17.1618 9.34682 5.2742 1.87116 -0.181545 3.07412
179 1 -6.51447 -7.55812 -13.2993 -1.68227 4.35866 0.169893
180 1 -23.9353 21.1487 10.0666 -5.16383 -1.20699 1.49172
181 1 -4.33382 -4.31251 -20.3533 1.7284 -0.387413 -1.94279
182 1 -23.2624 -1.93326 16.4454 2.66588 0.976109 -1.66294
183 1 20.7462 13.2556 -3.07018 0.0823177 0.590553 -1.08497
184 1 5.12927 -23.1187 -22.4478 2.06734 1.44529 -4.24731
185 1 20.1628 21.7322 15.3974 -2.25323 4.86068 -1.54234
186 1 13.8027 23.7712 -9.90956 2.78751 0.163347 -1.85137
187 1 -11.0902 7.81335 -6.57233 -1.93974 1.89654 2.37207
188 1 7.16415 -23.4467 -4.17406 -2.70508 -0.226468 1.71321
189 1 -4.27513 -5.14829 2.8548 4.27294 0.465406 3.58013
190 1 -15.5696 10.2741 -13.5023 -2.3542 3.08199 4.07785
191 1 4.53354 -2.65656 -24.0511 -4.6762 -1.0764 -6.40897
192 1 8.69462 5.35252 -2.53656 -0.0283482 3.44281 1.25335
193 1 9.36142 0.557812 3.87619 -0.129971 -6.0567 -3.66366
194 1 1.14113 25.3076 -21.5743 -2.00606 3.58861 -1.21709
195 1 7.67181 -1.16112 -7.87264 2.64274 -1.50313 -4.35348
196 1 -16.9883 22.8445 5.47211 2.88087 -1.09996 -8.54527
197 1 -23.845 -3.78286 23.6888 -5.71149 0.757731 -3.08183
198 1 -11.4269 -20.9151 -17.5248 -3.44511 3.53278 -0.597119
199 1 -23.1226 -4.39395 -11.039 2.34268 -3.16054 -2.32033
200 1 14.9728 7.58127 -16.4186 5.39194 -3.35948 1.70375
201 1 6.38788 2.70945 -23.9253 -0.309586 -1.43066 -7.85119
202 1 10.8063 13.7434 12.9944 0.660167 1.3111 1.23478
203 1 -23.1016 19.6495 7.61008 4.74211 -3.82297 -0.761791
204 1 -6.92078 -14.4351 -9.27768 -2.60684 -1.12584 4.02852
205 1 19.3558 -6.11487 10.1354 1.94482 -2.45225 -0.0937939
206 1 -3.22152 -14.7886 -18.999 -0.825234 5.73817 -2.79713
207 1 -6.94784 7.13487 -23.8411 2.30969 -3.64959 -1.18666
208 1 2.436 -5.74062 16.0534 1.81551 -4.73172 -1.80213
209 1 -6.8177 17.0541 -15.8483 -5.64747 2.38813 -2.21231
210 1 -19.1064 10.8474 -1.56792 3.86215 -2.29664 -1.6433
211 1 15.251 0.428353 7.07142 -0.792165 -4.80246 -3.12229
212 1 -15.7213 24.3997 -4.42923 1.12742 -1.30649 -1.8689
213 1 -21.8498 -20.0094 -3.60398 1.1559 -2.43811 2.83133
214 1 16.8065 -4.25899 -20.741 0.974672 -1.61833 4.59602
215 1 9.31626 21.8687 16.3889 -1.80914 -2.47233 -2.16839
216 1 -18.3877 47.0945 7.49771 0.547301 0.162409 -0.828136
217 1 4.61761 22.1629 8.59149 1.19034 1.07748 3.34651
218 1 12.3778 3.91549 -2.9608 2.54517 2.14213 1.63898
219 1 -5.49635 24.2369 21.9353 -0.549234 -4.71438 1.92172
220 1 5.25618 19.6433 15.89 -4.14478 -1.4364 4.19921
221 1 -15.8767 2.58013 -3.60867 -1.92187 -5.51796 -1.16895
222 1 -11.2577 -9.27779 -0.577421 -1.05243 0.908151 0.560415
223 1 -22.3291 -5.9514 -0.0534583 2.35052 -4.29042 -1.86549
224 1 -12.8214 -2.32453 -24.2209 1.17245 0.258425 -1.35162
225 1 3.77978 -13.6719 -5.77538 0.894775 -1.8505 0.00648234
226 1 23.4572 16.1284 -14.2832 -3.52357 -2.11748 -2.154
227 1 16.4685 17.9801 2.28167 5.67985 -2.77088 4.5927
228 1 -10.7835 19.5898 0.924741 -2.3546 3.73983 7.61641
229 1 10.912 11.5131 -9.47669 -0.110296 1.23555 -1.76183
230 1 -8.21481 13.7865 20.6154 0.423938 -3.75551 -0.220497
231 1 -23.2616 -3.42229 -20.9648 3.15552 2.34723 -2.88361
232 1 -3.09599 -14.4254 11.8819 1.522 -1.25138 -2.9133
233 1 -12.4717 15.8728 12.1683 -1.52694 2.5576 -1.12941
234 1 -7.15704 18.8855 7.50451 5.03879 1.47292 -2.82192
235 1 -22.6035 -0.928483 -9.1408 2.37928 -2.27228 2.3454
236 1 16.4334 -9.30494 7.92729 0.234423 -4.60512 -2.04183
237 1 -16.5401 20.4863 1.36941 5.19975 1.69647 1.95526
238 1 17.631 -1.71634 23.9683 -4.31564 3.60257 -2.739
239 1 -20.9606 18.7806 17.0812 1.52601 -1.82292 -0.872633
240 1 11.2193 1.42184 15.7551 -3.90386 -5.07145 -2.62269
241 1 -22.7247 -15.3 11.1078 1.85026 -1.77228 -5.54818
242 1 -8.50917 -4.58733 -12.9844 0.737229 5.13696 2.64216
243 1 -7.62831 -8.4767 12.5737 -2.5048 -1.27194 -2.32973
244 1 -19.5252 11.8914 23.9149 3.55124 -0.408395 0.452645
245 1 -9.86031 23.3505 -11.7188 0.908709 -0.533372 2.22964
246 1 10.3399 3.24298 21.4843 4.65283 1.31198 -1.57464
247 1 -24.3286 -6.1909 13.348 1.734 -0.146401 1.76342
248 1 -17.7335 8.04729 -13.9793 -1.04223 -1.3208 -2.83417
249 1 -2.20834 -18.7601 10.8209 -2.99315 7.32186 -0.166302
250 1 -1.2173 -2.4166 7.58594 0.895649 -0.294486 3.96513
251 1 -21.4081 -1.14733 -21.9354 0.551353 -2.06899 0.791471
252 1 20.1765 17.2184 -12.6428 -0.442866 2.66281 -2.40081
253 1 -1.73253 -3.2897 -23.5291 2.50544 -1.79908 2.47621
254 1 5.23614 -11.9231 -8.22425 0.275764 5.90776 3.06948
255 1 23.3809 -22.367 9.6036 -0.91539 -2.15449 -0.148477
256 1 -11.4931 -4.72195 -12.1449 -1.50011 -0.60867 1.21851
257 1 -1.38649 5.58979 -20.8976 2.31405 0.977694 2.73453
258 1 -6.54815 -1.30501 -5.37418 -0.0819268 -0.550398 -4.54735
259 1 17.0581 -16.4081 -18.7346 0.212338 1.01627 2.02085
260 1 14.3972 6.67153 -3.97 -3.27713 -4.81444 3.90373
261 1 -2.14401 -24.2776 11.8546 1.1722 1.51552 1.15386
262 1 17.8752 20.1969 11.5262 5.77757 0.378756 3.83159
263 1 -20.3835 7.52657 -9.90347 -3.5998 -1.68902 -1.00443
264 1 22.6318 1.70975 17.493 -1.30985 2.7736 -8.71671
265 1 14.3059 -16.7655 -6.39086 -6.59889 3.00421 0.128199
266 1 22.8871 3.62093 -16.1363 1.45108 2.24964 -6.89553
267 1 -11.4737 20.3147 -10.9637 1.19416 2.44593 2.88774
268 1 -21.2257 19.5095 -12.7611 1.19482 4.21426 2.66029
269 1 -19.1349 -8.67106 -13.9366 2.53363 -0.0521175 -2.36051
270 1 -22.8631 -16.7193 16.9632 1.18581 -4.14072 0.861454
271 1 1.53614 23.5653 -13.7008 0.690239 1.05739 -0.916221
272 1 12.1643 -17.6332 12.2834 1.05502 -0.548422 -0.949036
273 1 -18.3614 -10.4347 13.2337 -1.43839 2.37047 -1.65455
274 1 12.2015 -12.7309 9.10829 1.70139 0.204869 3.18109
275 1 12.4996 23.1682 -20.4019 -2.84221 -1.32146 1.97013
276 1 22.2253 6.15956 -7.16118 -0.226321 5.67735 -1.91622
277 1 10.6899 -11.5184 -17.7099 0.177345 0.495633 -4.65106
278 1 19.8111 10.7834 17.1653 0.127712 5.95806 0.234216
279 1 23.7406 -2.41016 -0.436122 -1.84425 1.07816 -2.05266
280 1 -3.15739 -20.7398 -12.4809 -0.297184 0.700563 -3.2239
281 1 14.1052 20.8931 13.5226 0.199527 4.26277 -0.612402
282 1 12.5709 11.5033 12.0006 -1.08474 -1.14261 4.00037
283 1 -3.96811 -21.756 -21.7453 -6.23806 -3.39559 2.8369
284 1 2.15899 13.4369 1.79744 1.22232 -0.14034 0.652015
285 1 -14.4547 19.1742 15.3168 -5.67483 -0.701213 -0.365554
286 1 -5.25814 17.7325 -0.89746 -0.0930999 3.77798 -2.96803
287 1 3.98489 -9.40147 -7.56266 -0.334553 1.53868 4.14198
288 1 16.7139 24.0646 4.18608 2.70315 -1.78051 0.0778527
289 1 -6.52271 -22.3366 9.88302 2.01132 2.68227 4.88549
290 1 -6.14073 -11.5071 -16.2438 0.696647 3.85204 -4.59373
291 1 -12.7344 -17.2242 11.8711 -0.996513 0.977955 -1.9678
292 1 15.1339 8.23304 1.75551 1.50431 -2.66714 -1.23715
293 1 14.9905 3.11613 12.8838 -6.3758 -0.4912 -0.0736508
294 1 -8.06529 2.35384 -0.740731 -1.86793 -0.133241 0.24181
295 1 -0.313529 6.67567 9.33494 -3.03691 1.89736 -2.87351
296 1 1.72785 15.594 -1.70242 -2.04496 -0.7857 -3.89239
297 1 19.2231 -7.76373 -8.75053 5.25129 -1.80702 -0.079104
298 1 14.1373 -19.9928 -20.8824 4.41282 -1.58319 4.52348
299 1 4.72427 -22.4968 -12.9939 3.81484 -0.741889 3.97931
300 1 16.1346 -6.1928 18.0426 -1.49208 1.22172 -2.84755
301 1 -6.39748 20.3628 -21.5423 1.23926 -0.374754 -0.117319
302 1 -0.195987 8.47736 -1.9935 -2.13717 -5.72932 -4.35976
303 1 -20.808 -18.0223 -8.9605 5.12623 1.16999 -1.37772
304 1 -20.5561 -16.7157 14.2628 -1.24951 0.147994 -1.27288
305 1 4.2195 -19.686 20.8397 1.88527 -0.205811 1.36173
306 1 14.2421 20.0702 -11.678 3.50784 -3.25765 0.0967634
307 1 14.5243 12.4852 -23.9841 2.38865 -4.50964 1.09806
308 1 -18.1052 -21.8334 3.78415 0.943543 -3.729 -3.07744
309 1 7.67662 -18.6989 18.1622 -0.546997 -1.44449 1.05045
310 1 1.8601 13.9767 14.1234 2.70378 5.21934 2.3886
311 1 13.4944 -9.91135 1.62912 4.33323 0.366745 0.86795
312 1 -6.72632 0.658744 -8.7305 -2.39131 -0.0372361 -2.62628
313 1 -17.3009 -15.4668 -9.84658 0.888097 3.40726 1.94699
314 1 -13.1966 6.19156 -8.446 -1.67044 2.32105 5.18438
315 1 -15.7983 -23.2748 3.20643 -3.13 2.3621 -3.97465
316 1 23.2088 -5.67005 3.36208 -1.62925 4.1707 2.43447
317 1 -10.3622 -10.7097 -23.6935 -1.91495 6.06012 0.868573
318 1 20.8682 -16.8861 21.3808 2.51467 0.979259 -1.749
319 1 -12.316 2.59866 14.1218 -3.77667 -0.439029 3.58873
320 1 -3.36013 -0.725416 10.0663 0.806568 -1.18447 0.212077
321 1 -19.5316 -11.3046 -12.1607 3.16404 2.36389 -5.93723
322 1 -12.343 13.479 -0.552471 1.45138 -0.872091 -2.26632
323 1 -13.1684 1.42519 2.78139 -2.3786 3.83901 -2.80905
324 1 22.65 1.47158 6.76702 0.760602 -0.688655 4.48808
325 1 0.120352 -20.3946 18.6567 -2.61324 -0.0153512 4.27197
326 1 -17.7943 4.58635 0.389375 -0.128418 -0.322534 1.87858
327 1 -7.19224 -10.6354 21.3017 1.57014 -4.65577 2.72118
328 1 14.7888 21.8237 16.3369 -0.0932733 -1.59205 0.613869
329 1 0.228659 1.41474 -11.3098 3.18937 -3.74509 -3.94525
330 1 -13.617 -23.4752 22.7897 -3.42539 -3.22532 0.37224
331 1 13.0853 7.85269 3.72449 -2.97451 -2.0688 -0.91967
332 1 10.0723 -0.819005 -9.44016 2.39687 1.77684 -5.90034
333 1 8.6812 -9.48004 -14.6316 1.10437 3.95988 -3.87595
334 1 5.07144 -21.5713 -2.70698 1.47749 1.16179 4.59704
335 1 22.7164 -22.6205 4.11592 -2.3472 -4.47695 -3.78245
336 1 19.4081 14.6626 -21.9785 1.04977 -0.268541 -5.61043
337 1 -18.6773 18.6662 0.128496 -7.36911 1.78446 2.6364
338 1 6.29029 -7.70343 17.1346 0.414434 -0.896877 -3.02536
339 1 -6.13812 -16.4578 -23.0124 3.08721 -6.1089 1.07017
340 1 -15.0976 2.04022 -17.6995 -1.35698 -0.588709 -0.83151
341 1 -10.9362 1.98496 -13.9638 -0.32828 -3.77342 5.68035
342 1 -1.37456 -17.2981 -11.7276 0.412509 -1.39419 3.20428
343 1 -2.78021 -13.2942 -6.25377 -3.31218 0.416327 -2.68652
344 1 8.61382 -16.4516 -13.5389 -1.42863 2.9605 -1.26882
345 1 -11.5002 -4.85223 16.0135 1.74173 0.831849 -2.6131
346 1 15.6558 3.00268 5.42739 3.54022 -0.786944 1.46138
347 1 20.4052 -6.91987 7.53153 3.45883 1.44913 -2.19815
348 1 -11.6833 -3.47711 9.82794 -4.56773 -2.85716 -0.515555
349 1 -5.06419 10.124 21.5036 -6.947 0.443897 1.15127
350 1 -23.6231 18.1784 23.5181 6.07414 1.04521 3.78028
351 1 -17.64 3.79198 10.1985 -1.663 -5.90338 -0.0161287
352 1 14.4383 2.30662 0.999082 2.61268 -6.07828 5.36745
353 1 17.2747 -23.6076 -16.5782 -5.22272 -2.0581 2.88396
354 1 9.67141 22.4268 -7.98025 1.98608 0.628484 -1.69266
355 1 -4.82951 -1.66562 7.7045 0.568961 -1.22901 1.50408
356 1 -2.99051 -19.0939 -21.735 3.79493 -3.10153 4.58416
357 1 -6.29252 -15.6102 1.98151 4.1044 0.612194 -1.60103
358 1 19.6419 -13.3585 13.3819 0.852768 1.12298 4.23173
359 1 -15.7017 -19.7889 -9.55084 1.36574 3.52428 5.94241
360 1 6.46284 15.7102 0.737094 1.48185 0.837996 0.80234
361 1 -23.3678 -20.9028 -5.60749 2.32071 -1.34788 -2.53195
362 1 -20.3444 11.6985 5.70128 1.67009 3.35792 -6.11812
363 1 -19.6387 -20.1377 10.2276 0.708819 1.66037 1.76943
364 1 -10.827 4.64045 -6.97783 1.42246 3.64102 -0.417735
365 1 -0.365526 -17.5407 19.4399 -0.487481 -5.2495 -0.970175
366 1 -19.6481 0.770073 -11.5815 3.4373 0.7629 -3.41186
367 1 6.89761 18.1904 -17.4748 -2.18693 1.25117 -2.71302
368 1 4.03701 -6.3874 11.3869 -0.955151 -1.46039 -2.30306
369 1 14.0964 8.09131 -13.7413 -2.03509 0.436458 -2.80037
370 1 3.70715 -13.4708 -22.0601 -0.586164 -1.24294 -2.00965
371 1 -11.2667 47.4367 16.7847 0.290087 5.83927 2.43082
372 1 -8.42434 23.256 8.77496 -1.01688 2.23934 -0.707911
373 1 -16.3525 6.25535 22.9734 0.558315 -3.55158 -0.36611
374 1 -4.73962 19.0843 -12.4099 0.162236 2.30494 0.310191
375 1 -22.2889 -6.19095 22.3318 3.30153 -4.25346 -2.32333
376 1 -4.82263 -13.9001 -15.4573 -4.04079 -1.01513 0.714836
377 1 15.2272 -0.983092 11.5761 2.32722 2.7903 2.79702
378 1 17.8926 -14.5823 -3.658 5.86601 0.662602 1.84721
379 1 -23.6632 23.2716 1.59785 -1.4628 1.91436 -0.206073
380 1 13.2134 16.9317 -21.0948 -0.388193 -4.48345 1.53521
381 1 -22.8549 -14.0198 15.7833 -0.452811 0.976652 -3.36472
382 1 15.8136 16.4824 -3.44726 2.57113 -1.43891 -1.8727
383 1 10.6127 -24.1638 7.64783 5.5939 3.24387 3.92982
384 1 -9.87163 10.0452 -7.8925 -2.26102 6.61388 0.994024
385 1 -7.79503 2.64216 20.2633 1.75609 -0.421959 1.37607
386 1 18.8557 -2.51875 -20.0072 -0.200808 -0.113901 -2.53465
387 1 5.89078 -20.8258 1.92496 -2.69535 -2.4378 -1.48699
388 1 -18.0657 -24.1346 23.534 -0.794256 1.06264 1.72422
389 1 -13.5027 9.30527 7.68222 2.81626 -0.975517 -1.21355
390 1 12.4768 7.01333 7.57069 -2.75036 3.88227 -1.95318
391 1 16.4575 2.45374 18.2234 -7.50745 -3.83666 -3.02814
392 1 20.3166 -11.0356 17.3317 0.147356 -5.31008 0.825198
393 1 -13.3291 -19.4146 -11.3642 1.38192 -1.1167 -1.31987
394 1 -10.2561 12.795 -6.81834 -1.23986 1.08192 1.53221
395 1 -9.01858 46.9387 18.5675 3.89234 -2.45701 -0.351823
396 1 10.5174 -20.5521 0.213322 0.509133 -7.86104 5.3635
397 1 3.19326 -20.2502 18.0528 -2.96172 1.02671 2.33501
398 1 -23.8404 -22.966 -7.53268 1.82896 -0.708474 -0.46285
399 1 13.3096 15.7078 0.479297 -0.899376 -3.37979 -4.30953
400 1 -22.333 -15.4968 -3.74417 1.24448 4.00568 -5.88457
401 1 21.9028 -16.7766 -5.50119 2.31818 1.00733 -4.93843
402 1 -1.06973 7.39154 22.2593 2.27838 0.946358 -3.79979
403 1 14.7854 -0.925086 23.8079 2.97613 -2.47953 -1.97969
404 1 -15.3335 -0.289993 2.34731 -1.59809 -0.0830842 -3.6481
405 1 5.98924 -24.2042 -6.53535 2.05798 -0.200688 6.44175
406 1 -8.81245 -18.947 22.3543 -2.67537 1.91305 0.137582
407 1 2.71281 -9.77797 17.079 7.05138 -1.89049 -0.445415
408 1 -1.81009 -1.99013 -18.226 4.54828 -0.58255 6.58572
409 1 0.85488 1.9592 -6.92754 0.170031 3.88479 2.46304
410 1 -14.7789 11.6031 0.47276 4.1631 -1.89292 1.49917
411 1 -2.1992 -2.54143 -8.42275 -3.58888 -5.45725 2.80461
412 1 -16.1386 -7.42923 7.34208 -1.21493 2.72925 1.41613
413 1 -22.5073 23.6944 -0.968367 0.257186 -5.53533 -2.57373
414 1 4.20588 20.4387 -13.0669 0.823102 1.64104 -2.8445
415 1 -18.0218 5.84388 -9.63083 1.98603 4.23795 -0.0446937
416 1 22.6717 0.731879 11.7855 0.676728 -1.86539 -0.294059
417 1 -13.6021 1.71732 11.5383 -0.312212 0.876834 0.509207
418 1 23.0814 20.5808 5.91751 -1.26168 -2.40039 -1.10051
419 1 -24.4366 4.16179 23.1549 -0.272778 -0.0577107 1.30806
420 1 -2.94371 -4.49099 12.947 5.61976 3.2607 -4.87272
421 1 -14.4272 -22.6148 -16.0681 1.19284 -5.49138 -1.09655
422 1 -3.69893 15.465 -22.153 0.363315 -2.46743 -2.12815
423 1 -9.58561 2.69508 3.03723 -0.190474 -3.55403 3.02595
424 1 4.7925 -4.86854 -0.858388 -4.36934 6.41824 -2.2127
425 1 -21.2185 13.1689 17.099 -1.04558 -1.22828 0.0463674
426 1 -17.8365 -1.49644 -8.91064 -6.70411 -0.567066 -5.23916
427 1 -14.8685 -24.3245 20.498 -0.747573 -0.614998 -0.804767
428 1 10.2571 12.7672 -6.68045 4.26756 -3.17432 -1.0619
429 1 -6.85972 9.89158 -14.3909 -2.87959 2.17519 6.88696
430 1 -22.0977 -1.56104 23.765 4.08256 -3.5279 -0.837485
431 1 10.5393 -5.63558 -15.0528 -0.534527 -1.08318 -1.36349
432 1 7.7532 -5.5517 12.1324 0.033943 1.67896 -1.34225
433 1 -18.8033 2.58344 -16.8848 -4.7951 -1.39319 0.575662
434 1 -13.7054 -3.07875 -11.3258 0.458936 2.38039 -1.39159
435 1 2.99867 22.5353 6.08569 -3.77825 3.82893 3.83341
436 1 -14.0279 -9.47366 -9.85945 -3.79819 -4.91592 -4.16278
437 1 19.2775 19.1289 -9.29668 0.847942 0.912293 -0.716147
438 1 -18.1425 6.52287 -4.18972 -1.97707 5.06022 -1.31078
439 1 -2.2529 22.096 -5.67686 4.44643 2.99123 -1.28271
440 1 -10.2345 14.21 -14.6526 -1.10283 3.2488 0.180537
441 1 18.8078 1.86501 -4.39176 1.67903 2.09674 2.26169
442 1 5.15781 3.32069 15.0084 4.91643 -0.52816 6.29468
443 1 19.8141 24.6382 14.3786 3.06015 -2.12897 -0.108855
444 1 -23.6528 7.96812 -18.3839 2.24018 0.937238 -0.176571
445 1 19.4825 -9.32182 -11.3379 -1.60949 0.0643068 0.62704
446 1 21.6995 -13.6091 -7.49523 -4.44188 -5.78973 1.80032
447 1 7.74253 19.2691 13.9264 -4.25431 5.73986 -6.2972
448 1 -15.6146 -0.185093 13.0222 3.77954 -3.81031 -5.73823
449 1 14.0286 -4.38438 -2.23574 -2.3781 1.8193 -2.07093
450 1 15.2967 -20.0284 7.17486 -5.5553 2.10279 -1.88012
451 1 23.4151 -11.7533 -19.9446 1.35098 -0.152458 -1.61637
452 1 23.0785 15.469 0.159715 -1.40122 -1.68307 -0.403786
453 1 -15.7396 14.3683 9.36622 0.385834 -1.97113 -2.11486
454 1 -5.36352 1.69034 -15.5204 -0.586417 -0.436023 -2.84151
455 1 14.1082 -11.8645 15.0746 1.39789 0.999881 -0.902491
456 1 -3.47215 14.6713 23.5363 1.86385 -0.175041 -1.23942
457 1 6.83437 20.8348 17.952 -0.878735 3.64781 0.490955
458 1 21.3 19.492 16.8366 1.6017 2.62322 0.172152
459 1 0.570578 7.20309 -12.9242 -0.13341 3.19199 -1.5803
460 1 4.08304 8.90552 -23.3906 0.531622 -1.2073 1.53519
461 1 2.70016 -0.0861697 -19.9498 -1.37149 0.578527 -0.0665909
462 1 -7.21588 -18.7715 19.6893 -2.07719 0.693369 -5.80579
463 1 6.56304 13.7335 11.9686 2.47604 -0.780903 -1.69917
464 1 -14.3668 -23.9524 5.40277 4.56107 -0.957321 -0.614985
465 1 -1.99105 -13.2274 3.27301 -0.852529 -2.14903 -0.211872
466 1 15.4317 13.1599 -21.0442 -3.84095 2.08692 -4.06582
467 1 -6.61566 -11.0817 13.325 5.73754 0.582432 2.2084
468 1 22.6074 16.4285 -9.35724 1.75276 -0.38991 -0.287935
469 1 -24.5322 -13.4337 12.4048 1.2333 -2.06081 -0.495325
470 1 -21.793 6.19978 -12.3351 -3.31333 5.7977 2.4431
471 1 22.5355 -7.87304 -9.1051 0.386761 2.49643 0.562313
472 1 -15.2733 -4.82499 17.579 -2.29591 -0.699205 -4.82613
473 1 4.2114 11.999 12.1347 -0.555288 -0.797776 -0.203999
474 1 2.70909 -6.69847 -11.0076 4.50923 -1.94232 0.902894
475 1 22.0182 11.5764 -20.8653 -2.48157 2.04623 -4.34645
476 1 -12.8239 -5.33351 -3.65611 -0.408263 1.17702 1.74694
477 1 -11.8057 -9.97772 -15.5901 -2.20381 1.0634 4.16103
478 1 2.34665 0.150716 24.0012 -3.82628 -3.94405 2.83592
479 1 15.1076 -17.7156 13.548 2.32318 -1.52451 -0.812987
480 1 0.107747 -10.0231 9.51694 -3.5576 -0.0383847 1.64518
481 1 -1.1766 8.23059 -19.8027 2.75651 1.24577 1.22602
482 1 -24.261 -3.53248 20.6386 0.264962 -1.40119 -7.26876
483 1 5.97841 -17.8684 -0.391664 -2.25198 3.29996 1.15588
484 1 22.8172 -14.8796 -13.8809 -5.68221 -2.63374 1.98048
485 1 21.2344 -21.6774 -18.4694 2.5628 3.32717 -0.430218
486 1 14.7373 4.00266 -5.17152 -2.96933 -1.45475 0.182037
487 1 2.97407 23.0029 17.0497 -3.83085 1.11911 3.88549
488 1 1.04531 -15.9757 21.1087 -7.16476 1.60154 5.34149
489 1 -12.6896 22.4314 -12.4977 -0.542242 -1.52529 2.68089
490 1 16.3711 -16.0169 -12.8052 -3.07275 1.05994 4.35912
491 1 -20.3807 -12.2012 9.86126 -4.03305 5.87463 -1.64805
492 1 -16.5598 -16.9934 -12.2167 -0.584101 -1.05325 -3.37042
493 1 13.9501 0.217601 -15.8628 -1.77122 -2.30481 2.52143
494 1 7.26197 2.32689 4.96286 1.06254 0.675742 -3.95591
495 1 -2.55078 -10.2385 -4.1435 -3.47866 -4.13401 -1.89659
496 1 4.82199 7.21863 -11.7952 -1.87136 -3.32077 -4.50365
497 1 9.35951 14.223 23.0949 1.01284 1.41297 -0.882306
498 1 22.9573 1.55509 -22.808 -3.56789 0.0529504 -0.595543
499 1 -23.4429 1.76998 -8.56302 3.3574 -1.13117 2.79473
500 1 -5.54315 -17.0527 8.37393 -1.07443 1.51087 -0.139272
501 1 -13.0745 -11.6829 -8.15483 -3.81948 2.49072 -3.1979
502 1 12.3207 -13.6662 18.1909 -2.53579 -0.583672 -0.379592
503 1 8.87669 0.10899 -11.8708 -0.303977 -0.385002 -1.37004
504 1 -1.96816 4.31732 5.67047 1.77986 -3.80319 0.954853
505 1 -1.10711 9.77879 -22.0583 -2.48442 7.00275 -2.32133
506 1 -1.00318 -21.1404 -16.0923 -4.34428 -3.78219 1.45231
507 1 12.6916 19.9909 -14.0377 -2.35032 3.26554 3.1253
508 1 -2.16408 22.5255 -11.6314 0.453877 1.14467 -3.53623
509 1 21.7883 14.5969 -18.4593 -4.53166 3.40431 -0.970095
510 1 8.63385 -16.3479 16.2074 1.66239 2.71621 1.84156
511 1 8.3256 -13.6984 4.43908 -0.62796 0.159273 0.550146
512 1 0.838948 -3.23514 18.4329 0.388925 2.29091 -0.931637
513 1 -20.4325 -15.0375 19.9694 -0.700612 -3.03743 3.23583
514 1 -13.799 20.314 19.91 -2.00702 -0.867779 5.52787
515 1 -1.3127 6.14789 17.2668 -1.4313 -1.36704 1.80668
516 1 9.67283 -23.562 -2.82385 -0.678493 1.72692 -2.37022
517 1 -15.5266 -0.523378 -21.803 -0.0626253 1.12936 -0.734244
518 1 22.4289 -22.6168 1.42473 0.63181 -0.107886 -0.09395
519 1 -20.5397 -11.7635 -8.41861 1.71439 -1.94368 3.88289
520 1 -5.5732 -23.8018 -13.5512 0.118318 2.97942 -1.3427
521 1 -10.2228 23.8083 -6.7987 -4.23403 -1.34589 3.28588
522 1 2.98536 -15.2911 6.88931 -0.328558 3.18649 -0.58402
523 1 -9.3696 -15.3989 -8.23293 -0.909556 -0.73511 0.537705
524 1 -1.5502 -2.45355 17.3466 3.09282 -1.871 -1.55352
525 1 -6.92801 -0.506798 -2.5434 1.47739 -0.986381 -1.02036
526 1 -19.8623 15.4572 -4.00201 0.773342 1.13786 -0.837365
527 1 -3.02135 14.0983 -7.82203 5.71485 -4.45794 7.50054
528 1 -15.6082 16.2605 -11.8396 -2.27757 -0.0145367 -1.59995
529 1 -8.10408 -12.3229 7.26526 2.0839 0.559295 2.46093
530 1 -8.83057 2.35034 9.31394 -1.6305 -1.18666 -3.7611
531 1 22.5409 -8.45773 13.0829 -4.85357 -3.5211 2.25842
532 1 -10.0967 -2.54243 -1.57037 2.24483 -2.782 -0.632112
533 1 -8.92044 -19.4338 13.5292 0.321348 -1.12216 -0.497791
534 1 19.5579 7.30537 -10.5637 -5.4115 1.12809 -5.32608
535 1 5.21204 10.6942 9.77567 3.07795 -1.98407 -2.81018
536 1 -0.453826 -9.2855 4.36571 2.54294 -3.84995 1.62841
537 1 9.09353 -6.42116 2.34322 2.04471 0.53716 5.14693
538 1 -19.8849 -6.04501 12.8339 2.78232 -2.59567 -0.256821
539 1 16.5424 9.49349 -7.23409 -1.16157 4.7849 -0.819831
540 1 -13.3089 -10.8034 3.60615 -0.372024 1.51904 0.438766
541 1 -13.0879 0.593044 16.3013 4.0117 2.01732 -4.06263
542 1 -23.6866 5.55749 -8.67478 -2.71091 2.10938 -1.47224
543 1 20.5382 -17.164 -16.8526 -4.81877 0.628856 -2.91808
544 1 -3.99364 -20.0468 -19.1382 -1.1381 -6.45787 5.84598
545 1 22.4298 -17.1427 13.6923 1.10211 -1.92415 -1.80507
546 1 -8.03916 -15.7406 -13.8828 0.0549699 -1.56195 -0.970836
547 1 16.5788 -16.3143 -21.6689 3.85221 3.3589 4.07379
548 1 8.78146 1.68052 17.651 2.15443 -3.54117 -5.81126
549 1 -20.0741 -4.70885 6.95086 1.29343 3.37329 0.261253
550 1 0.573134 -22.2939 -13.9382 -3.36872 -1.42617 -0.287289
551 1 9.27132 4.56816 -17.2178 -2.83436 2.52135 2.7416
552 1 1.99333 -18.3397 -0.459301 2.83921 -3.51729 -0.615254
553 1 -11.1542 6.65141 -0.834145 -3.30868 -1.28665 -1.82431
554 1 4.12636 18.9755 -17.4584 -4.54032 -1.63452 0.12156
555 1 -15.4272 -14.2298 -0.199862 -1.50389 3.42036 -0.605722
556 1 -12.0682 17.9769 -1.39312 -0.485748 -0.721901 1.9637
557 1 11.235 -23.5442 -11.4018 -1.7493 -3.3245 -1.26165
558 1 -4.92451 -11.6736 15.486 1.05339 3.09176 3.22884
559 1 -8.85256 -19.4501 6.67462 -0.42074 3.63455 4.87618
560 1 22.7626 -20.9331 -4.15436 -2.59651 2.64144 -6.61096
561 1 7.67868 -24.6455 19.4627 0.343911 0.459536 -0.836513
562 1 5.61979 7.1082 -21.461 0.989074 -0.0575085 3.13835
563 1 6.07239 -18.8429 5.59357 2.28307 -0.363653 -1.90213
564 1 -11.537 -19.267 9.93044 1.90025 1.13044 0.231017
565 1 13.838 -19.9762 23.1943 -3.23682 -0.486841 3.43105
566 1 19.8494 15.2516 14.0284 -1.62151 1.29081 -1.10739
567 1 -19.9297 23.8069 -2.55046 0.0330279 -1.45028 6.58366
568 1 4.96498 -6.66059 6.6162 -4.5669 3.00709 2.28516
569 1 -6.64356 23.2417 -15.8936 2.58623 1.32614 -1.70266
570 1 -24.4641 11.6118 16.1647 -1.86778 -1.19005 -3.44836
571 1 0.285161 -12.9834 20.8467 -2.10469 0.713877 -1.61012
572 1 10.2146 -24.5115 3.54348 1.69804 3.77218 5.27538
573 1 17.9427 -5.7606 6.38623 -1.12072 -3.2318 5.77907
574 1 13.3614 -21.2055 -6.0761 0.196741 1.73169 -3.68058
575 1 -15.2167 5.68454 -3.34602 4.24087 0.960774 0.558678
576 1 20.7094 -0.0755581 18.8978 -4.79161 6.00542 2.68931
577 1 -7.66425 21.5118 1.53159 1.07292 1.62009 -0.300673
578 1 -24.5763 21.4521 -20.764 -3.37787 2.74851 -0.215973
579 1 2.37892 -20.8931 -12.4548 0.0640672 3.40845 -5.12177
580 1 -5.10736 3.40735 -21.2602 3.94749 -1.89252 2.73817
581 1 -16.1778 -9.26732 14.9699 -1.22195 -0.42603 3.03636
582 1 -2.40557 -12.9309 -16.8881 2.1282 -2.03551 -2.90462
583 1 -21.1075 22.9735 12.0379 -2.94642 4.27079 2.78571
584 1 15.2031 4.13391 -7.82229 5.08664 0.927296 1.27251
585 1 -7.70609 12.0803 16.2376 -2.84275 -1.6985 4.66379
586 1 17.0068 22.8649 -20.3494 2.06391 -3.25925 6.04929
587 1 -20.2528 -23.2633 -12.1446 0.567965 4.24751 8.87142
588 1 -19.7709 22.0858 5.42829 -3.11754 -2.75034 -3.77755
589 1 -1.17882 4.4164 -1.01405 -1.27801 -6.65793 -1.32395
590 1 -5.06401 17.7013 21.8369 -0.538215 2.38178 -0.539529
591 1 20.5138 -20.5797 12.6158 -6.02633 3.62776 2.94658
592 1 -15.8883 -12.9665 9.9014 -0.33274 -0.387722 -1.97081
593 1 -12.1668 -20.8105 16.2243 0.531793 0.110947 0.288248
594 1 -19.5755 -0.420188 2.47791 -0.768279 6.43163 4.31112
595 1 8.09085 -15.8415 -22.7852 2.63663 -1.25918 1.52703
596 1 -13.0138 -20.2141 5.01676 3.52516 0.995272 1.46777
597 1 23.8008 -24.196 -12.7354 0.237529 4.3358 -2.69728
598 1 15.2566 -13.9307 4.76251 1.84508 0.248353 4.1332
599 1 11.0843 -14.8798 13.8562 -2.68045 -3.70304 -5.8487
600 1 -22.321 22.7164 17.9923 -1.79087 -0.764668 0.535569
601 1 0.976192 -3.22074 21.4678 2.43518 2.81336 1.20114
602 1 -9.66905 4.58358 19.2507 -0.832726 -2.5629 3.59853
603 1 -5.05533 6.88137 -4.04489 3.36691 1.8587 2.51026
604 1 1.30923 24.4419 24.0696 -2.08822 1.72045 2.10536
605 1 -20.7208 -3.17436 17.2595 0.92902 -2.29191 -2.65926
606 1 2.48082 -1.66603 -22.2825 -1.61834 -0.483044 0.450926
607 1 -1.55628 -3.98098 15.294 -2.83326 1.48398 4.27095
608 1 3.74451 8.86081 -9.71114 0.472688 -5.56136 6.26915
609 1 9.97922 -19.0548 21.6934 4.63852 1.05235 0.144744
610 1 17.2991 -4.5858 15.8928 -1.12618 -0.373925 1.27312
611 1 -2.30294 -5.9027 -5.31638 4.38696 -0.186976 -0.484134
612 1 -3.47549 12.561 -13.2436 3.04077 0.950996 4.95414
613 1 12.6554 6.97272 -20.9288 2.95027 -2.62367 -2.36565
614 1 -16.5631 -9.50365 -6.13918 -1.12538 -4.23269 4.3734
615 1 11.0972 -2.58377 18.638 -1.72213 -1.13005 -3.71278
616 1 17.8513 -2.63285 21.361 -2.05637 0.0369638 -2.91736
617 1 -13.2356 22.2757 -18.0861 5.05971 -4.45587 0.525099
618 1 14.3547 6.4819 9.68332 2.59967 -3.13722 -0.855003
619 1 16.3326 1.83827 10.6663 2.37224 1.66615 7.19073
620 1 19.5085 -13.5188 -9.28238 -1.09928 1.09048 2.38537
621 1 -7.51201 14.8678 -13.5695 -0.232019 -7.12015 0.344631
622 1 -21.9025 -9.37956 1.66508 3.55189 2.39346 3.59646
623 1 22.3262 -14.2311 4.53305 4.73956 -0.616475 1.79962
624 1 -7.08132 1.79924 -20.1658 -1.9876 -1.08606 4.0501
625 1 -0.696738 -8.46234 -5.38545 -3.1125 0.304465 -2.34807
626 1 -2.97411 3.51298 -19.0156 -5.00246 2.39227 -0.0152459
627 1 21.9798 14.0716 12.7456 -2.43312 -1.15152 -4.40931
628 1 -21.1668 -14.5706 -1.34704 -4.34423 0.0588365 -5.50251
629 1 -5.17592 10.6616 -6.22373 0.538571 1.0336 1.53632
630 1 -22.2786 23.3174 9.40971 -4.06315 -5.72926 1.82487
631 1 -5.11537 -18.2707 17.4493 1.9485 6.27421 2.55304
632 1 -13.8672 -21.1705 2.70359 0.247301 -6.16949 0.859142
633 1 8.68204 8.9905 23.2893 -0.25472 -2.26352 2.39845
634 1 -10.4422 -2.1817 16.6131 -6.63372 0.455991 -1.67338
635 1 10.2416 12.9625 -3.86352 3.86862 0.690149 1.21165
636 1 -22.447 4.10491 -16.6797 2.58096 7.18378 1.45763
637 1 -10.8477 -23.2074 -23.001 -0.722376 -1.86934 0.400562
638 1 14.575 18.7633 -4.88829 -1.75992 1.226 3.87515
639 1 -10.8209 -17.9428 -22.5598 4.11528 0.29952 0.28263
640 1 0.149018 0.0591279 5.98286 -3.17365 1.2919 -2.05175
641 1 -14.1732 18.3173 5.72986 2.43879 7.6341 -0.994639
642 1 -7.71109 -2.74972 5.40728 2.20229 0.0155152 3.47803
643 1 10.25 -18.6564 7.58857 0.472979 3.40192 -5.81711
644 1 -6.2359 12.1983 -4.00872 5.6294 -0.151867 -0.66214
645 1 -9.2037 -7.51004 -18.9593 -0.459096 0.475595 -0.637768
646 1 15.2834 24.5901 16.1999 -0.10722 -0.0801172 -2.48949
647 1 5.10066 3.94192 -3.62692 -1.45386 0.247464 -1.92695
648 1 21.1269 -16.0256 -23.0573 1.74929 1.32867 -1.44372
649 1 11.011 -16.3761 18.1255 -1.78365 -2.04347 -1.24725
650 1 -9.14578 0.223028 19.6587 -0.219914 -2.63532 -0.656663
651 1 -23.7754 4.10578 -13.7211 3.03544 3.23399 4.21961
652 1 -8.00169 -5.04558 -18.7829 -2.19248 3.1317 3.12762
653 1 -23.126 -21.304 -15.1324 -2.57796 2.95187 -1.59989
654 1 -11.3904 -0.613162 -19.3562 0.687843 -1.56003 1.17952
655 1 -4.60355 -11.6513 -12.0328 -2.7712 2.84247 -2.18742
656 1 -0.144713 23.1323 -9.8223 4.66175 3.30173 0.89536
657 1 -1.37027 -3.69165 -12.8925 -3.06214 -2.66729 -0.118309
658 1 20.8333 11.6513 12.429 -0.848434 -0.531724 1.50065
659 1 8.66047 0.970893 20.4895 -3.22708 2.23479 0.0914353
660 1 7.87784 4.50171 7.30692 -2.36867 2.53086 -0.874343
661 1 -17.7426 -7.3901 -17.3468 1.48095 3.15315 0.309965
662 1 3.92268 -5.01064 8.97054 -3.21741 2.2437 -1.03397
663 1 -12.3715 -18.7724 -8.35849 -5.64387 4.9372 0.318443
664 1 -16.5622 -19.9495 10.7206 1.71434 -6.32229 -5.88095
665 1 -2.46529 -6.52865 18.9845 0.424631 -4.05109 -3.372
666 1 -8.90676 -7.14252 -11.927 -1.62583 -0.506798 1.47727
667 1 -20.9708 -20.8492 23.3602 -1.1659 0.0831426 -2.90466
668 1 -9.41899 13.2766 18.1579 0.949329 1.9195 4.38228
669 1 8.5457 -13.6933 14.9062 1.94578 4.08508 -0.138234
670 1 0.296286 -15.1032 -0.614455 -1.30549 -0.599242 0.92356
671 1 20.774 16.1922 3.10799 -7.90411 -2.79998 -0.552868
672 1 23.1809 4.5639 -10.9154 -1.4301 4.38934 3.6925
673 1 -1.62984 19.6637 -23.5513 -1.88284 1.76545 1.86793
674 1 -9.46846 0.533645 -21.443 3.30064 -0.863854 0.0374023
675 1 -22.6108 -10.0098 -8.99164 4.44755 1.26404 -5.54136
676 1 6.01973 1.28744 16.9183 -2.08248 -4.45184 0.593755
677 1 -22.4676 -11.4493 -12.6448 -0.565306 1.05297 8.02293
678 1 -19.774 -5.08431 0.0971082 1.25574 -0.753983 -4.93437
679 1 -19.461 3.21194 -9.87209 -1.69243 -0.880174 -1.989
680 1 7.91072 20.6816 -9.39002 3.06456 5.86186 -1.30796
681 1 -2.84942 1.67642 -8.43679 5.80472 1.17628 1.9727
682 1 -3.52843 17.5685 -6.86249 -1.68782 -3.54701 -0.626356
683 1 2.9316 10.6342 -19.0817 -1.55543 -1.52553 -5.37683
684 1 10.1851 -20.9882 -12.1637 0.560357 2.48907 -2.11867
685 1 21.0942 -0.328358 8.53795 3.39134 3.4534 1.90343
686 1 -14.6763 -0.704161 18.1458 2.56587 1.17411 3.36549
687 1 -15.2394 7.41676 9.2321 -1.37373 -0.26228 -0.771909
688 1 -11.2865 -13.0571 -15.1654 -1.28723 5.71973 3.33831
689 1 -0.615302 -0.675262 -4.53272 -6.82558 -2.32932 -0.748417
690 1 0.704871 22.6833 -6.00841 -0.0119363 -3.88312 -3.38832
691 1 -0.709867 7.49036 14.4598 -2.73247 2.81745 3.71174
692 1 -10.1625 -7.2595 4.51251 -0.249469 -0.979421 2.64986
693 1 -8.29479 23.5329 3.74438 2.50996 1.03186 0.363235
694 1 10.4577 -18.1628 1.891 -2.19782 -2.7638 -4.25146
695 1 7.47669 -10.6101 -7.14804 1.71322 -2.78603 1.27827
696 1 -8.47729 -22.2312 7.85105 0.706839 -0.789049 -1.7092
697 1 -21.1169 16.62 -20.1261 -2.01251 0.620187 -1.6343
698 1 22.8201 -11.8804 -5.51113 -8.1188 3.41734 1.70289
699 1 -15.0331 -11.85 16.0197 3.39647 -2.37407 1.9141
700 1 3.49478 5.82315 -23.3593 -5.58275 1.2633 -3.91677
701 1 16.8928 -0.679108 9.24487 0.0365328 2.72897 -2.68791
702 1 -15.238 -2.91467 12.0609 -1.5105 1.13089 -2.51587
703 1 5.8641 23.9196 -21.3503 -0.484216 1.12963 -0.0172549
704 1 -10.6197 -11.08 10.8981 -3.05175 1.76978 2.21746
705 1 5.66417 21.5696 -15.1788 2.31708 -1.34812 -1.46832
706 1 4.8069 1.0421 19.5689 -1.94617 -0.941676 4.06415
707 1 -17.7857 0.140274 21.3954 -3.73538 5.66884 1.25945
708 1 8.78053 -5.36071 -17.3262 -2.05374 4.36482 -2.94395
709 1 -9.53461 -3.67329 -7.53245 1.89587 -1.7364 -1.31811
710 1 -4.17579 -9.73547 13.4642 2.14703 -2.82321 -3.39909
711 1 -13.8124 -6.87054 -14.7535 -1.79158 -1.10063 4.51118
712 1 4.50409 -10.0377 14.7213 3.15652 2.52483 -0.815103
713 1 2.19439 4.21808 2.53072 4.36677 0.761825 -1.33048
714 1 19.9746 -6.57533 -12.6844 -3.28556 -0.756408 3.70049
715 1 2.38424 16.428 10.1246 0.0167035 1.98183 -2.13947
716 1 0.264344 -22.2996 9.79624 6.0148 -1.91627 2.52214
717 1 -11.9044 -4.56424 -14.9625 1.64084 2.333 -0.690373
718 1 -12.7791 -6.82276 2.71333 -0.698698 -3.17968 3.57875
719 1 14.8972 -8.49671 11.9764 -1.31806 -5.22937 -0.069302
720 1 4.29087 -6.5287 -20.5906 -4.66787 -1.78666 -1.57758
721 1 -9.2565 -9.50341 -16.5313 1.29889 0.904324 -0.771327
722 1 7.53706 -22.3998 -13.1107 -3.47822 0.35546 5.7065
723 1 -21.6484 14.4319 -6.06409 6.99535 -3.39053 -1.80426
724 1 -8.90098 20.8925 -10.2527 -1.50584 4.06247 0.372647
725 1 3.47212 17.0295 -23.5955 3.02256 -3.6175 0.00229473
726 1 -5.35458 -8.64147 22.5602 2.26848 -2.78405 -0.710789
727 1 7.13959 -3.0944 -13.0295 3.00536 -0.649346 1.38297
728 1 -10.419 17.3754 -8.22799 3.96888 -3.94139 -5.02133
729 1 -13.347 14.5682 16.1637 -3.45084 0.258254 -0.0522579
730 1 14.6881 -19.6554 -18.1559 3.84124 0.536183 -2.06695
731 1 -12.4858 11.5209 -23.8882 0.757544 0.999864 -0.728704
732 1 12.627 -22.5986 -9.35146 -2.52901 -2.70911 3.48631
733 1 -14.8026 -18.1158 4.95383 2.86081 3.12608 0.818612
734 1 -19.9496 20.9909 18.7779 4.5384 -2.71228 -0.283252
735 1 16.5124 9.35618 6.94429 -3.79552 0.426636 2.75713
736 1 4.71054 20.9671 -6.76767 -2.81999 -4.44295 1.16659
737 1 21.2752 -16.5392 5.80717 -4.10469 2.69423 -4.07699
738 1 -10.1369 7.42324 16.024 -0.321879 -0.338809 0.516584
739 1 -18.1694 -19.824 1.76183 -1.10285 -1.15551 2.80864
740 1 17.2904 11.9493 19.5555 -2.71117 0.0986279 1.67356
741 1 -15.4876 -19.5804 -13.2094 4.36098 2.46863 -2.1856
742 1 -6.93872 -23.0842 22.7802 -1.6222 -3.82073 -1.23614
743 1 -23.7925 20.2587 1.29661 0.897344 1.35004 1.68829
744 1 8.24421 -13.0332 -11.1685 3.18791 4.56934 -2.55488
745 1 -21.3603 1.44771 19.6541 2.50223 -4.17561 -4.39282
746 1 -17.3893 -7.44937 23.7621 -1.64446 1.84124 -1.08662
747 1 11.3192 -10.3422 3.22822 0.466831 -1.38101 -1.21129
748 1 -10.0628 -21.2218 20.8648 -5.18713 1.33114 -4.31191
749 1 -0.740584 12.901 8.4053 -2.19803 -5.94701 -1.58087
750 1 15.9656 -5.45004 -11.5771 -0.481842 0.391305 3.41172
751 1 -19.7705 11.4592 -14.0938 -0.569217 -0.96024 0.373252
752 1 22.4193 -20.2886 5.68342 -2.67571 0.482208 2.602
753 1 -18.4572 -18.1701 22.7068 -1.05195 0.317535 -2.38102
754 1 -13.4047 24.0396 15.1677 1.2065 -0.683921 6.66313
755 1 12.3555 9.13688 -22.7438 -1.10439 3.35499 -4.58976
756 1 -5.17513 -3.02819 -2.22679 -2.06271 2.53284 -3.15693
757 1 -18.3396 12.9001 -3.57235 0.158366 -0.485296 -3.35866
758 1 -15.5478 -18.3598 20.2931 -5.29746 -3.5213 -1.73411
759 1 0.112069 12.651 -10.3886 -3.93071 4.78523 -0.0713448
760 1 0.911193 5.47644 13.3865 -0.161801 -3.11338 -0.80641
761 1 -10.5 -12.7901 -7.6456 -1.98806 -3.79665 -4.13754
762 1 4.53342 17.1315 21.8503 -0.429652 2.55838 0.207483
763 1 15.9433 4.98403 7.60559 4.16701 -2.30524 -3.33869
764 1 20.1291 5.1696 7.72631 -3.96332 -2.79682 0.370782
765 1 22.207 10.8136 8.03459 -0.777835 -5.49333 -1.26641
766 1 -10.9768 17.807 -16.6077 -7.69579 -2.56711 -0.410254
767 1 -1.28234 -12.4017 0.341539 0.610054 -1.80221 -1.07444
768 1 -7.56937 9.2483 10.0934 -0.572591 -3.20089 0.549916
769 1 14.5017 24.9583 19.131 1.97331 -0.87542 -0.662051
770 1 -4.45445 22.1239 -22.9941 -1.89925 5.56728 0.0163397
771 1 9.43965 -17.3785 13.3639 3.35619 -3.98653 4.83435
772 1 6.75633 7.79233 6.81877 -2.38422 -0.307432 0.418103
773 1 11.5941 -21.5125 11.0329 -2.53297 2.15383 1.02318
774 1 17.4591 16.6241 13.5935 4.67708 3.86176 -1.33201
775 1 21.146 -18.5697 -12.2682 3.7282 -3.32368 0.0969788
776 1 9.59899 -0.665687 -22.9323 -0.507967 -1.07935 -4.16009
777 1 23.5956 -11.1923 -10.8749 -1.09804 0.0123357 6.76738
778 1 2.01838 -17.199 -15.9108 1.91214 1.73354 -3.60369
779 1 6.68151 1.72873 -7.73919 0.589158 -2.05617 -0.454474
780 1 -4.80314 -8.18556 -19.5454 3.19314 2.87675 1.10844
781 1 -19.9698 2.50215 6.77214 -0.261822 2.00258 4.64378
782 1 19.1735 -8.2537 -14.8753 6.58329 -0.638897 0.520878
783 1 4.5894 -16.1624 22.4017 0.636875 -2.23881 -5.30329
784 1 12.8581 15.3994 -3.92454 -0.380661 -0.659564 3.58121
785 1 -2.30259 20.9123 21.3926 -9.36234 -8.85418 -3.65514
786 1 -22.4636 20.645 22.745 -1.03575 -0.848691 -1.59044
787 1 9.67292 13.1578 -11.4112 3.7148 -2.06849 -3.52369
788 1 -21.6442 7.2916 4.49792 3.25602 -0.324485 2.50014
789 1 -13.7917 19.3231 0.961061 2.20112 -2.30082 -0.301049
790 1 3.94711 -1.03266 14.6846 -0.155435 3.05035 2.02529
791 1 -2.88141 22.1 14.9503 -3.9157 -7.57284 2.84177
792 1 -22.7863 13.0771 -8.60989 0.597867 7.16863 -1.21224
793 1 23.7403 -10.0746 1.17801 1.68851 1.62896 -2.177
794 1 6.38464 16.0933 -23.5266 6.52689 -6.53732 0.977198
795 1 20.0264 -6.90629 21.4007 -3.81538 -0.222755 -3.6363
796 1 -11.4564 -17.5856 -15.336 -0.533859 -0.331849 -2.16448
797 1 -18.4099 -13.2351 13.672 -2.30293 -1.44319 -8.1542
798 1 -15.5416 2.00165 -6.38832 2.22875 0.321804 -3.07741
799 1 -9.67437 18.4746 -3.11543 -3.86201 -1.85283 3.36948
800 1 -19.6453 -11.931 17.5928 -2.43692 -0.96803 -2.46294
801 1 20.3221 14.8406 -0.660541 6.07936 -1.01159 1.84734
802 1 -20.2707 -19.8781 14.4576 -0.808971 -1.30169 -2.93983
803 1 19.7377 -10.7737 -8.87933 2.42903 -2.66883 -5.67037
804 1 8.57209 -19.9139 -9.81633 -1.92356 5.6865 1.11007
805 1 9.59221 23.6017 23.2171 -0.61691 1.5675 1.18588
806 1 -0.912655 -13.1242 13.3457 -2.0134 -1.31294 -2.64638
807 1 15.6269 21.9033 -22.5996 -2.81133 -2.76478 -1.54722
808 1 -1.39585 -19.7027 -10.1803 -4.908 -7.91511 -2.35208
809 1 -5.67721 23.7413 -18.4894 -0.0864682 -0.403896 -5.30142
810 1 -20.5347 -12.1243 -5.70331 -2.43363 1.14011 -0.629593
811 1 -13.572 -6.52205 -6.26079 0.658435 1.13362 1.21731
812 1 2.34662 -12.5254 -8.15179 4.20374 -0.258738 0.659371
813 1 -15.3983 23.7837 -17.2728 1.53493 -2.04569 1.29859
814 1 -20.5918 -1.61618 -2.51776 2.8638 -2.66011 2.78162
815 1 -20.7856 11.0242 -16.7396 -5.88448 3.97706 -0.0281045
816 1 19.0992 -20.4019 19.7116 -1.06267 1.8327 2.3842
817 1 9.35051 -9.79322 17.8834 1.23161 -2.46167 -1.19138
818 1 -9.79326 8.0383 20.9009 1.71502 7.40438 -1.75422
819 1 10.5958 12.1877 20.5283 2.89073 2.25015 -5.23624
820 1 2.14416 12.8349 8.32516 -1.02206 2.6625 -1.5259
821 1 -23.2939 -23.6701 -23.7033 7.95435 4.41479 -1.59258
822 1 20.2375 -15.797 15.1278 -0.523839 -1.38681 1.13882
823 1 6.44385 -9.76273 3.34043 -1.51089 4.6496 0.185613
824 1 4.06225 -20.6008 -6.71993 5.84854 -2.03034 1.31807
825 1 -23.4876 4.47338 5.63985 4.19039 1.83952 -3.71115
826 1 -11.6115 6.68124 -3.66052 1.37819 -1.61992 3.14782
827 1 -2.67913 -0.98156 5.34367 0.363401 3.54225 4.81181
828 1 -6.47704 -19.4241 11.9597 -1.14407 -4.78389 3.71539
829 1 20.7212 13.8031 22.0503 1.57234 -5.13426 3.22048
830 1 -10.1831 -10.1612 20.5534 -2.52314 2.99851 3.69851
831 1 1.52319 -15.3723 -22.2494 -1.91089 0.00253343 -0.806776
832 1 -5.02336 -3.87684 10.9668 -0.439316 -1.62917 -2.1338
833 1 -11.4452 -5.8564 -8.3465 0.922494 -1.77725 2.55638
834 1 0.03444 10.2957 0.0343626 2.29163 3.87668 -1.04
835 1 2.94674 6.37716 -20.5299 0.480797 -7.3557 -1.21503
836 1 4.86502 -13.216 21.5573 -2.07521 -5.5422 -2.21741
837 1 -21.0773 -14.7133 -6.23748 2.76526 1.76272 -1.34413
838 1 22.4925 -19.8322 1.28427 2.52671 0.332749 -0.174428
839 1 -23.598 19.8635 -8.92095 2.72357 -3.40082 0.545109
840 1 3.41655 -16.9952 13.4191 1.14876 1.42169 0.382186
841 1 19.3929 1.9005 9.46385 0.41981 -1.90781 2.91195
842 1 -7.00246 -23.1736 -1.45722 -0.865108 2.47336 -0.225095
843 1 19.3827 -3.95068 18.5549 -3.51566 1.53872 0.835636
844 1 17.7279 -18.8285 -21.6233 -1.90439 4.17211 -5.43759
845 1 18.2013 8.20983 -1.83992 3.10578 0.173166 0.520499
846 1 8.81076 7.43016 -11.5501 4.77975 -1.25701 2.08205
847 1 -14.7346 47.2171 -13.7439 2.83392 1.83108 1.0355
848 1 -4.73527 16.3829 -13.6374 -3.21019 0.586414 4.76177
849 1 21.9443 -13.5684 -11.1756 -2.77443 -2.56397 -4.3957
850 1 15.9055 -20.3875 -23.1328 2.92939 4.66532 -3.80525
851 1 -22.5436 17.4099 -14.4526 -1.72926 -3.6451 2.33621
852 1 12.408 -2.21129 -1.26254 3.91687 -0.688969 -2.99551
853 1 13.2277 11.8416 -15.0809 -1.41258 -1.84496 -2.72296
854 1 -22.7909 -12.6446 4.10762 -3.79159 3.64844 -1.7916
855 1 -17.125 23.7269 -19.5337 -3.56869 1.53915 5.6695
856 1 -21.4308 -3.80133 -8.69637 -1.41425 -2.54658 4.52151
857 1 -24.0299 -5.04316 8.57671 -0.934882 1.24436 -1.09098
858 1 17.002 -12.5514 14.2567 1.30733 -0.907937 -1.59493
859 1 -13.93 -8.89829 -0.592782 -3.19938 -1.64633 -2.37718
860 1 11.3476 -8.31793 -14.8592 -0.0552987 1.78277 -2.91961
861 1 -23.9873 20.3509 -11.8649 1.10204 -3.05222 -0.0237734
862 1 0.744024 13.582 -7.75674 -3.46469 2.63551 1.96435
863 1 18.1405 -16.8901 6.13655 4.64255 0.639216 1.3547
864 1 -15.2856 3.60811 19.1892 -2.02763 1.26043 -3.19865
865 1 -0.215796 -20.5815 12.1796 -3.39298 1.90472 0.596552
866 1 14.8997 -2.95471 20.7583 1.17794 -2.63484 -4.79041
867 1 -0.890688 10.5045 20.6532 2.65381 -1.42961 2.0405
868 1 0.708575 17.4311 -4.6234 -2.61362 -1.3987 -0.0394049
869 1 -0.608334 18.263 3.43464 1.97318 0.303299 6.57064
870 1 14.8337 19.85 18.5372 6.35426 -2.46041 5.9465
871 1 5.02606 9.59115 -17.2703 -5.21872 2.05102 3.96575
872 1 -2.06296 -7.47671 -20.1988 -0.285305 0.142033 3.45396
873 1 -5.22338 -1.11093 -23.9218 5.53854 -4.69609 -1.15101
874 1 11.8527 1.2087 0.466854 -4.00542 1.58452 -1.5263
875 1 20.9201 13.409 8.69954 0.56986 -0.120541 3.52865
876 1 13.2425 -14.4584 -7.72685 0.644342 -0.638343 -4.31856
877 1 2.09774 -17.5424 18.0086 -0.844372 -1.17768 0.216777
878 1 8.40815 12.3785 -23.1019 4.60372 2.7899 0.961467
879 1 16.109 4.75697 -18.6997 4.67368 -3.02165 1.32813
880 1 4.5567 13.9043 20.1456 -2.20443 -2.69003 -4.50816
881 1 -1.64128 -3.89366 19.9812 7.39556 2.29525 2.06541
882 1 -13.0521 -3.29444 -1.43509 -3.95975 -4.49884 -1.81638
883 1 18.393 16.5061 -6.68031 -2.4585 -3.82248 -0.292961
884 1 17.6297 -19.3807 -16.076 -2.06978 0.933179 0.804805
885 1 -4.72635 -19.3123 -3.63512 1.12614 2.79328 -1.06181
886 1 -5.32134 23.4646 3.33318 -1.7483 -2.89166 -4.5946
887 1 9.78502 -22.6745 18.8718 4.48553 -0.335168 5.0824
888 1 -8.07323 13.2671 -18.2174 2.83202 -3.05305 -2.00753
889 1 -15.7101 -1.83464 15.5068 -4.41672 -1.15371 -3.40757
890 1 13.1059 -20.2231 13.0348 0.795661 1.54222 1.68719
891 1 -21.6497 -1.46309 4.38875 -0.606355 -1.64153 -0.00976642
892 1 3.11629 -9.66564 -4.21362 -2.30074 -1.5729 -2.5456
893 1 20.8217 -4.34132 2.22773 1.44007 2.6829 1.75248
894 1 2.24981 12.8138 23.6831 2.14581 -0.458337 3.0427
895 1 3.16018 -24.0235 6.60037 2.49896 -1.24679 0.710062
896 1 11.4379 -2.85819 21.6703 1.75051 6.59076 0.429242
897 1 -12.3016 -22.89 10.4384 -3.6291 3.22531 -1.16041
898 1 17.6413 0.897464 -23.6141 1.22727 -2.21413 -3.58605
899 1 14.1505 -18.281 18.9415 -1.62354 0.0436512 1.85773
900 1 -14.2697 -15.2028 -12.6438 4.07085 -3.4698 -0.580951
901 1 3.8744 -19.9815 9.72678 -1.40684 -0.171084 -3.69767
902 1 -8.53683 15.7984 0.710511 6.69736 0.530683 0.240452
903 1 -8.14078 23.1539 -19.7009 -1.89763 -1.34969 -0.551507
904 1 -8.73799 -6.26986 -6.76485 -0.547269 -3.39103 -4.33694
905 1 22.3201 -7.487 -23.1581 -0.653746 0.993559 -3.79738
906 1 -7.26527 -23.0415 17.7618 1.57664 -0.495185 2.22422
907 1 -15.6348 1.1328 -10.7226 1.41278 2.3983 -7.56865
908 1 -9.86954 -16.6421 12.2277 -0.490286 -0.900566 -0.6002
909 1 16.0595 -22.3682 10.4703 1.42199 -3.10893 -6.28037
910 1 -8.8075 4.3229 -4.78067 -8.26812 -3.08166 2.40757
911 1 -0.830794 14.5381 -23.1067 -0.979281 3.3256 1.71765
912 1 -14.584 22.81 -7.40102 1.55563 -1.15418 3.75363
913 1 -5.51014 21.3838 15.5709 0.812506 2.81478 -3.48822
914 1 -23.2689 16.2626 9.02894 -3.6408 2.94972 -1.05403
915 1 14.7957 -6.3875 -14.0509 -0.232008 1.3312 -3.29084
916 1 -18.2069 -17.0159 20.1394 -1.57514 1.79484 3.36431
917 1 22.7608 4.0117 -21.3587 -3.79679 0.054587 6.9782
918 1 -4.34969 8.98254 1.60221 1.25018 0.234338 0.182021
919 1 -10.6649 17.6808 10.9428 -0.589041 -0.786457 4.70293
920 1 2.44069 13.6878 -20.6355 -2.01695 -3.32738 2.26619
921 1 8.87907 -10.2866 -19.8869 -0.544559 0.288447 1.90551
922 1 -11.5539 3.51471 -19.7079 -4.9418 3.19955 -2.22246
923 1 1.90375 -9.54314 1.00762 1.46378 -0.841465 3.33475
924 1 -6.63898 16.616 5.76851 -1.14583 1.1889 2.46687
925 1 0.984418 12.2279 -3.51325 0.708389 -0.8966 -4.67546
926 1 1.0763 -15.2706 8.86868 4.45813 -1.36494 2.93056
927 1 6.74424 13.9322 18.2452 -0.585563 0.43813 -0.359576
928 1 8.5572 -18.2351 10.4027 -6.65168 0.596589 -0.0339224
929 1 -6.6128 -14.4289 -4.70374 -2.28905 -1.96417 -0.353195
930 1 -19.4299 -17.1557 -13.1335 0.0157218 5.49964 0.0933426
931 1 17.5878 -1.7994 -6.67118 0.254312 -1.61436 -1.07106
932 1 -18.0394 16.0231 15.7748 3.73037 2.61995 6.36435
933 1 -17.4357 -21.7686 -23.6751 -0.846662 -3.57645 -1.76759
934 1 -1.77503 17.6421 -21.413 -1.10117 -5.00594 -4.85344
935 1 22.5834 -11.5273 -1.24655 -0.158855 1.17978 2.48115
936 1 8.34778 12.2289 13.447 -0.0112267 2.3712 -0.588634
937 1 2.59987 14.9533 22.0282 4.7939 2.01177 2.08934
938 1 18.0123 9.97643 4.52453 0.130772 -3.70323 -3.1616
939 1 -8.50372 -11.9922 -17.9745 3.63316 -3.04422 0.398951
940 1 20.9102 -0.5439 -9.20559 1.34163 1.73932 9.1126
941 1 -20.6242 21.6203 8.03775 5.51829 -0.122436 4.36173
942 1 -5.54861 -15.7537 -17.5614 0.145532 1.32973 3.30579
943 1 17.7837 -4.0366 2.79634 -1.26884 -1.4958 -0.989686
944 1 -16.0212 -2.5389 -23.8798 -4.88753 5.89627 -1.51363
945 1 5.62261 -23.8808 17.6986 -5.53579 -3.76867 -2.47824
946 1 -13.8595 -8.42968 5.68594 1.88346 -5.08435 2.65059
947 1 -9.47586 16.2175 19.2468 -1.78823 4.70334 -2.25346
948 1 -20.9763 5.83483 -7.61581 5.28814 -0.206265 4.12678
949 1 -1.75262 13.2265 21.4098 0.545824 0.514806 -2.69025
950 1 -20.2467 6.8872 11.8896 -1.16705 -3.27985 -1.03412
951 1 -10.615 -23.9399 -14.5971 1.93618 -0.0630327 5.10971
952 1 11.8908 -14.2872 -10.4356 4.71053 -4.95855 5.40149
953 1 16.4793 -1.61564 2.83899 0.772923 4.88711 1.81271
954 1 15.5615 6.1148 -12.1267 3.01467 -0.343591 5.76706
955 1 -11.6962 18.3536 -19.3927 2.93023 -1.43719 0.865154
956 1 -11.5803 -7.22171 -10.7867 1.23732 -3.13713 8.5021
957 1 -4.38118 -2.0963 14.0248 1.40747 -1.61713 -1.66651
958 1 2.64537 13.279 18.1467 2.17898 -5.5568 -2.38999
959 1 -15.3041 -18.1699 23.0352 -1.82065 3.28092 -2.76538
960 1 -1.43897 -21.9495 5.27475 -1.45101 -1.03834 4.92892
961 1 -7.22353 12.5116 1.51633 -0.0138615 -2.72686 2.07627
962 1 -4.23539 7.28968 -7.05026 2.64757 -7.89401 -5.00807
963 1 -15.5083 24.944 -12.4832 0.568184 1.96936 2.13543
964 1 12.5975 -15.0088 -23.1551 0.507236 -1.60685 2.21965
965 1 -12.8857 12.9129 7.1062 6.4503 2.49825 -2.68576
966 1 -17.8481 -7.101 14.6093 -4.95852 3.51013 -3.5095
967 1 17.8335 -4.81728 -13.8047 -1.07596 -2.2409 -0.67654
968 1 -1.94084 23.7014 -15.995 -1.53564 4.01084 1.98056
969 1 15.8362 -22.9008 3.36172 -2.0234 0.0545216 -1.98106
970 1 -4.2019 -23.6987 -8.8415 0.173694 2.37132 0.514912
971 1 14.7237 -5.74844 21.5372 -0.488406 -0.989748 5.18596
972 1 -8.18208 -18.4955 -1.24998 6.01361 -0.863962 -0.648046
973 1 -12.9954 -3.08558 17.8139 5.60631 5.80323 -1.12131
974 1 -1.15684 24.3504 -13.4117 -0.355281 -6.39894 -2.85244
975 1 -9.95052 -9.89645 7.32333 1.44684 2.06589 -2.73723
976 1 -18.4343 -6.02895 9.96493 3.21656 -0.698557 -2.10498
977 1 3.46842 -22.5703 13.5122 -4.30338 6.14102 -1.47968
978 1 4.00421 14.3384 -22.8292 1.06298 0.563738 -1.65193
979 1 6.67813 23.0121 -18.4956 0.896683 -1.85128 -0.750142
980 1 4.80046 21.5961 11.3223 -5.0236 -2.34728 3.56881
981 1 6.49119 -3.07424 -5.00138 1.558 5.42092 0.397487
982 1 -6.43305 -6.96214 5.3737 2.15328 -1.58198 -0.0811407
983 1 -20.9747 7.64825 16.067 1.31837 1.31728 2.11093
984 1 -14.5707 17.138 -5.64289 -1.79553 2.92215 4.57574
985 1 -17.5403 17.8465 12.3686 -1.01679 -0.296446 -4.48211
986 1 -1.05887 4.39724 11.0448 0.267065 4.08971 -2.12983
987 1 -23.1217 -18.1641 11.1616 -1.87039 1.37347 -0.283241
988 1 -10.7533 -23.7735 8.27056 -1.2178 6.6687 5.25728
989 1 8.49295 1.8828 -5.31733 2.29513 -2.20109 -2.70609
990 1 12.1856 -6.95961 12.4006 -0.432668 0.574233 -2.70864
991 1 -6.79297 -7.61292 8.22263 2.73026 1.91213 -1.34619
992 1 -22.8026 11.1356 4.09775 2.00514 -5.93137 -1.10494
993 1 -22.7713 2.38614 -23.4855 -0.601918 -1.8175 -0.744744
994 1 22.3782 -16.0693 17.3905 1.24477 3.93409 0.374461
995 1 8.04491 2.72783 0.0392251 -4.21174 -2.48997 1.8484
996 1 20.8075 11.2452 -16.111 3.85372 0.412793 -5.57143
997 1 -22.6352 23.1885 24.0233 3.30684 1.23577 7.0635
998 1 -2.36151 9.74403 10.9529 -5.62529 -0.203302 -1.65779
999 1 -23.4626 10.5154 6.61606 -3.17304 0.150048 2.44265
1000 1 17.7085 16.4428 -9.53465 -0.954798 0.186382 -2.44884
1001 1 -19.9966 -2.38196 -6.97724 -5.49129 -0.693756 -2.14985
1002 1 -13.5711 -16.0735 3.36857 3.21617 0.370185 -3.7271
1003 1 12.147 -14.8951 11.1249 2.73538 2.24628 1.79057
1004 1 -24.4771 24.0416 8.11444 1.0749 3.24893 1.96794
1005 1 -14.3699 16.4089 1.54888 3.57722 -5.28409 -1.89332
1006 1 -22.4939 9.86542 17.2186 2.99215 -1.45115 -2.78241
1007 1 13.3541 -0.591054 18.4639 5.91377 -2.97815 0.825225
1008 1 5.7613 -3.23478 15.6611 -0.536581 3.438 6.1602
1009 1 10.0346 -17.8953 4.60914 -4.24881 4.85378 0.951725
1010 1 -14.425 3.82231 -11.6048 0.99627 2.73258 0.0979399
1011 1 -19.3049 2.46401 -1.18972 6.68558 -5.6284 -1.60182
1012 1 0.911571 2.10032 -1.06728 0.401817 1.27744 1.62823
1013 1 5.69163 -16.5546 2.2506 -1.67915 1.28866 1.00583
1014 1 -20.0558 -23.8862 3.00405 0.900858 1.42795 -0.712883
1015 1 0.596512 5.18106 -23.0448 -1.46138 -2.70046 1.85727
1016 1 -23.4646 5.20733 8.55391 1.79803 4.68274 2.27253
1017 1 -9.49468 2.12998 14.7907 4.06265 0.879594 -1.878
1018 1 -22.9353 -21.1208 5.90553 -1.20128 2.12177 -0.840863
1019 1 7.14595 15.8737 3.49799 -1.52285 -1.30479 2.05955
1020 1 -19.9888 -23.6286 9.63642 0.625969 -2.09087 2.4469
1021 1 20.3579 -19.014 -4.58927 -1.98733 -0.609324 1.41596
1022 1 -9.2516 -20.6439 -10.8089 5.54332 -4.87611 -4.38618
1023 1 10.1757 -1.70017 5.43402 -2.17174 -3.41799 3.07162
1024 1 -2.89693 8.02574 -23.6824 -2.35385 -2.13696 -0.0132309
1025 1 7.72761 4.46914 -19.6856 -2.84595 0.0798723 -2.92517
1026 1 3.87379 13.5374 -10.1638 3.20092 0.543403 1.26535
1027 1 -22.2337 -4.81373 11.8899 -1.2778 0.657657 2.63409
1028 1 -7.11336 -11.6734 -13.2505 -1.17122 -1.21 -1.31458
1029 1 12.1523 11.3918 0.145629 -4.12429 -0.362912 -7.43433
1030 1 -18.0272 -16.5404 -23.301 3.48484 5.27171 -1.43672
1031 1 -4.65708 -12.151 -4.25836 -1.00073 8.84838 0.954417
1032 1 12.425 6.84398 18.5334 4.91609 -0.459691 -6.24287
1033 1 -4.33554 -17.2493 2.95565 -3.60376 0.536664 -4.56216
1034 1 -14.3966 11.9056 -11.2039 2.0846 0.0808594 3.55183
1035 1 12.3508 19.9037 -3.45418 -1.41057 -0.444743 -0.302805
1036 1 2.79182 -12.8597 19.2907 2.35626 -2.90981 1.037
1037 1 -12.409 -18.0301 16.0241 -0.866599 -1.00888 0.79366
1038 1 -2.16463 7.13519 11.7386 -0.410322 1.80521 0.0441238
1039 1 20.6332 21.711 -9.75212 -0.574183 -1.06398 0.664106
1040 1 9.82976 -3.2756 -22.0369 -0.788393 -2.11488 -2.13136
1041 1 -2.58535 8.57428 -13.4484 -4.63004 -2.64232 0.134363
1042 1 11.0714 -8.42942 -23.6132 -3.23066 3.50049 0.768619
1043 1 15.1167 9.38752 -4.78614 -1.13128 -5.8921 4.6239
1044 1 -4.92926 22.0809 -11.7701 3.74039 -1.97087 -2.36577
1045 1 -6.37718 -2.12916 21.975 2.08391 -2.52129 2.49541
1046 1 16.7797 15.419 -16.2598 1.75511 -2.19173 -0.608197
1047 1 -18.2589 2.5151 19.8685 -2.3899 -2.76015 6.35279
1048 1 -0.602342 0.0719258 18.6059 -2.12193 -2.89345 0.945797
1049 1 -23.7916 -0.287605 -11.6627 -0.450798 -1.62793 1.06507
1050 1 17.2013 21.3083 18.4814 -2.46361 -1.41291 -5.76503
1051 1 2.41931 0.636624 7.91408 1.01781 -0.307369 -2.40268
1052 1 -20.5844 -3.31876 -20.0739 -2.5849 -1.78234 2.83646
1053 1 5.98952 7.34122 -18.7383 -0.243567 1.19542 4.08641
1054 1 -16.674 21.2429 -1.75745 -3.87514 -1.51132 -6.96897
1055 1 -7.18511 16.2857 14.3358 0.348089 2.10267 -3.49324
1056 1 -8.91637 20.13 5.48669 -3.98661 -0.0756612 0.626824
1057 1 -8.82908 -17.8954 -15.7466 -2.8914 -2.0394 3.10837
1058 1 0.302442 -3.39545 -9.60426 -0.269925 -2.38271 -3.87588
1059 1 4.36447 -21.7678 -15.7392 3.02438 1.16039 -5.47662
1060 1 -18.1101 -11.2781 5.9778 0.380571 0.588347 1.45971
1061 1 6.88728 8.38552 -13.4413 1.25377 2.24885 1.9836
1062 1 -8.14665 -0.985979 10.548 2.74926 3.95466 -5.44951
1063 1 0.783653 19.5639 10.9388 -1.23791 1.05257 -4.46056
1064 1 15.3807 -16.5357 6.39983 -4.29516 -2.1635 -3.87686
1065 1 14.5036 20.9829 -17.2929 3.18009 -1.52136 1.81122
1066 1 13.6871 -3.60854 23.5415 -0.652447 4.31344 -0.301253
1067 1 -20.6084 6.46587 8.95369 -1.10862 2.11401 1.19405
1068 1 -3.84747 19.7561 0.68964 -1.06166 2.64267 -2.43765
1069 1 -23.9057 16.4854 -19.9138 1.18693 -3.97642 -0.51493
1070 1 -8.01221 6.74314 11.2546 0.18471 1.93914 -5.83328
1071 1 -18.562 24.4867 -12.1407 1.76536 0.373138 0.40501
1072 1 13.5098 8.53533 -18.7487 -5.02943 0.853049 2.23308
1073 1 -1.44779 -23.6383 -10.0689 0.567436 -2.86114 3.71248
1074 1 -10.2915 12.2294 -16.7645 1.09593 -2.80107 0.00939598
1075 1 -0.00682119 11.911 14.9273 -0.840266 -1.69427 -3.12304
1076 1 21.6739 5.22566 -23.9507 4.35678 -3.19774 -1.89167
1077 1 16.6691 -8.12745 -7.4883 2.19477 -2.53522 -3.06485
1078 1 9.3441 -7.75316 13.4994 -0.861714 0.345918 -3.00265
1079 1 -15.918 0.336917 9.9934 0.398655 -3.95639 -6.49885
1080 1 -19.6503 -6.65318 -7.33325 -0.956777 1.78175 -0.181048
1081 1 9.2656 -7.29107 16.5786 2.05966 1.56113 0.155171
1082 1 -18.9443 -18.2244 -6.66526 0.464814 2.96338 -2.71671
1083 1 0.229963 21.7429 -19.47 0.641298 2.92483 0.117795
1084 1 -1.78832 -15.5491 -4.31574 -0.560274 4.04844 -2.57013
1085 1 -10.8582 -15.3881 -3.46083 2.76059 0.249122 0.102903
1086 1 -10.1409 10.2231 -4.97282 2.77435 -6.10281 -0.864177
1087 1 8.76554 -1.58161 -19.8355 2.85125 -2.30065 -0.998317
1088 1 -21.9218 23.177 3.9785 -0.0230279 1.95892 -4.28346
1089 1 -15.8924 7.98315 14.9895 -0.220374 0.366973 -1.14825
1090 1 -21.1509 -19.6632 -13.5937 -4.58168 -1.20386 -1.17389
1091 1 -14.2815 8.83708 4.97522 6.63332 0.101301 4.45173
1092 1 -21.4323 -17.5197 -5.34745 -2.1433 1.46874 1.3957
1093 1 22.3949 7.52493 4.85308 1.62555 -0.881848 4.67427
1094 1 -24.5534 18.0051 -22.3138 1.98543 -3.63233 4.57884
1095 1 -7.58687 21.81 -12.7124 3.16924 -2.61759 0.815768
1096 1 8.88038 17.5188 -12.5772 -3.1638 0.0494176 2.84443
1097 1 16.9675 23.5425 14.0295 -0.498049 -3.74988 0.453137
1098 1 -12.2006 -4.13158 20.331 3.24033 0.855573 -7.12626
1099 1 17.5258 11.6357 15.6636 -3.96689 1.44905 -0.309313
1100 1 9.47831 -7.98103 20.0955 -1.13939 -1.90551 -2.01981
1101 1 7.6048 -15.3655 12.4834 4.44122 -2.4307 0.840372
1102 1 14.0759 -14.4417 16.304 -2.70819 -3.88241 -3.6276
1103 1 22.434 7.64329 15.5606 1.89611 1.7371 6.76723
1104 1 -22.308 -0.978195 8.82939 0.916478 3.51332 -2.78811
1105 1 21.0111 1.86649 0.545577 0.221771 -1.82215 2.88885
1106 1 -17.3765 -18.9654 4.42823 -0.427819 -0.349559 -2.74636
1107 1 2.21507 -12.2244 0.485494 0.0567419 -3.72119 4.90944
1108 1 16.5677 12.2281 22.3388 0.0139996 0.180226 -2.15424
1109 1 -18.4539 -9.76109 3.62586 -3.03296 1.69905 -6.63899
1110 1 -11.6857 25.1455 9.17318 -2.27846 1.2174 -0.652836
1111 1 12.8099 -9.43805 8.64133 -4.91525 1.3915 -1.75371
1112 1 -1.8914 -14.9812 19.4246 -0.452421 -0.0477209 -3.83404
1113 1 -19.5796 20.1879 23.7423 0.326172 -0.0364874 -0.558875
1114 1 -18.7214 -3.236 10.1222 -0.452187 4.39733 0.568985
1115 1 22.7965 22.9146 -23.2433 -0.38727 2.82429 0.144409
1116 1 -14.7764 0.471685 7.08652 -0.541941 0.370148 0.588069
1117 1 -4.99654 12.9842 8.7615 0.461771 -3.80493 3.83811
1118 1 22.2102 -1.82981 -12.6914 0.560295 -1.0595 -6.30031
1119 1 7.31209 -9.57787 5.92595 -0.171281 -1.00717 -2.63612
1120 1 -5.77051 -15.3552 -1.95611 1.09294 2.89704 5.8301
1121 1 11.6926 -5.0158 -20.2992 0.947507 0.998504 6.63586
1122 1 -7.94433 23.2145 -1.79882 4.69457 0.0975527 -2.44415
1123 1 15.2933 -6.61635 -3.58643 -2.77195 -0.30533 3.8228
1124 1 -2.79791 14.4508 -16.8821 -3.24237 3.4862 4.01061
1125 1 -23.6035 7.44182 6.41004 -0.0837515 -3.38882 -5.07039
1126 1 -1.38649 -14.0201 -9.94856 2.5111 0.0187794 1.29725
1127 1 15.0553 20.1218 -7.54749 0.176859 2.29987 -1.53785
1128 1 1.14406 12.889 -0.574171 -4.96545 7.78374 -5.08547
1129 1 -0.768983 -8.80405 23.9178 0.240133 2.41892 -2.82765
1130 1 -2.11209 15.0231 -14.1146 -2.45401 -0.844925 -1.54807
1131 1 19.06 -8.839 -4.57017 7.07498 0.395324 0.452352
1132 1 21.6499 -5.65767 19.261 0.225209 0.255779 3.43448
1133 1 10.8082 12.6782 17.8208 -1.46794 -2.18984 -1.25267
1134 1 14.1099 -20.7193 20.5015 -0.795395 0.154409 -0.520533
1135 1 5.1311 -0.353191 22.8258 3.35732 1.37368 2.12318
1136 1 -20.0167 -20.8684 -22.4874 0.84741 -0.522326 -2.179
1137 1 5.83701 3.0497 2.17921 0.545788 5.13127 -3.91939
1138 1 -22.886 -23.5539 4.45028 -2.2204 3.77321 -2.91194
1139 1 -6.48566 9.03421 5.3041 7.33438 1.04782 3.9865
1140 1 15.4803 -7.72842 -18.6337 5.61161 3.49396 5.03234
1141 1 -19.0604 9.24997 10.9832 -0.564287 -2.96655 -3.73947
1142 1 7.67834 14.2334 7.41153 0.42539 -3.34898 0.606132
1143 1 0.543617 -8.53031 -12.1662 3.41783 1.38883 -2.22156
1144 1 15.3325 2.51751 -12.3415 5.62603 3.67353 0.863256
1145 1 1.88254 20.5187 22.1595 -2.6768 4.18007 2.2042
1146 1 10.3664 16.7191 19.2735 1.89666 5.36232 -3.555
1147 1 -7.05673 9.57196 0.479091 -0.984094 2.76479 3.47399
1148 1 -11.0197 10.259 12.5249 1.60047 -0.328047 4.57312
1149 1 1.42135 -15.8925 11.6248 1.20803 3.12221 3.27047
1150 1 -12.7386 14.8343 9.33396 -1.69131 1.78597 1.79044
1151 1 23.2334 -24.1115 19.6226 2.65343 -2.65648 -3.83852
1152 1 -13.6074 14.9696 18.9703 5.75725 1.34988 -3.3528
1153 1 -4.40213 -20.6932 1.03561 -2.90265 -1.57223 0.174105
1154 1 2.43313 10.9769 -22.024 -1.52915 -3.09156 -1.94782
1155 1 5.55929 -19.5351 16.3571 2.72186 -2.06952 5.06524
1156 1 -18.3555 -12.8375 23.491 -0.0895366 -1.05836 -2.04987
1157 1 4.69304 2.31583 -9.68435 -1.63128 -6.20766 2.97567
1158 1 -17.3841 -0.137886 18.7142 0.192538 4.38013 -2.25191
1159 1 21.867 -4.53711 13.8806 -3.51962 2.43767 1.22432
1160 1 -8.76668 4.49572 -10.7903 -3.33061 -0.0702811 0.128204
1161 1 -9.00063 -23.5174 -17.1662 -1.9063 2.45925 -5.69477
1162 1 9.30658 9.50819 3.08691 -3.41772 0.0262237 -3.13346
1163 1 -17.8821 -23.7041 13.2523 -4.23994 -4.06363 -1.50297
1164 1 -20.2893 -15.1107 9.62442 -7.47325 -3.95096 -2.69367
1165 1 18.4211 23.8967 -1.15623 4.98375 -0.377229 2.89686
1166 1 -15.792 23.5463 17.0279 -0.00458408 3.49888 6.10354
1167 1 0.515913 14.6098 19.9352 -1.21073 -0.19799 1.84155
1168 1 11.6818 -9.11864 -0.303534 3.15701 -2.40774 5.66305
1169 1 14.0038 -8.21258 16.9873 -3.5715 0.276011 4.09111
1170 1 2.2403 13.5798 11.0086 -0.345433 -0.509258 2.58415
1171 1 22.6411 -1.72979 -7.25312 -1.70083 -0.529759 -3.07858
1172 1 -22.7593 -16.5881 -16.292 -1.51724 0.151429 -3.54735
1173 1 7.98011 -20.8636 19.8458 -0.0698215 -1.64638 -2.71888
1174 1 -22.8931 -20.7345 -17.9874 0.767221 3.78664 -4.58004
1175 1 -10.953 12.9646 22.2404 -2.44533 -0.889871 2.38058
1176 1 -1.38142 -10.4561 13.8074 -1.27354 -1.74696 -2.99425
1177 1 10.3371 0.678857 -19.1741 0.745907 3.54824 -3.24593
1178 1 -4.29197 5.94871 8.15808 -0.328037 -3.21208 -0.50042
1179 1 7.94284 -8.45677 -8.75823 -2.45798 3.19041 1.1741
1180 1 -10.5929 46.8323 -12.1099 9.02698 0.346872 0.58712
1181 1 10.0059 18.5738 -9.83524 -6.1802 1.9212 -2.83284
1182 1 17.6504 6.77466 0.455555 0.304726 1.52308 2.13542
1183 1 3.30155 -6.58055 -15.242 0.0134665 -1.11884 -5.61087
1184 1 6.50399 19.2901 22.2076 -4.62573 -3.59851 0.553754
1185 1 15.4388 7.53627 23.6133 -4.35468 0.702859 -3.27388
1186 1 7.18937 -8.16065 1.13549 3.5806 -2.05017 2.00169
1187 1 -13.4203 17.8645 -8.17915 3.90655 -1.40085 -3.16859
1188 1 3.27338 2.69018 0.258108 -7.42254 -5.97828 3.62541
1189 1 13.3771 13.7036 4.80344 4.27199 -2.9148 0.4756
1190 1 14.6469 -2.34851 -20.3074 0.60874 3.48318 1.73343
1191 1 -1.75445 -4.6814 -19.4718 5.40385 2.877 -2.15596
1192 1 -13.093 -0.339974 -10.6486 -1.11426 0.0832112 -2.40798
1193 1 7.93718 -2.19224 17.0932 -1.58913 -6.98433 6.07568
1194 1 7.97618 16.8005 -6.15649 -2.32794 -6.40468 3.30217
1195 1 13.3814 -11.5134 -16.31 2.39501 3.16638 1.94627
1196 1 6.03854 16.4763 -13.4391 1.35391 -3.0127 0.379942
1197 1 -19.5905 17.0859 21.1168 1.9517 1.51478 2.5311
1198 1 19.8647 -23.9552 10.5615 0.32352 5.46004 -4.14504
1199 1 -12.4969 5.62356 -13.9352 2.95135 1.46578 -2.07172
1200 1 13.5986 -10.8156 11.0322 -0.376642 -2.34255 -0.621707
1201 1 22.2921 -18.389 19.0222 2.20264 2.76131 -1.1726
1202 1 -14.9061 -0.721309 -5.44577 1.24485 -1.77222 3.64783
1203 1 -15.1561 -12.1096 -14.7217 -2.03324 -0.107442 -0.101606
1204 1 -2.39817 22.6861 2.20634 0.36793 -1.81189 1.80577
1205 1 -4.8653 -17.4818 11.0715 0.846477 2.92471 -2.56076
1206 1 22.2184 -19.8443 -22.4959 2.85203 0.496004 2.05067
1207 1 14.8736 -4.29687 -16.0007 -4.74221 -0.0868792 -1.2484
1208 1 23.3873 -7.33977 7.52052 -3.44678 -3.32739 -0.886772
1209 1 0.859003 -6.18773 24.0952 -0.977654 -3.82584 -3.72223
1210 1 -3.1548 19.3306 -3.59028 8.00542 2.77105 0.562454
1211 1 -18.0114 -10.8508 10.4451 -0.424777 0.717222 2.61723
1212 1 20.9708 5.18434 -9.39359 -1.86711 -0.505335 2.74836
1213 1 23.686 -14.2155 19.3269 -0.930189 2.10415 3.48419
1214 1 13.1996 0.398265 -1.79041 -3.98472 -0.864922 4.43637
1215 1 4.91361 11.4875 -8.64288 1.08818 0.628848 -0.289368
1216 1 15.3602 -8.0557 -10.094 0.974266 3.16169 -0.924339
1217 1 15.4702 -14.9495 2.01552 3.05741 -3.73252 2.62093
1218 1 13.6639 -3.66425 -11.7746 4.15083 -5.97438 -3.49715
1219 1 15.289 10.9967 11.1033 -2.91691 -1.16793 -3.72377
1220 1 -20.7466 22.7695 15.0898 -0.0903451 2.22153 3.06477
1221 1 2.38049 21.2187 -21.475 0.255524 -0.610871 -4.50193
1222 1 20.1287 21.2489 12.5364 -0.101516 3.5346 -0.125042
1223 1 -23.2888 10.7462 10.773 -0.893984 -0.275158 -7.54085
1224 1 17.1506 -8.55868 13.6913 -5.70977 1.80056 -0.84496
1225 1 -0.119982 -19.3562 21.5695 -8.21582 6.28563 2.30231
1226 1 -20.8041 13.8433 1.16526 -2.82368 5.42394 -3.4542
1227 1 -1.66748 -8.02307 -0.49006 -2.09406 1.31303 -1.87887
1228 1 23.1318 -20.615 -11.0642 -1.12129 0.789483 0.498721
1229 1 18.5235 -17.2844 -0.919123 -1.49021 -0.573577 1.72424
1230 1 -14.9186 -17.19 -8.65237 -0.459721 -1.65306 2.77053
1231 1 -19.0039 -9.39341 -7.61556 -0.428155 1.04816 0.788904
1232 1 -21.7845 15.9231 -23.988 1.89965 -3.72487 -1.40295
1233 1 -3.976 1.01491 -22.5258 -1.45281 3.34707 3.238
1234 1 15.2291 13.9584 7.13424 1.34005 -4.62395 4.65752
1235 1 12.6108 18.2337 2.24787 4.28975 1.72943 2.37373
1236 1 -6.33929 -19.7576 15.1235 -2.76557 -2.78988 4.00214
1237 1 -18.3161 21.0758 15.1479 4.4302 2.37665 -5.3427
1238 1 8.82654 -1.26571 -14.2009 -0.329483 -4.50611 4.96194
1239 1 0.217237 -23.5887 7.00227 -2.63255 -2.84409 0.475886
1240 1 -5.48289 -23.7751 3.31923 2.54842 -1.19566 2.23307
1241 1 13.2889 12.8656 -19.0514 -1.31131 3.16724 1.85732
1242 1 8.11681 -19.5552 -13.7905 3.57975 2.13013 3.25067
1243 1 9.79571 15.8457 -22.6414 0.764422 -0.820893 -2.38198
1244 1 -17.248 2.13804 8.00295 -4.00777 0.0754022 7.26824
1245 1 -17.9357 10.3972 -22.4266 -2.3687 -3.78709 -2.10362
1246 1 -6.85878 -16.0956 4.97824 -1.2751 1.19095 1.35868
1247 1 -3.89915 1.1486 -10.9513 -2.79111 -1.70634 -4.70594
1248 1 7.8521 4.50661 20.9051 3.90715 3.03274 3.26043
1249 1 7.42402 14.5262 -21.3242 0.711256 3.2962 0.928282
1250 1 6.17124 2.29611 21.6489 4.11458 -1.12653 0.384966
1251 1 21.3047 0.536698 23.3124 1.8026 4.73195 0.052593
1252 1 19.6261 -19.7034 0.262741 3.36762 7.42951 -0.305734
1253 1 14.2401 25.1024 -2.56275 -1.28457 3.93936 0.262381
1254 1 -21.5555 -19.3052 4.17415 -1.61981 -1.92322 1.76622
1255 1 -6.12401 -10.5151 8.43989 -0.29465 0.170716 2.23809
1256 1 6.17207 -20.5088 -19.8917 -2.38966 -1.70833 4.08101
1257 1 -5.90367 -23.1421 -10.9376 5.17879 -1.57285 5.15974
1258 1 -16.4606 8.43654 20.968 -3.58945 1.49695 2.44973
1259 1 19.8677 -11.8401 7.3567 0.00378652 3.42104 -1.12223
1260 1 4.23321 -8.17149 -12.9279 -1.11413 4.04584 -6.6182
1261 1 12.9167 -8.74746 -11.2062 -2.77564 -0.40157 -0.322476
1262 1 11.043 -15.0327 -5.9905 5.58786 -0.267234 -4.29313
1263 1 -14.7138 -6.95633 -2.3702 -0.214462 -3.70633 0.254751
1264 1 -22.7374 -11.163 -1.9014 -2.60092 1.07461 1.76325
1265 1 -7.80975 13.4517 -10.9484 -0.291472 -1.53272 0.0359324
1266 1 14.4566 -7.34032 2.93035 3.14154 -0.201818 -1.41199
1267 1 -23.8304 -14.806 2.6938 -2.30619 0.972626 -6.35014
1268 1 -21.5788 -12.4982 -18.4007 0.044514 3.37641 1.03693
1269 1 10.834 -5.2343 20.3711 -2.34401 4.5225 -1.569
1270 1 22.6704 15.3357 10.2952 4.574 0.149211 -1.61313
1271 1 1.11198 4.25951 17.5347 0.338752 0.982517 -0.527648
1272 1 -21.8698 9.72644 14.3882 -2.30072 1.75649 0.306305
1273 1 20.3913 5.1707 21.8763 -4.83762 0.482344 1.04924
1274 1 21.6511 19.4355 -21.2284 4.16276 -0.816511 6.11836
1275 1 2.52197 3.4243 9.10196 -0.500317 -2.64239 -0.207934
1276 1 -1.42939 -9.73111 -18.5196 -2.02471 5.07975 1.02244
1277 1 -10.2655 22.4933 -3.51284 4.04371 -3.02754 1.38079
1278 1 15.7168 -7.22528 -22.8793 -1.66812 -0.820677 -2.56896
1279 1 -20.326 16.7141 -12.7679 -2.00722 0.248172 4.43853
1280 1 1.37277 -2.81548 -4.80976 2.70859 1.73149 -4.78626
1281 1 14.9071 -10.3384 21.0226 -0.727991 -2.36766 9.4456
1282 1 10.5877 -20.5858 -3.57088 -1.10468 1.79898 -2.3335
1283 1 4.92279 -22.0065 -9.37662 -2.14283 -3.23031 -2.64511
1284 1 7.02835 -12.3591 2.3204 -0.217741 -2.05158 1.94338
1285 1 -11.8443 22.8657 17.1647 0.73546 -2.98679 1.04401
1286 1 -4.74004 5.75477 -16.2374 -1.6873 -1.74104 -2.14994
1287 1 8.84116 -16.7722 20.0351 1.96242 0.890314 3.72821
1288 1 2.20949 -3.77024 -14.8689 -1.37159 -4.41515 -0.57739
1289 1 22.4906 -10.7023 -8.29227 0.260325 2.96947 -0.524119
1290 1 1.90922 6.99883 6.46374 0.212856 0.374127 2.76061
1291 1 -17.898 14.8714 0.450064 4.11226 -0.353017 0.988503
1292 1 -6.06317 20.009 -2.59192 -0.114552 -4.465 1.89916
1293 1 -7.69879 -1.36478 0.0879843 -2.75415 -2.59309 2.71468
1294 1 14.1965 -11.8317 -6.62653 -1.16008 -0.228117 -0.326107
1295 1 14.7259 6.56594 -0.480446 2.79537 3.19321 5.33643
1296 1 -7.7928 -12.0108 4.54893 7.72362 0.0139554 -4.12667
1297 1 15.534 13.6982 16.2845 -0.0126479 2.49018 -2.51044
1298 1 1.18804 -7.63271 -1.16208 5.71489 5.48138 0.622054
1299 1 -9.4544 -11.0287 -5.46839 3.00783 -1.19564 -0.964506
1300 1 3.09088 -1.4229 -2.68046 -5.4767 1.83054 -0.624231
1301 1 11.7151 16.0917 -9.90605 0.367229 -6.84936 2.02692
1302 1 -4.3198 -3.91066 -23.1475 0.357069 3.89009 1.91272
1303 1 -7.10506 -7.58672 -16.3796 4.59177 -1.05036 0.281016
1304 1 3.18931 0.523263 -4.78881 -3.56425 -1.04626 -2.73581
1305 1 -4.77154 3.05012 10.0472 0.266382 -1.34507 -3.60029
1306 1 7.07128 -22.1636 -0.679382 0.425685 2.77109 -1.6322
1307 1 -15.3853 -24.8024 -3.79431 -3.69092 -0.477454 3.59675
1308 1 -17.1393 -4.69692 6.64925 -1.78258 2.73741 -2.36105
1309 1 -0.48168 -12.1639 -7.87787 -0.998638 -4.31137 5.13203
1310 1 -0.747929 -18.867 -1.9187 -0.46207 1.25393 -0.28668
1311 1 -2.94869 19.6365 -15.0213 2.73503 1.57741 1.79158
1312 1 -16.4307 -7.93395 4.34558 2.65844 0.714901 -0.995033
1313 1 17.6127 18.3788 22.6541 -3.02908 -3.32928 1.17363
1314 1 -16.2886 11.0634 -17.9965 3.13105 3.91964 0.207671
1315 1 -20.0598 -12.5326 -22.5894 0.937942 2.71815 -1.44817
1316 1 17.7111 -10.9822 -14.3561 -0.912016 -0.695044 0.654777
1317 1 -11.1551 9.24318 -12.1255 -1.31277 2.15611 4.23581
1318 1 22.7661 21.0469 -0.84898 -8.03542 -0.4284 -3.54167
1319 1 14.264 25.0875 0.266388 1.03607 0.502699 -3.82755
1320 1 18.8754 -5.23207 -10.384 1.19487 -2.0276 6.84408
1321 1 9.01594 -22.032 -6.39208 -5.10854 -0.354784 3.27277
1322 1 1.64854 -14.259 -3.94341 -4.91677 2.92484 -1.33247
1323 1 13.4657 -13.0366 12.7234 -5.48416 -2.22376 -3.93034
1324 1 -10.8055 -19.914 -20.2009 3.70089 -3.18544 -0.905522
1325 1 -4.57243 14.7999 6.28308 0.5631 1.59838 2.23277
1326 1 -19.3925 -18.3412 -21.5292 2.90273 7.84415 4.29971
1327 1 -8.65752 20.2064 -23.8016 2.95394 1.23543 2.56795
1328 1 10.2752 13.0286 7.07941 -0.89017 -3.00014 2.70706
1329 1 21.5774 -13.3771 -3.39043 1.41652 5.00283 3.24726
1330 1 -8.8498 15.5074 -6.60948 -2.59414 -2.88742 3.71984
1331 1 -18.7197 3.65989 -3.72991 -4.01148 -4.10581 1.73714
1332 1 11.4008 -18.9839 -24.0962 2.45591 -3.38855 1.65665
1333 1 0.24306 9.37013 6.5391 1.01354 -0.0865474 -4.98519
1334 1 11.8572 -9.92034 -8.67328 -2.11183 -4.58745 -3.54322
1335 1 -14.2002 24.9988 -14.9479 1.95157 -1.56195 0.50069
1336 1 2.8178 18.788 -6.07532 1.84941 4.73938 -2.14342
1337 1 7.59058 -19.9636 7.96126 2.03957 5.60592 2.14871
1338 1 1.34053 5.83866 -1.50623 -4.06242 1.92113 1.82384
1339 1 2.31971 -18.1894 22.5378 6.3814 -0.50366 4.71738
1340 1 -18.8716 16.3529 10.007 3.35023 -3.78793 -0.965985
1341 1 3.28397 9.79344 13.4086 -0.853706 2.60922 -2.26624
1342 1 1.80898 -22.5171 -16.3866 -5.74951 -1.91117 -2.41083
1343 1 -11.2758 -8.15001 -6.68728 1.09924 2.05936 3.66851
1344 1 19.1194 -8.99457 4.07236 -0.957171 -2.18032 -0.9449
1345 1 -23.5927 3.32964 -19.42 -1.05386 -3.42844 0.160578
1346 1 16.248 -2.43535 -14.6221 -3.04594 -2.88196 0.39683
1347 1 -16.505 -13.4498 -20.5636 3.42522 -2.25968 1.88101
1348 1 5.53441 12.1817 -15.5715 2.0696 -2.1383 0.702851
1349 1 1.74792 -12.4661 9.17997 -0.576771 -1.76919 2.19731
1350 1 -14.3909 0.372242 -2.85877 -1.97562 6.65127 -1.68095
1351 1 16.7259 -14.8642 16.9286 3.67653 2.88135 2.33082
1352 1 5.72473 23.1291 21.0336 -3.29935 2.28835 -1.6629
1353 1 7.06228 22.3808 -1.19341 -2.97921 -2.26223 -0.60542
1354 1 -2.36602 -5.48721 -16.7583 1.86913 2.24783 -2.45452
1355 1 -7.16662 22.1551 17.6894 -4.69682 -2.19451 0.791916
1356 1 -20.1806 -12.0639 -0.605765 -4.73733 -1.05795 -2.82088
1357 1 -20.2385 -8.86372 -10.4259 -1.88412 0.25552 -3.018
1358 1 -11.0086 24.4002 22.3934 -1.52271 0.490233 -2.20211
1359 1 -20.9694 -23.7963 23.0779 -4.54365 0.49633 1.8213
1360 1 18.5377 -14.5788 7.92132 -0.450179 1.48051 -2.04999
1361 1 -7.51105 -22.4132 5.17504 -0.537521 1.22252 1.14743
1362 1 20.4996 20.7278 7.42985 1.51335 -2.34527 -1.37413
1363 1 -15.9242 -10.9028 -21.6112 -2.57251 -3.43055 1.74701
1364 1 11.8009 -12.6758 -12.7661 1.62396 -2.83695 -2.20893
1365 1 8.30372 -5.75571 -21.7724 -2.99527 -0.733077 1.2479
1366 1 19.7422 -15.124 0.479793 2.40808 -1.25926 3.86173
1367 1 -10.5772 -12.9597 13.0218 0.62918 -3.1676 4.03727
1368 1 -18.4244 16.7258 -1.82281 -2.98981 0.887314 -3.64
1369 1 -24.3764 3.17882 -3.96398 0.423339 1.36201 1.02709
1370 1 1.03634 -13.7299 23.6519 -0.835693 -1.13908 -0.260887
1371 1 -20.5492 9.81744 -3.86913 -0.177615 -0.583776 -3.81344
1372 1 -11.1381 11.7155 3.91516 3.30821 0.791023 1.74067
1373 1 -14.1897 -7.39745 14.2073 0.624592 -4.56515 3.30978
1374 1 -18.6404 23.1175 17.2789 -1.91867 -2.62431 0.585595
1375 1 17.1799 -6.53899 3.81402 -0.0996232 -1.11759 -1.05746
1376 1 6.21773 11.3528 -5.9167 -1.19993 5.24971 1.74125
1377 1 -13.7489 22.1418 23.3739 -1.7778 -0.277057 -1.07427
1378 1 9.42099 -9.80178 1.10353 0.868822 0.246756 0.367179
1379 1 -19.5633 -17.3749 4.89735 -5.57038 -2.26357 0.194428
1380 1 16.7081 22.2683 -7.09927 -4.43584 0.792666 6.36904
1381 1 18.4031 17.6024 10.9597 -3.55535 1.203 -2.96724
1382 1 16.1601 -13.737 8.89777 0.474366 0.472351 -3.1975
1383 1 -7.14841 -22.3819 -15.1924 0.189155 1.01357 -1.32398
1384 1 2.14926 21.5621 -10.9686 -1.82801 1.7174 3.25194
1385 1 -16.7282 22.889 12.5163 -0.708321 -1.19749 -0.965991
1386 1 -10.6417 8.73459 1.1392 1.74227 -1.60077 -2.07962
1387 1 -18.9704 -0.402311 -0.310436 2.74281 3.73478 4.98001
1388 1 14.6346 -3.53437 17.976 1.19339 -0.0956577 0.370359
1389 1 19.9222 -4.42597 -0.670207 3.86355 4.74418 2.33169
1390 1 6.40575 -3.08782 11.3807 3.55821 1.38404 2.9625
1391 1 -11.9221 20.6902 21.9027 -2.29539 -3.26096 2.93261
1392 1 22.6477 3.24912 4.47155 0.372674 0.309686 3.30169
1393 1 -1.90337 -5.75938 1.40689 -0.323107 0.823529 -3.48521
1394 1 2.46834 6.50477 0.774952 1.89841 -0.240452 -3.26995
1395 1 0.525685 9.78107 -7.35768 1.18116 1.1355 1.51152
1396 1 -18.1338 -9.3399 8.04245 4.03727 -1.71752 -0.999162
1397 1 3.54079 25.6114 -6.87113 1.39969 2.27468 -1.20628
1398 1 3.57798 23.1991 -5.10849 -0.911552 -5.26612 5.44552
1399 1 -2.66712 -23.3808 -0.795976 -1.62544 0.417405 1.53801
1400 1 -13.2052 14.0317 -22.7577 1.65118 4.45372 1.15637
1401 1 21.9608 -22.4989 21.8118 0.804093 0.723243 2.10834
1402 1 -18.741 -5.23274 -15.9833 3.44598 -5.88117 4.527
1403 1 14.9525 -22.4404 16.5592 0.479005 3.63014 4.72651
1404 1 20.466 -10.7431 9.84306 4.46164 -3.68677 1.5291
1405 1 20.3859 21.4949 -23.3148 2.36762 -2.44085 -1.27259
1406 1 -8.23134 2.31068 -12.8781 0.491853 -2.72268 4.52318
1407 1 -22.7183 8.6366 -2.47025 2.12591 -3.19211 -1.16197
1408 1 -5.6851 -4.8946 -13.2458 -2.33958 -1.93681 -6.53125
1409 1 -0.43862 4.75059 22.6808 -1.53273 3.6787 6.37823
1410 1 0.492717 -19.0073 -17.36 0.34192 0.59318 -5.47977
1411 1 19.8453 2.50858 -23.309 3.41084 -1.69314 1.6064
1412 1 -19.1737 12.9913 -11.4517 1.69474 -2.09549 4.00701
1413 1 -15.784 3.63369 -19.985 -1.12392 1.25432 -4.49227
1414 1 5.6836 22.699 4.90413 -7.0719 -0.797226 -2.47946
1415 1 -6.92018 -22.0821 1.22845 0.532115 -0.70081 0.551854
1416 1 -22.3103 -7.2418 10.1182 0.796257 -1.09681 1.52226
1417 1 10.6046 5.36467 12.5657 -0.644487 -0.0700209 2.18293
1418 1 16.7895 -7.25715 0.0293194 -1.20601 1.57711 0.99816
1419 1 9.74725 23.0412 -2.45851 2.71797 -2.55539 2.09088
1420 1 -12.6258 18.6485 -22.0463 0.278038 -2.16367 1.02839
1421 1 -24.3531 -9.47817 5.78197 2.15269 -1.44705 -2.28476
1422 1 -13.4982 -19.6968 -15.624 3.67319 4.20846 1.36699
1423 1 8.17275 21.0642 -19.8635 3.7921 -1.49593 2.06355
1424 1 20.8265 11.6891 -7.78145 4.7425 1.58284 -3.43875
1425 1 -1.26743 5.28591 -11.1037 -2.72277 -1.73663 -2.99156
1426 1 7.8484 -19.9331 3.69667 -1.22996 0.589225 1.72015
1427 1 19.1617 -13.2794 -1.63692 3.62281 2.3491 -5.3526
1428 1 -5.15536 -17.1048 21.1419 -0.830567 -3.01756 0.184328
1429 1 -20.8809 -16.5553 7.08438 1.7914 3.58022 -3.71051
1430 1 0.588281 14.9877 6.70568 -3.1116 -3.49622 -1.00056
1431 1 -9.89676 1.14687 -10.6152 2.21078 0.0836012 -1.5658
1432 1 -11.2005 9.18712 23.1941 -0.591991 0.352602 -4.11505
1433 1 -18.0904 -12.0112 -15.0028 0.419154 0.732584 3.12517
1434 1 -23.4548 5.7017 20.9618 -0.491734 -4.08029 3.84486
1435 1 16.4274 21.1426 -4.26935 -1.29102 3.53492 -0.826504
1436 1 -16.4068 -4.44284 -14.7214 -2.45289 -0.12454 -7.08358
1437 1 4.92774 15.2407 -20.3208 2.9909 -6.85233 -2.40261
1438 1 -0.978295 -0.608622 -14.7195 -3.50463 2.81284 -3.46786
1439 1 -19.4922 9.51688 -12.1136 -0.631629 4.51714 -0.435347
1440 1 -23.0843 12.8263 -2.31852 0.541649 2.00453 -3.00525
1441 1 -17.239 -15.8536 17.3459 -2.80733 3.09552 3.59292
1442 1 -20.9871 -7.06475 -4.68267 2.90181 2.54298 -5.69919
1443 1 17.7154 -12.237 17.0545 3.55608 2.55933 1.09648
1444 1 13.0087 20.1085 24.1727 1.37631 -3.14823 0.0745808
1445 1 12.2412 -18.8948 9.74283 -3.1968 -0.10412 -1.12919
1446 1 2.10561 -9.21926 -9.71724 -3.75653 -1.18095 -4.98289
1447 1 22.1105 -5.67664 -17.8238 2.31063 -4.7486 0.248963
1448 1 -15.0045 2.29982 4.94118 -2.25876 -2.68028 1.03248
1449 1 11.1947 -2.8212 1.30259 -1.51333 0.520387 -0.861368
1450 1 -5.90241 -4.97256 -9.17707 4.429 0.638558 4.35131
1451 1 11.7319 20.5852 -10.534 0.0494464 4.75949 2.54512
1452 1 -7.63433 -22.2139 -19.3157 8.91835 0.909605 4.82059
1453 1 -0.265424 -21.9802 -7.57967 1.4811 -0.260679 2.33766
1454 1 7.77763 -11.8272 -0.466667 1.36044 0.592621 -0.786806
1455 1 -14.5053 -19.4586 -3.95317 -2.04919 0.947025 0.743218
1456 1 -16.7944 14.878 11.9285 2.47056 6.34772 -2.09105
1457 1 -19.1761 2.01221 -19.6382 0.345114 1.00581 -3.54707
1458 1 -20.8944 12.9704 8.23936 -7.28088 5.31917 3.1017
1459 1 -13.8609 -13.0124 -4.97827 2.10988 1.02922 -3.85218
1460 1 -13.6557 8.09772 -12.4531 1.14069 3.62907 3.35385
1461 1 -14.086 15.2797 23.2968 -0.714774 -1.91212 3.51272
1462 1 -9.304 -17.9236 8.83025 -0.531386 -0.5492 0.463949
1463 1 8.58815 -0.96972 12.2732 -0.305505 -3.96596 -1.45266
1464 1 3.25561 -17.7424 5.55896 0.185363 2.49067 -1.91824
1465 1 -20.7868 23.482 -13.8854 0.921319 0.374119 2.24273
1466 1 -17.1047 -5.86334 -3.41058 -4.8984 1.22176 -0.23419
1467 1 23.0043 -15.8884 -16.7701 0.275324 -0.733406 -1.50391
1468 1 19.8107 25.6093 17.1527 -1.48209 3.60469 0.851592
1469 1 19.0703 12.0843 5.82616 -2.9756 -3.93902 -0.367562
1470 1 -4.11572 -13.3317 5.12658 3.97783 0.400843 2.06234
1471 1 -3.76839 -4.67371 -11.041 3.74556 -1.90988 -1.28844
1472 1 22.3524 3.67306 15.3965 -4.16747 -1.70856 -2.1794
1473 1 14.8423 -19.5239 -15.314 -1.00744 2.55513 -0.212552
1474 1 0.632132 21.8207 -23.6541 3.47628 -1.70084 -0.797073
1475 1 -22.4046 -23.7877 -4.85706 -4.88284 2.82861 1.53548
1476 1 -20.6301 13.7409 -19.5675 4.27751 -1.2295 -1.32839
1477 1 19.5062 -0.484269 -0.230929 -2.67704 -3.19657 1.91634
1478 1 -0.360102 3.13984 3.40811 -0.260976 -3.04816 -4.55566
1479 1 9.86881 -8.65885 6.74314 3.58186 0.501297 -3.67889
1480 1 1.84239 15.0033 -4.53058 2.04624 -2.53261 -0.154051
1481 1 -7.04477 15.6756 -1.63103 0.901321 2.42024 5.54199
1482 1 4.90814 21.6302 -22.6052 2.20603 0.236586 -4.14825
1483 1 10.2266 -22.7001 -19.4989 -4.7416 -0.794272 -2.99366
1484 1 -6.40165 10.5962 7.76176 -1.44215 3.21352 0.155922
1485 1 7.60542 -10.269 -24.0619 -3.70993 -5.19864 -1.58461
1486 1 -17.4631 -4.35264 15.8956 -1.85112 -1.08367 -3.58213
1487 1 -2.08711 4.80978 -16.4627 4.32263 4.6753 3.25261
1488 1 -18.701 -15.536 12.1122 -2.55334 -0.388692 -1.06059
1489 1 -23.6051 15.5256 -2.44188 -0.411836 -1.437 3.10988
1490 1 -21.9409 5.81464 -2.94217 0.84522 -1.1157 -0.307389
1491 1 11.7988 7.46473 -5.23944 -2.12597 -1.37016 2.36717
1492 1 -11.52 12.6233 10.6144 -2.34951 1.76579 1.48289
1493 1 -3.90473 -7.23406 -14.5973 -3.68506 -3.90891 -2.89409
1494 1 -7.66334 5.51603 -19.5126 -4.47275 1.57485 2.35025
1495 1 -20.4055 -9.15331 20.6168 -0.0895516 -1.49178 1.21016
1496 1 -3.68956 9.63692 -8.74708 -0.652304 -5.77596 -2.03317
1497 1 13.2562 -8.87122 -19.6131 4.91868 -2.36342 -5.86777
1498 1 -13.6741 5.70191 11.315 2.05951 -1.01882 -0.823933
1499 1 16.4889 3.16549 21.9063 1.08341 0.518889 0.409367
1500 1 -19.2286 18.3069 14.6451 1.92885 0.0605607 2.60696
1501 1 8.68058 15.0845 -14.4654 -0.151365 -1.89472 -0.0843618
1502 1 -24.1468 -4.95194 -5.51044 3.70292 -4.60201 4.74204
1503 1 8.35343 23.9646 -22.6873 7.29157 6.09303 0.0872396
1504 1 -4.24657 -23.8438 -6.1476 -1.59262 -0.130206 2.97004
1505 1 18.2058 -23.6768 -21.3363 4.06474 0.830224 -3.82104
1506 1 15.0619 13.4659 -0.908351 -3.20682 -6.01072 -1.61254
1507 1 -20.3894 20.2504 -6.13543 -2.97494 -5.987 -3.12171
1508 1 21.5511 -10.131 -3.724 -3.84071 2.56621 -1.62135
1509 1 12.0822 20.91 -7.54996 2.64985 1.47937 -3.14393
1510 1 -16.0146 -10.747 -0.383971 2.10275 -3.34874 1.9253
1511 1 -23.8223 -5.72889 16.3054 -3.40423 2.94282 -3.39626
1512 1 -13.3926 -14.0268 -2.18739 -0.848939 -0.170045 -1.70999
1513 1 -20.078 -0.432896 17.4067 -2.38525 -1.90551 -1.61525
1514 1 -13.7444 -4.13216 -8.49437 0.178097 0.657184 -0.172598
1515 1 -6.85599 -21.4155 20.4946 -0.558388 4.96678 -1.26727
1516 1 -10.2676 22.6481 -23.8323 -3.40068 -2.0119 -1.79023
1517 1 23.5415 -15.042 -9.47759 2.82519 -1.49393 2.47246
1518 1 -0.66943 11.7598 24.0409 -3.95055 -1.74534 -2.61198
1519 1 -12.2858 -17.9771 0.179369 4.35293 -8.77569 -1.43915
1520 1 10.9233 4.36853 -12.8693 -4.1646 -0.134637 2.25556
1521 1 -7.90054 -9.70051 18.6393 -0.853131 1.82096 2.32405
1522 1 -13.1344 -1.99782 -13.9129 1.62891 1.47845 -3.49674
1523 1 -7.1473 5.90962 14.0919 2.44251 -0.229581 -1.23341
1524 1 1.10646 -19.0058 6.65146 -0.82226 -3.4168 3.10314
1525 1 -9.85505 -7.3409 1.3859 2.24184 1.377 -5.74844
1526 1 20.8298 23.7242 0.484378 -4.06828 3.10474 3.09571
1527 1 2.38496 0.391229 -9.71466 -0.923044 -3.14212 5.57314
1528 1 11.2373 14.9193 15.4931 -0.00469181 -3.49771 1.24646
1529 1 -7.00775 1.69656 11.486 -2.45893 -2.14962 -3.21918
1530 1 17.0904 17.112 5.05104 1.81831 -2.18627 2.81309
1531 1 5.76867 -9.35258 10.4257 4.35116 -2.64965 -4.02781
1532 1 19.5489 -4.86451 -16.9488 -0.600698 -1.15059 1.46779
1533 1 11.6098 20.142 12.6735 -6.04797 -2.53728 1.6364
1534 1 -16.1256 -6.38817 12.0866 4.98379 -3.17679 1.43094
1535 1 2.72572 -7.74563 13.693 -1.77982 1.04671 0.32886
1536 1 -7.83936 0.323219 -24.1017 1.95701 -2.04837 4.1282
1537 1 -3.27518 25.2015 -18.0613 1.58959 -0.523958 -0.434277
1538 1 6.33849 16.584 17.2756 -1.3754 -10.5893 -2.66474
1539 1 1.7667 7.02924 -16.3825 1.18418 -2.85187 -0.627178
1540 1 -21.4431 5.72958 -23.784 0.539041 4.07836 -1.54365
1541 1 7.32589 -18.875 -7.3928 0.600297 0.201087 -4.96026
1542 1 -21.1421 -5.11607 15.3937 -0.941292 1.1391 1.01658
1543 1 2.57135 -2.45042 12.9172 0.479929 0.0979871 -1.01286
1544 1 -4.46104 21.8739 -20.0032 -2.49902 3.0662 -0.137747
1545 1 -8.31628 -14.8157 13.9827 0.379392 -3.12226 0.666782
1546 1 -14.7712 -13.8665 20.1181 3.04898 -6.41996 2.52478
1547 1 15.9282 0.370212 -1.85918 1.37009 6.09485 -2.60539
1548 1 16.5064 47.1997 -7.5957 -2.48313 0.963109 0.146049
1549 1 -2.31983 -3.00586 -15.4965 0.606661 -1.24862 5.80316
1550 1 -2.51636 -7.28459 -10.1271 4.13854 -4.13374 3.34689
1551 1 11.2877 -0.952084 -5.98427 -1.77242 4.62017 -1.0412
1552 1 17.9144 9.59075 -18.5154 0.816365 2.94505 -1.27722
1553 1 -9.76686 20.4916 -15.5607 -0.109647 6.55202 -0.733941
1554 1 -6.32213 -6.19404 -21.113 1.0285 2.40225 -2.76404
1555 1 -20.0993 -4.16785 -4.9542 -4.96011 2.53804 -2.50009
1556 1 21.1026 -19.3974 -9.35192 -4.38639 -6.65023 3.86724
1557 1 8.4365 -23.8357 -17.672 -1.40192 -1.14517 -5.76838
1558 1 8.74658 -17.1345 -0.0502578 6.33802 -2.06904 1.539
1559 1 21.6076 18.5225 1.64767 -3.8791 -4.69016 3.24278
1560 1 -20.3468 -18.8717 19.1676 -0.888121 -3.19718 -0.0540919
1561 1 22.1835 17.9422 -5.76472 0.206859 -1.95992 2.18053
1562 1 0.12702 -3.58101 0.854279 -0.510713 -3.35618 0.280631
1563 1 -4.27006 -7.02274 12.877 2.48152 3.3898 -1.93569
1564 1 10.4401 15.5396 -7.39093 2.29604 0.479124 -1.48265
1565 1 -5.60132 15.1753 -11.0103 0.263277 3.06236 -3.02941
1566 1 2.16619 -8.59022 8.12062 1.1552 1.54054 2.69879
1567 1 0.509954 -8.66113 -21.7079 -1.75759 2.14025 -4.61755
1568 1 17.5303 21.4343 -9.79193 3.77212 -6.03698 -1.99875
1569 1 7.72813 13.2239 4.46952 5.94653 -0.858935 1.56572
1570 1 -22.32 1.81279 -12.6083 -4.29698 -2.07012 -0.927101
1571 1 -2.91395 -10.6004 -1.24492 2.07745 1.57407 1.12871
1572 1 -1.2835 -16.5036 11.9758 4.12216 2.17194 2.13283
1573 1 -11.6037 -12.6916 17.4952 0.227694 -2.43049 -5.27198
1574 1 19.4579 -18.4146 2.74208 0.527551 1.98782 -2.92698
1575 1 -17.1098 14.6486 4.92662 2.89153 -2.8163 -0.783807
1576 1 12.6029 20.3318 -19.7257 5.46264 0.734086 2.99175
1577 1 15.5657 -22.7643 6.38505 6.66268 2.73278 -2.02064
1578 1 17.1692 0.566519 -11.4225 2.76526 0.167628 -2.92363
1579 1 -5.4305 13.6679 -6.64878 -5.18687 0.291107 -3.4291
1580 1 -17.3142 -22.3602 -7.21562 0.354878 2.24945 -4.35321
1581 1 -6.84068 -5.80482 12.5122 3.04523 1.22105 -5.54351
1582 1 -13.9698 6.77171 -0.932804 0.00345626 1.94864 -5.32454
1583 1 10.6455 -2.21449 -3.59849 1.15601 -1.05432 3.80338
1584 1 -6.51087 -4.02908 14.7859 2.22755 -2.95313 -4.1283
1585 1 -7.98036 -13.3926 21.2385 -0.844661 2.80466 -3.4998
1586 1 -19.2121 -23.5132 -1.04093 -2.00733 -4.98123 -0.800183
1587 1 17.7336 -2.84862 -9.36667 -1.41488 -1.22268 0.655185
1588 1 2.74845 18.3982 -21.2329 0.986201 -5.1166 -2.93141
1589 1 -11.5489 -21.4906 -2.78755 -6.43566 -1.14238 3.05354
1590 1 21.2692 8.51152 -14.8149 -1.63885 1.23309 -3.72915
1591 1 14.5423 13.4457 2.17891 5.9132 2.36076 0.147058
1592 1 19.088 8.21592 16.489 -4.05607 -0.151323 -1.18714
1593 1 0.510879 24.4466 -18.9613 -6.30452 3.12438 -1.01399
1594 1 11.3002 6.35698 -1.37463 -2.60529 -0.451038 -1.20263
1595 1 8.23016 14.7367 -3.60787 -6.91886 -0.75766 -4.05232
1596 1 -4.62059 -1.91238 -18.8228 -2.09523 1.05281 -1.31461
1597 1 18.1803 -23.5603 7.04711 -1.39154 0.511291 4.22424
1598 1 4.2348 12.3246 3.1906 1.64609 -2.20156 0.936981
1599 1 -21.5784 -3.62928 9.22233 1.24564 2.06201 -4.06837
1600 1 15.6122 -14.647 -16.7887 5.22107 1.51668 -3.51481
1601 1 8.01191 15.6126 -17.2226 -1.62767 -2.76061 2.48
1602 1 -19.3165 -13.6028 -19.9578 3.20028 1.95653 -2.76846
1603 1 6.85401 -9.33993 -12.6298 0.16184 3.99663 2.60726
1604 1 18.0852 -14.0061 -15.5644 -4.82884 0.797115 1.91269
1605 1 -0.205708 -1.27334 -11.7554 -1.47403 -0.438633 -1.5228
1606 1 -21.1261 18.1363 6.07429 1.50389 -0.708102 -3.85863
1607 1 11.7583 -22.6944 -15.3328 -0.695066 0.548425 -1.60342
1608 1 22.4157 3.89892 8.04911 -4.8221 -0.01534 5.54083
1609 1 -23.7297 19.3641 -18.9874 -4.44264 -0.267586 -2.22069
1610 1 -12.2891 20.2686 -14.4049 4.92554 0.974029 -3.71583
1611 1 5.81237 11.4618 -2.17004 1.07884 3.13613 0.376757
1612 1 -23.2817 -17.687 14.1229 -6.03267 -0.717812 1.94496
1613 1 0.782412 -16.8591 1.92457 4.94443 3.26503 1.549
1614 1 -15.3753 -12.1874 1.90758 -3.57594 -0.972031 -7.4112
1615 1 -4.02328 -15.8998 -11.5032 -6.70195 2.68261 -2.47137
1616 1 15.4607 -12.1111 -18.3059 -2.19626 1.51513 -1.49
1617 1 -15.294 -13.4546 -10.6963 -2.15753 0.671964 -4.42944
1618 1 11.3914 17.6069 13.9924 -2.59381 2.01079 -0.920138
1619 1 14.7883 13.6135 19.0348 -1.89643 1.33454 -1.43071
1620 1 13.7498 -8.8278 -6.67316 3.07121 0.0461851 -3.56033
1621 1 -19.7736 4.11238 11.7739 3.26812 1.28428 4.49184
1622 1 -15.5725 21.7496 14.731 -2.60681 1.82665 -1.75812
1623 1 -9.72572 -16.9755 15.1031 1.38831 -3.98952 3.20567
1624 1 6.83391 19.8091 -21.7973 -2.32243 0.694276 5.36356
1625 1 12.824 13.4574 -10.5516 -2.18019 0.701476 -2.39406
1626 1 15.7317 -0.00850953 16.7029 -2.57416 -0.653808 -2.65175
1627 1 17.957 -6.62773 23.7964 -0.027093 2.42493 3.75179
1628 1 19.9232 3.96013 2.25214 4.17181 1.65315 -2.23558
1629 1 -5.28904 -22.3145 15.8022 -0.294886 1.79112 3.73789
1630 1 12.4215 -8.48382 20.8311 1.64286 0.0839648 2.80783
1631 1 -24.4042 -19.8649 8.02926 -3.53384 1.29313 1.72648
1632 1 -5.08094 8.36264 -21.9119 -0.807643 5.16768 -1.05296
1633 1 18.535 18.708 -23.0559 -2.23289 -1.09094 0.332786
1634 1 -20.3467 -9.50925 -23.3694 0.992367 -1.66366 -1.06785
1635 1 6.58877 -16.665 -10.1691 2.10831 1.65752 0.50827
1636 1 18.2633 -10.9203 11.9783 3.53791 -0.676656 4.82399
1637 1 -0.702417 20.4307 -2.46225 -2.21415 2.06758 -1.35111
1638 1 14.3416 -5.08881 -19.083 -4.20575 -0.891433 -0.334712
1639 1 13.2949 11.2043 18.0567 -1.28697 -0.509357 -4.15965
1640 1 -15.9096 -22.2934 -13.5573 1.68971 -3.26415 -0.147631
1641 1 20.0193 -13.1595 20.1874 0.198528 2.73392 -1.22059
1642 1 -1.57071 22.325 4.94329 -0.208775 -0.595978 0.151654
1643 1 -7.22093 22.0422 -8.33014 0.149365 0.727183 -1.54047
1644 1 -18.5423 -0.440129 10.5714 2.86393 -1.64721 -2.22874
1645 1 -5.03758 -5.5194 -6.0858 -3.16673 -2.14447 -2.27788
1646 1 -22.0437 -7.45998 -18.6676 4.78306 -3.2084 -2.4803
1647 1 16.6348 11.7093 -17.2789 -2.22478 0.416374 -5.07096
1648 1 -20.6897 -15.3343 -23.1768 3.02858 3.65387 1.39188
1649 1 -17.1241 -6.45587 -11.0988 -5.46212 0.668222 -1.2198
1650 1 11.3694 -2.27547 -13.2726 1.31883 -1.37288 -2.95957
1651 1 14.1834 -18.5757 -0.171191 -0.609746 1.06302 -0.723327
1652 1 13.3933 3.77737 -19.5337 0.124164 -3.87312 1.25476
1653 1 12.917 -23.654 3.5475 -1.71946 1.59054 3.36152
1654 1 5.96662 -17.4654 12.0085 2.41212 0.551064 -1.80771
1655 1 -1.65202 13.1323 12.9412 -0.653289 2.13816 -0.0786763
1656 1 -3.381 13.3058 18.7677 6.27574 -7.05084 5.47194
1657 1 17.6965 7.99396 -12.8106 -0.609712 -4.19595 -3.0029
1658 1 -17.9862 18.788 6.68382 3.14259 -2.07772 -3.66808
1659 1 -4.96151 -23.8282 7.61663 -3.99145 0.569545 -6.06822
1660 1 3.16742 -9.39735 -22.8258 1.63319 -0.978528 -2.89026
1661 1 -23.8401 -0.245957 18.7032 0.617637 1.723 6.42616
1662 1 -9.44184 -22.2257 -8.34178 2.00454 -0.464983 -0.888935
1663 1 -14.5208 -0.968583 -0.36123 -2.55806 0.0628227 -2.72041
1664 1 3.3769 -10.7394 -13.8363 6.85202 4.55492 1.14522
1665 1 -5.68322 6.02828 18.1325 -4.73609 2.32378 -2.01941
1666 1 16.9487 -6.70738 -16.1401 -0.677473 1.96571 -1.14638
1667 1 -13.349 -1.99994 8.21291 2.5108 2.8748 2.52234
1668 1 -10.9462 19.4943 7.82371 1.98941 1.74435 0.0244466
1669 1 15.3523 -23.8522 -13.045 -2.87603 -0.510977 -2.38233
1670 1 4.30221 16.4317 -1.50504 2.31419 0.466045 2.1668
1671 1 -13.7131 9.09619 21.4401 2.55607 -0.943055 1.19988
1672 1 3.77478 10.5203 22.6975 0.26256 0.569237 0.43941
1673 1 3.25798 -17.8204 2.81995 -4.31599 2.19639 -2.07261
1674 1 3.27966 -3.42418 -7.79817 -1.53471 -0.644238 1.09385
1675 1 1.34525 9.45479 15.7839 -2.0337 3.93616 4.27093
1676 1 -18.3158 2.20566 -6.07136 -3.4634 -3.55244 -1.65938
1677 1 22.8111 -19.7439 10.7141 1.22023 -1.66947 1.22231
1678 1 4.2751 21.7734 -17.864 -0.788461 2.05138 -2.39753
1679 1 -9.71207 22.2765 20.5967 -0.556294 0.981262 0.0809938
1680 1 -23.5722 -17.7556 -21.0652 0.410642 0.853115 -0.123434
1681 1 -17.5763 -8.7249 -21.9982 -0.00114249 -2.29185 -1.20684
1682 1 7.38063 9.30548 0.916762 0.0349347 3.02793 -4.26775
1683 1 14.9077 24.6585 -15.9407 -1.76564 -3.5809 -4.13828
1684 1 6.36802 15.3216 14.799 -1.72613 -3.53969 -0.677946
1685 1 -21.9392 15.4239 21.7634 -2.35326 -0.829403 -1.41658
1686 1 11.0282 -10.4818 22.5401 2.30034 2.40149 -4.02451
1687 1 20.2945 -16.1205 -13.1017 -1.05845 -7.90495 -2.76992
1688 1 -18.2521 -2.40765 -13.1901 2.00926 -0.909455 -0.173836
1689 1 3.06398 -24.6029 -0.600851 -0.968287 -1.79596 -2.24635
1690 1 -6.74646 -24.4973 11.7434 1.35048 2.22417 1.03861
1691 1 -16.9661 -14.2268 5.24707 2.33845 5.3925 -0.307135
1692 1 -4.60895 20.1341 -6.0158 -0.196149 2.78682 0.831049
1693 1 23.1061 7.60479 22.9991 1.77783 0.636027 -3.61861
1694 1 -13.6434 2.98481 -14.2087 -1.55256 -0.342159 1.02341
1695 1 17.0092 -24.5547 -10.3461 -3.36628 2.1579 -0.388426
1696 1 11.9049 -0.605934 2.89982 0.96931 1.42993 -1.59118
1697 1 -11.8796 -22.7692 5.79 0.233223 2.44758 0.432044
1698 1 -8.9752 11.8937 -2.80056 -3.36018 -0.19715 0.554289
1699 1 14.0814 0.942198 14.6309 -0.504046 0.720134 0.27687
1700 1 14.0639 -1.00868 -13.2922 -2.66775 2.18826 1.90821
1701 1 11.8087 25.2815 -4.39346 -0.481715 -3.2436 -1.29747
1702 1 2.42855 -19.6802 13.3284 1.53155 -0.896623 -1.38574
1703 1 1.10621 4.44171 -12.5185 0.339818 -3.07711 -4.42512
1704 1 -10.7846 -11.3944 4.74896 -1.79443 -0.511565 1.66449
1705 1 -1.50857 24.9697 18.9502 4.49461 -0.984084 -3.68033
1706 1 8.16217 9.87216 -20.159 4.87995 2.40271 3.54666
1707 1 -10.1843 -10.4633 17.0633 1.08304 -2.17153 -0.311605
1708 1 -6.61409 22.6375 13.0293 -1.58092 -3.34206 -0.268994
1709 1 18.7281 18.1194 -2.05752 -1.80767 4.72433 4.74522
1710 1 -8.64101 -20.2715 -13.8826 2.65861 -0.58058 1.58643
1711 1 -4.58344 4.64055 1.79671 -1.27093 3.78711 0.196657
1712 1 11.7136 14.1231 -21.0815 4.27333 1.23028 -1.58873
1713 1 21.2718 17.8516 10.4241 1.44874 -1.70853 1.47897
1714 1 6.23776 -0.134581 -10.4451 1.21202 3.75479 -2.99282
1715 1 11.7189 25.1842 17.5687 -2.44403 3.80483 2.93348
1716 1 15.2097 -23.6743 23.4378 -0.0780929 0.699557 0.680555
1717 1 10.7544 -16.0589 -1.85829 -1.62622 2.95818 -2.21114
1718 1 6.0935 -20.0598 -11.5358 -5.91829 -0.853263 -0.624359
1719 1 22.0616 7.9923 0.145612 -5.43186 -2.55635 3.99187
1720 1 -2.44579 -23.4951 8.95531 4.78177 -0.462191 -1.05426
1721 1 5.82712 1.21266 11.1307 4.46091 -0.280075 -1.2611
1722 1 18.6299 -22.2992 16.8246 -2.19448 2.21973 3.61952
1723 1 -24.1253 17.3879 1.83707 2.56724 -1.78019 4.72233
1724 1 -17.9113 -24.002 -4.75242 0.350945 2.52042 -1.81449
1725 1 -13.7367 6.36973 -17.7883 -4.44026 4.16029 -2.777
1726 1 17.6592 21.1186 23.8687 0.335899 5.24242 1.36996
1727 1 23.5044 -3.39562 -18.486 -5.14845 4.69884 -3.22799
1728 1 23.8553 -6.77566 -19.9138 1.6175 3.26519 -4.11363
1729 1 -13.3524 7.55413 13.7791 2.39901 -1.55765 4.5648
1730 1 -4.37435 -10.4168 -23.4731 6.15038 2.2815 0.0874527
1731 1 22.0014 4.91215 -3.07411 -1.17959 -3.12874 -0.939785
1732 1 14.2516 -12.5926 7.18137 -3.61092 0.0879147 -3.51254
1733 1 -11.4417 -16.067 8.00766 -3.45617 0.147158 -3.8196
1734 1 -8.46745 24.1086 -22.2841 -0.782039 -1.03321 -0.985409
1735 1 1.73151 20.733 -17.0153 2.24654 2.06141 2.95137
1736 1 17.8337 4.32793 9.39616 -0.845968 2.79619 -0.445583
1737 1 -17.4326 1.49395 -8.63904 -0.935318 1.43018 0.235125
1738 1 5.48357 11.6433 -22.5537 -5.96258 3.59743 -5.59729
1739 1 -8.17131 -18.3709 17.0077 2.308 5.98772 -4.9752
1740 1 2.81885 20.2587 17.4808 -2.47872 5.2425 0.400936
1741 1 11.9179 12.7093 23.134 -0.204876 -0.451553 2.91694
1742 1 -0.676126 -7.68251 21.2417 0.3617 0.869105 -1.80279
1743 1 20.7194 -15.2228 9.11105 -5.2513 -2.61713 -1.73505
1744 1 15.0173 24.6001 -7.46833 -3.5688 -4.48956 1.6808
1745 1 6.82509 14.0407 -6.20702 0.910526 1.32812 -2.04444
1746 1 17.5386 22.1868 -12.6513 1.14591 -1.56483 -1.35714
1747 1 3.75122 -17.4823 -6.58459 1.49142 -0.426843 0.443891
1748 1 16.8654 -0.492226 -4.33794 -3.18607 2.2668 2.76988
1749 1 21.6335 10.3137 14.9338 -0.970335 1.08887 -0.869843
1750 1 14.9224 23.0581 12.0491 -2.24746 -2.60334 -0.495707
1751 1 1.62687 -10.5712 13.9568 -3.49361 -2.69536 2.66202
1752 1 22.0249 17.6943 -18.9768 -4.0989 -0.298619 -1.61134
1753 1 -23.4029 -14.2934 -19.9101 -1.63714 2.29804 3.3565
1754 1 -24.271 10.113 -21.6834 0.276748 -1.69909 1.30922
1755 1 -9.55759 -1.39567 -9.55822 1.99013 3.5519 4.17902
1756 1 -16.7702 4.33861 5.94287 4.93918 -0.28263 0.653651
1757 1 17.5056 -14.7588 -7.13616 0.0839887 2.95124 3.20658
1758 1 20.9343 -24.162 5.60302 -2.01182 0.661825 -2.77393
1759 1 22.3947 9.8931 10.8239 0.368628 -1.07012 1.06815
1760 1 -16.3996 -14.3086 -23.1381 -0.647905 -4.38424 0.0212018
1761 1 21.7887 -17.5394 -20.7343 -3.19167 -1.99052 4.18976
1762 1 4.01997 18.1017 5.38004 -4.73787 -0.816241 1.7992
1763 1 -2.38853 3.90684 13.6838 5.80388 6.81052 1.45698
1764 1 -14.5446 18.3828 -13.3518 -1.13757 0.502891 -0.197021
1765 1 3.8538 -18.4184 -3.6441 -3.50839 -4.92999 1.59779
1766 1 -17.6821 1.14026 16.016 -1.23778 0.382841 0.261823
1767 1 9.33243 24.9332 18.9418 -0.00201516 -4.04799 -3.33117
1768 1 12.8189 -3.85599 8.42119 0.380343 1.51697 3.45559
1769 1 -22.3522 16.5933 15.6707 2.07705 -4.35811 2.8564
1770 1 -9.0461 -4.49243 20.4155 4.67703 -2.64538 -2.61598
1771 1 0.125022 22.9516 9.20573 6.16589 4.82418 2.71235
1772 1 12.8245 -22.0846 1.03199 -1.72681 2.43718 -3.0253
1773 1 19.2165 15.3893 7.93752 -3.17502 -2.20715 1.71104
1774 1 18.0605 -16.7885 22.4375 -2.12441 0.948513 1.39203
1775 1 8.22816 14.1897 -8.8649 2.41284 -4.09206 -0.0486686
1776 1 11.9879 13.7151 -1.72763 -6.74461 3.80997 -3.52455
1777 1 -23.1018 -10.9415 16.4693 1.52867 3.26489 4.18737
1778 1 -16.4942 -7.19885 -13.6413 -6.72718 0.179407 1.68233
1779 1 5.6231 3.89229 -6.27823 -3.82335 -4.28702 0.562577
1780 1 4.89789 6.92734 -6.40139 -0.907288 -0.684296 1.11742
1781 1 8.19241 18.2637 -23.9282 2.86685 -1.31459 -6.06122
1782 1 -23.4263 -15.7064 -12.0655 -0.715491 -3.83994 1.10193
1783 1 18.5399 6.22589 -5.76693 -0.618002 2.56328 -2.48965
1784 1 -9.71643 15.2753 13.3671 -1.81558 0.317364 -2.17445
1785 1 -7.55876 7.16555 -9.66466 -1.64578 0.694271 -0.833458
1786 1 -4.86818 1.24889 -6.52003 9.26674 2.42085 -0.300926
1787 1 6.49462 18.9194 -11.5712 -2.1609 -1.79639 2.36858
1788 1 -15.0898 -17.0994 15.6322 -0.322024 4.44745 3.11739
1789 1 -23.759 -0.896448 -5.43728 -2.86336 -0.817957 -1.21881
1790 1 8.83745 3.0426 -11.8639 -2.45946 3.79344 -1.75877
1791 1 0.123354 -6.05428 -15.0553 1.65982 -1.73324 4.06641
1792 1 -14.4476 5.9886 5.77424 -0.769392 -1.4481 -4.13717
1793 1 18.6346 5.21437 -23.0912 -0.30007 0.0480753 2.9771
1794 1 17.3033 2.38403 -19.7601 -2.12476 -0.658961 1.83192
1795 1 15.2664 -1.49818 -10.7178 -1.59333 -2.33593 -0.781586
1796 1 -22.6316 -11.4663 -23.5483 1.38726 0.3512 -0.437579
1797 1 1.72277 16.8424 14.7429 -1.79356 -6.05099 3.78695
1798 1 18.6106 -6.19163 -19.3283 0.365032 -2.0642 1.32934
1799 1 -11.459 10.2736 -14.7854 3.67525 -0.607376 1.51888
1800 1 -0.0143724 1.59491 11.4398 3.29293 -6.6001 2.27617
1801 1 -11.6538 -19.6199 -4.76874 -0.53736 1.11026 -4.42027
1802 1 -17.9604 -19.3675 -11.408 -3.53228 2.87249 1.38761
1803 1 -14.4583 15.5391 -9.34202 -1.92134 2.34466 0.211063
1804 1 -3.17778 47.0688 -14.6353 -2.70229 -3.55688 -3.47021
1805 1 9.02888 5.03904 -5.41774 7.46305 4.25014 -1.08555
1806 1 12.0334 -4.70858 16.7472 2.39861 1.71395 -4.84445
1807 1 -18.6279 -9.96361 22.7517 0.768898 0.0876277 0.330701
1808 1 22.1973 -11.4742 19.1243 0.135691 -3.37723 -2.53389
1809 1 10.4719 19.9282 0.788754 0.736881 2.93209 -2.38451
1810 1 11.3376 -23.52 -6.52025 4.6847 -1.13285 2.21765
1811 1 -1.04471 4.2351 19.8058 -2.80567 4.06056 3.12931
1812 1 -11.7884 -4.20132 -22.0051 -0.0667759 2.39329 0.935318
1813 1 -16.186 8.37396 17.872 4.25795 1.84215 5.39102
1814 1 10.4834 5.57759 -9.82442 0.645148 -0.667886 3.56722
1815 1 12.0861 -6.16902 22.8099 -4.36032 -2.36803 -0.594336
1816 1 0.844778 17.0519 -10.676 3.08437 -1.38315 -3.36531
1817 1 -0.200497 18.7253 -17.4979 -0.292613 -1.57187 -3.47571
1818 1 -21.5709 -9.12078 6.28905 -2.35716 -0.227739 0.0229229
1819 1 -14.0602 -11.5475 18.4878 3.48766 2.61521 -2.57767
1820 1 14.8913 11.5162 -10.8187 -3.68189 -1.38062 -0.86504
1821 1 19.9632 24.1093 11.6112 -4.04344 0.45381 3.51334
1822 1 16.1337 -2.75184 -1.73605 -3.46975 1.23021 -2.02643
1823 1 6.6776 -24.0371 9.35487 1.12708 1.70717 4.4467
1824 1 -16.7991 -18.4843 8.12597 -0.942818 -0.597551 -2.80819
1825 1 7.19463 -10.5822 -4.30496 1.132 0.0605421 1.31488
1826 1 20.1365 9.69279 2.66036 1.04003 -4.5339 2.11439
1827 1 16.6472 -22.5579 -3.7589 0.647104 -5.39621 5.57833
1828 1 -12.9271 -21.3121 -21.8493 -4.44971 -5.79116 -2.22925
1829 1 4.20264 19.0805 8.20843 1.52293 -4.95721 0.987421
1830 1 -16.2486 3.58526 -15.4387 -0.307341 0.183257 -0.250289
1831 1 13.0965 -16.1407 -3.99178 -9.30676 4.06883 -1.94615
1832 1 -23.5278 -12.709 22.3686 -5.96591 -3.72521 0.830909
1833 1 -11.8975 2.90018 18.2651 -0.816867 1.8691 -1.67709
1834 1 6.78508 -8.11133 -20.2494 -3.32842 -3.28107 0.444882
1835 1 5.48592 23.241 18.252 -3.25829 1.72272 0.47549
1836 1 -11.0529 47.1719 -18.4013 5.17923 -2.5304 -1.0049
1837 1 13.5886 -21.4499 9.06944 -3.30704 -0.225605 -6.67149
1838 1 18.319 22.0933 2.38388 -7.14378 -0.650098 -1.98121
1839 1 19.683 23.7067 4.87489 -3.8226 2.93543 0.211048
1840 1 -20.9363 -11.9319 2.17313 -5.62495 1.66156 -3.72017
1841 1 8.53677 -23.882 -10.8915 4.25872 -4.4398 -0.104798
1842 1 14.6444 -20.4727 2.18224 2.33049 -2.08197 -0.659593
1843 1 6.08578 -2.42213 -20.6298 1.90802 1.9734 3.93758
1844 1 -4.73259 -3.34612 5.09112 -4.63176 3.48447 -1.40797
1845 1 21.0773 16.8659 -23.0343 -1.11878 -0.409515 -3.0634
1846 1 11.3395 -20.5213 5.53261 0.293415 5.93312 4.46939
1847 1 19.5086 -14.9852 17.999 3.82834 -0.764282 0.0743618
1848 1 5.5983 7.15069 -15.7982 2.06302 3.54688 0.900848
1849 1 12.6591 -24.6487 -13.3739 0.32025 -1.74527 1.2304
1850 1 16.8897 -20.4106 -7.76411 0.210775 5.43743 4.59106
1851 1 -5.60173 3.89322 -1.24462 0.905254 -0.791145 4.23947
1852 1 0.339867 1.47542 -20.554 4.24974 -1.33165 -5.14861
1853 1 3.69626 -11.8084 7.06634 -2.11987 1.76479 -5.94931
1854 1 2.10742 -23.9848 11.3463 -0.546322 1.7113 -1.41845
1855 1 0.954623 23.4586 -16.4021 -1.99049 0.166042 -1.98758
1856 1 5.64008 -3.12987 -17.7555 -4.09993 1.30129 3.78452
1857 1 0.909134 -20.5252 1.04892 0.617227 -0.222946 -3.87969
1858 1 2.21978 -16.0831 -12.0459 -1.03509 0.135595 3.67833
1859 1 6.62424 -14.5755 -15.165 -1.6945 4.06421 -5.18081
1860 1 7.61511 -0.737161 9.58266 -1.09126 -3.12604 0.263865
1861 1 -16.0403 -22.3399 -18.6521 -0.0718206 0.68988 -4.05766
1862 1 -11.9873 -1.83998 -8.16535 -3.99534 6.0172 7.11894
1863 1 -3.02874 -15.3904 -8.06274 1.759 2.79121 3.8735
1864 1 -5.86563 12.2593 19.8504 2.72219 0.778814 2.64026
1865 1 -9.90677 -4.11765 7.18853 -3.71603 0.878228 -3.54163
1866 1 7.54719 21.1824 11.9161 -2.65864 2.77161 -0.398442
1867 1 5.70173 -7.46987 -1.00965 2.78852 4.3533 -0.971814
1868 1 -8.12649 2.70505 17.3078 1.20712 -2.18076 0.925094
1869 1 -1.11638 23.4558 16.6342 0.823958 -2.42588 -4.20297
1870 1 -18.8925 9.78421 13.9043 7.07032 -4.04703 -2.60103
1871 1 17.8654 -13.2597 5.36881 -0.668835 1.15473 1.27389
1872 1 -1.77614 -10.2626 -9.49815 2.85594 -3.05171 -1.49072
1873 1 -10.5938 16.5577 8.32191 -0.0545791 2.43189 -0.608315
1874 1 -10.3308 -15.6284 -21.1643 -7.7793 -2.82722 -2.4906
1875 1 23.6305 -8.45723 -11.8522 0.747483 -1.17194 3.28446
1876 1 -22.4513 10.051 -19.7516 7.34561 -2.20238 -1.04849
1877 1 -14.5465 -5.06038 7.93582 -0.868112 -1.88525 1.45224
1878 1 22.9322 24.0439 -1.4054 -2.84015 -0.99478 3.41097
1879 1 -19.1889 -18.6997 -18.5039 0.81599 0.172284 -3.06402
1880 1 -1.77372 25.1929 -20.5693 0.257966 0.285723 -2.52454
1881 1 10.3391 4.09747 18.6098 2.58263 0.762545 1.05276
1882 1 -9.32174 9.08095 18.2457 -0.17216 3.86262 -2.58091
1883 1 -7.67448 -13.0516 -6.77774 1.9905 2.63708 -2.55467
1884 1 16.9891 15.6937 9.45935 1.08697 -1.81978 -4.08809
1885 1 -7.9016 18.0796 20.7531 2.74421 -2.63913 0.939157
1886 1 19.0002 23.1064 7.92959 6.50281 -1.48679 3.07629
1887 1 20.1048 -5.3474 16.0216 -5.99689 1.00431 3.98101
1888 1 -9.24824 -17.7209 -11.8339 -0.685675 1.54984 -3.59367
1889 1 -11.8166 2.74943 9.71564 -3.20682 -6.32116 -1.53929
1890 1 -22.1374 8.1605 23.1918 3.88542 -1.16551 2.3574
1891 1 -10.1551 -14.2229 -23.9866 -1.58906 2.02228 -2.24823
1892 1 -0.439352 -13.4567 -14.9411 0.1826 -1.07245 -1.40412
1893 1 3.26291 -1.28668 20.4576 -3.58579 -2.46218 0.654573
1894 1 0.386079 -19.3407 -4.63348 1.83088 -3.18294 3.03695
1895 1 -19.2615 -6.56269 17.2225 -2.06608 -0.993179 -2.94631
1896 1 16.0476 22.7485 0.460186 1.2966 0.305945 -2.70022
1897 1 -13.8418 -24.4951 -5.83672 -4.06642 2.8258 1.67203
1898 1 -21.2808 17.5838 13.0527 -2.40193 -0.162809 -1.3585
1899 1 -7.24067 19.1765 -4.97343 1.65877 -1.56667 -3.94371
1900 1 -10.986 0.857935 4.6688 -4.92407 8.61033 -1.57642
1901 1 -10.4224 -13.8793 -18.7353 -2.56256 0.726314 6.75223
1902 1 21.6215 0.32497 -20.5888 0.363559 -3.74278 4.10304
1903 1 -0.0587109 -16.1737 -14.2387 4.47423 -3.0956 3.11196
1904 1 -8.75549 -21.2811 16.0328 -4.81371 -2.45214 0.571
1905 1 -14.068 8.53886 -7.18543 2.99599 -1.79281 -2.98121
1906 1 -19.7654 46.801 11.7372 3.65241 2.6567 0.304305
1907 1 -22.758 -8.83199 12.8054 -2.9809 -1.15823 3.49033
1908 1 -15.3351 -4.75108 -0.127645 4.24775 -3.99144 -2.99991
1909 1 10.8701 -9.61604 11.8595 3.00704 3.74992 3.5613
1910 1 -8.67252 -12.1316 15.0166 2.53669 -1.66765 0.417252
1911 1 20.2412 -1.05964 -5.58351 0.98073 -3.11591 1.44209
1912 1 -15.3767 4.26147 -0.887608 -5.18478 1.43411 -0.627183
1913 1 0.995098 19.6339 -0.166805 -4.43771 1.14615 1.22109
1914 1 19.3064 7.21288 4.9507 1.94448 0.221452 0.857261
1915 1 19.2047 -21.682 -15.1773 -3.05249 0.151418 0.384825
1916 1 -4.30164 17.7913 4.08902 5.2105 0.83456 3.03195
1917 1 23.3606 22.6029 19.3158 0.113257 1.9176 1.25726
1918 1 -18.3753 -0.72729 -21.1349 0.5262 -2.37379 -3.98822
1919 1 -22.5953 10.6319 -14.1917 -5.18646 -4.09422 5.02568
1920 1 22.484 -15.0802 0.567348 2.12772 0.77108 -7.96513
1921 1 16.9968 12.3367 -7.16089 -1.28199 0.755947 -2.26326
1922 1 8.74409 14.4069 20.378 2.16247 2.55863 -2.97146
1923 1 12.4486 1.03643 -9.38634 0.135225 -0.847249 -2.59815
1924 1 23.1956 -17.4082 -1.1372 2.02878 -2.91323 1.55412
1925 1 20.6641 -23.6944 18.1795 -3.79866 -3.45508 5.67504
1926 1 13.5206 -2.37292 -6.69256 2.57233 2.87273 3.01277
1927 1 -8.64166 -21.1071 -21.8968 -2.15386 -3.08727 -1.6546
1928 1 -24.313 -3.09063 4.36387 3.45803 -2.50509 -2.90968
1929 1 8.26539 18.1233 1.15953 -0.241225 -1.5947 -1.02516
1930 1 -8.28539 -15.6587 -17.5833 -0.00808987 -3.57661 4.12931
1931 1 -8.82981 6.46337 -2.70475 4.76835 -0.0606159 -2.56821
1932 1 -2.42934 18.8649 6.35775 -1.98385 -3.90713 5.74278
1933 1 -2.03448 20.0761 -19.4778 -2.57627 3.07891 4.84183
1934 1 0.620833 -12.3954 -1.90575 3.27661 -3.45558 7.27028
1935 1 17.9378 -16.2277 3.35925 1.35164 2.07635 -2.51515
1936 1 18.3398 -20.9875 23.4988 -0.924899 -1.30429 0.254856
1937 1 2.02125 1.47312 18.5605 -0.858992 -0.76249 4.67305
1938 1 2.09494 6.9848 17.4275 4.77512 -0.894313 -1.18394
1939 1 11.2768 11.4654 2.96936 -1.55002 -1.31504 5.96249
1940 1 -20.4556 -23.8209 5.92847 -0.113831 7.37188 -1.67023
1941 1 -1.94241 -23.4333 -12.7731 -2.99023 -3.60779 1.36793
1942 1 -2.70374 11.4056 0.32522 1.06379 -2.74986 2.70657
1943 1 5.19866 17.4555 -5.12434 -3.17968 5.32338 2.8088
1944 1 -19.9147 -22.4248 -3.64787 -0.778225 -4.19055 3.1687
1945 1 23.6864 -20.1394 21.1526 -1.06046 2.16502 -0.161797
1946 1 8.87428 10.2713 -6.64269 2.40494 4.11411 4.99813
1947 1 -17.1343 12.1921 -15.1295 2.02443 -1.68007 1.60039
1948 1 11.9766 2.19444 -14.8078 -0.934803 -0.485598 -3.08427
1949 1 -7.57634 -7.09844 -9.12534 -1.23551 -2.48879 1.11826
1950 1 21.7987 22.9621 -7.70663 4.20851 2.91218 0.0485685
1951 1 -4.93817 -14.4934 15.0398 -2.41952 -1.59507 2.39896
1952 1 5.71658 -15.7727 -12.7615 2.67583 1.51706 3.19409
1953 1 16.2185 -19.9417 -3.00091 -0.0647551 0.412112 4.16405
1954 1 4.97216 6.19327 10.4736 -0.989208 -0.816872 4.83607
1955 1 -12.8657 -18.2789 21.2033 -3.04757 -1.77727 1.20604
1956 1 -4.85619 1.05442 6.18271 0.484736 1.06219 3.9121
1957 1 14.4872 16.3764 8.34703 0.112618 1.01884 -0.728885
1958 1 14.0048 6.12549 16.3531 -1.49056 -0.604315 -3.89956
1959 1 -24.2203 -4.70541 -1.78372 1.04009 4.5374 -1.643
1960 1 -16.0718 -4.93519 -19.9959 -4.12783 2.6684 -0.138938
1961 1 16.5607 -12.6554 -5.30359 -1.60913 1.47154 -3.74316
1962 1 -0.35097 -12.2842 -4.82468 5.2421 0.753614 -2.83178
1963 1 -1.54835 17.9336 0.852437 2.00999 -0.883065 3.73842
1964 1 20.6493 25.2337 -15.7249 -4.98206 -1.47555 -2.33116
1965 1 17.5945 -5.46921 20.4833 5.09283 -2.33374 -3.83739
1966 1 -20.1956 -15.7127 -10.6445 1.23782 1.70027 0.113399
1967 1 -14.8754 -22.1289 16.7393 4.22837 1.33595 0.387146
1968 1 -23.7323 13.5591 11.5056 2.92566 -2.31644 0.703062
1969 1 -5.32888 -8.4484 10.6552 3.88099 -0.681847 -2.1766
1970 1 21.8299 -6.5959 -1.33124 1.16395 -2.14503 2.25678
1971 1 23.2555 -3.13264 7.11103 -0.00304383 -6.03686 -0.320863
1972 1 -3.99765 -6.91292 8.34562 2.54398 -4.62249 -0.529553
1973 1 12.9366 -15.7268 20.2766 -1.30096 2.13829 -0.646097
1974 1 16.2989 -11.3746 10.0398 5.44872 -0.133199 1.18723
1975 1 11.4889 -17.7601 -18.9031 0.59988 -5.86732 -0.308341
1976 1 19.7781 -10.396 -23.6874 -2.161 -1.82113 0.0823301
1977 1 15.7193 -14.8767 13.0573 -1.91572 5.56436 -4.46391
1978 1 7.0778 -2.65427 21.8155 -0.896658 -3.20682 0.638259
1979 1 -0.915167 22.0828 11.9408 1.0212 0.722801 -0.30065
1980 1 -22.1571 5.95565 -19.7077 -3.13907 2.27642 0.9124
1981 1 16.957 24.7081 -3.34642 -2.26316 -1.27718 0.649234
1982 1 -20.3726 -3.69179 22.553 1.96045 1.70713 0.435809
1983 1 16.8975 -5.53382 -5.68066 -3.08514 3.7737 -2.81005
1984 1 2.66724 18.809 20.024 -1.48394 -1.49939 0.786656
1985 1 1.28952 -23.6329 -9.47297 -1.1497 4.27576 -0.00149709
1986 1 12.7226 -4.78318 2.60934 -2.93118 0.924911 -7.96713
1987 1 -21.1797 3.3176 9.10857 1.16007 -2.7533 -0.270835
1988 1 6.16801 17.8857 10.0509 2.9055 2.25563 3.40006
1989 1 -11.7308 -14.6367 10.6956 0.619111 -3.66314 -2.82547
1990 1 20.0192 -14.9537 -5.61544 0.20279 2.8445 -2.896
1991 1 -23.0202 -22.0766 19.9202 5.14528 -3.10057 1.12619
1992 1 13.0769 20.2181 4.47765 0.690979 -3.82492 -0.246729
1993 1 4.59887 13.973 -13.1068 -1.17271 -0.377697 -2.34964
1994 1 -23.565 -17.6012 2.92082 1.9125 3.83249 5.4843
1995 1 2.74017 1.65381 14.046 0.452733 0.730759 0.585268
1996 1 -9.85364 6.94208 -23.956 -2.44735 -2.87825 -2.38243
1997 1 21.4614 23.5524 9.22106 1.04582 -5.24692 -0.757985
1998 1 -12.2493 10.4266 -0.691926 2.25096 -0.276335 4.24244
1999 1 -1.29935 -11.2676 22.4781 -2.89228 8.22912 2.86453
2000 1 3.3229 2.65039 -20.805 5.16401 2.69905 0.370552
2001 1 -9.16295 -13.3557 -3.61789 0.346571 -0.666568 3.11792
2002 1 -22.3215 22.3072 -8.38264 4.06623 5.35716 -1.26389
2003 1 11.2093 -3.61373 -10.1639 1.82481 -1.7272 1.00043
2004 1 0.412103 -22.1043 -23.4062 -3.20548 1.7557 0.695827
2005 1 2.83542 -5.31139 18.8881 -2.38965 2.27952 1.87202
2006 1 10.0171 -11.9054 -7.66988 4.13208 3.98916 2.18459
2007 1 -10.7656 13.5964 -11.7613 1.53934 2.05232 -1.00993
2008 1 -9.05558 23.8434 13.3766 1.38346 1.63937 0.544237
2009 1 -3.21488 2.27008 -0.375284 -4.03742 0.00897233 3.23304
2010 1 -8.42087 2.81108 23.2037 1.87372 -4.04189 -0.93127
2011 1 -1.49083 8.95834 18.0771 2.50518 0.209056 -1.83068
2012 1 18.1444 -21.8693 13.6854 1.97196 -2.09439 -0.930226
2013 1 -14.3386 23.8645 4.76978 2.88138 7.25401 1.49626
2014 1 -9.71454 -9.33094 14.3755 1.76088 -0.928072 -4.26796
2015 1 -3.32402 -7.62601 -2.95542 -2.90982 1.62599 0.214515
2016 1 -5.66911 -16.0035 -7.0955 1.04199 -3.89859 0.734265
2017 1 13.2861 8.64941 21.7345 -2.05621 1.08559 0.327143
2018 1 -16.5379 -1.74287 6.27728 -0.309906 3.69041 1.98775
2019 1 1.42591 23.9679 19.4205 -1.85317 -1.12551 -4.09808
2020 1 9.15203 -13.4109 -13.7964 1.03084 0.839964 -7.18941
2021 1 -4.1924 12.2342 11.4707 4.18012 -1.62248 -1.94514
2022 1 17.3765 22.7956 10.3441 -0.398912 -8.06536 -0.428568
2023 1 -20.8345 -11.8114 7.29868 0.441268 1.13383 -3.09541
2024 1 9.38094 9.53291 12.4958 2.84817 -3.29362 1.77017
2025 1 3.42758 -11.6912 23.743 -3.43605 -2.2402 2.79695
2026 1 8.17931 19.9079 9.4583 1.49689 1.32324 0.937548
2027 1 4.83203 17.7104 -9.23679 -0.311879 -0.055175 -8.63081
2028 1 1.13393 -2.4356 -18.9836 1.20722 4.31485 4.4628
2029 1 17.008 -8.7948 -2.48372 -4.84268 5.65557 0.741175
2030 1 9.41425 -18.0253 -21.2937 3.82579 -1.51348 -3.6545
2031 1 -6.26015 -20.5498 -10.6985 1.06973 0.0659011 6.4705
2032 1 -9.3443 4.3963 6.18989 -6.07325 2.56383 -2.79336
2033 1 10.3746 15.2991 0.23778 -0.720907 5.87588 -0.639713
2034 1 -10.0767 -3.18938 -19.869 0.494226 1.97941 3.36346
2035 1 15.8583 -15.6766 23.9138 2.43478 3.09923 2.34088
2036 1 -13.3911 7.09955 -21.804 0.20464 -1.43817 4.6058
2037 1 -16.2719 9.64418 10.6526 3.44838 6.5674 -0.952099
2038 1 20.5612 -0.893325 12.94 -3.74302 3.64567 0.422647
2039 1 8.8116 -20.7829 -21.1117 -3.13253 0.0843055 -1.69667
2040 1 -6.4465 -23.4816 -4.4433 -4.07801 4.49305 3.64728
2041 1 -13.3195 -14.0245 22.5368 -2.74685 -0.521184 3.42127
2042 1 6.04583 -21.5622 22.0127 -2.43177 0.0587616 3.77094
2043 1 18.3341 12.981 13.3178 3.80897 0.311083 -0.454908
2044 1 2.6373 -6.19766 2.92884 2.06505 1.7384 1.08285
2045 1 6.90653 -17.6642 -15.8303 -5.47787 -0.124031 5.04473
2046 1 -7.44796 15.6055 17.1907 -1.55054 -0.0421088 1.78253
2047 1 -5.9934 -14.1593 7.03488 2.73397 3.21505 -5.24066
2048 1 3.23766 14.8612 -17.4947 -4.54253 -2.44024 -1.85378
2049 1 16.7197 20.2215 -19.0807 -2.37487 -2.66015 -0.469196
2050 1 -11.7505 5.06124 -10.9444 -5.32312 5.95131 -0.761931
2051 1 -24.1271 9.40371 -5.98887 -1.35512 0.593487 -1.09974
2052 1 -9.01162 3.59254 -21.1077 -0.296625 -3.72309 -0.415537
2053 1 -22.7303 12.3471 -18.3706 3.02625 2.06859 -3.43264
2054 1 14.7325 3.98998 -1.31413 1.33397 4.93819 4.1445
2055 1 4.53317 13.6 7.25009 -0.550211 -1.76979 2.25827
2056 1 -5.86627 24.7033 -23.8064 -1.5827 0.379426 0.0293117
2057 1 16.973 -3.10711 7.25323 -2.20565 -5.49588 2.0546
2058 1 21.4268 8.92811 -11.9791 -0.968798 -2.05157 -3.34982
2059 1 4.03906 -8.01504 18.9181 2.33044 -1.3553 1.49181
2060 1 -10.0072 -2.03924 -4.3091 1.45887 2.8826 -2.27814
2061 1 -14.6973 -23.9263 -22.788 3.58663 4.86928 -0.305353
2062 1 -16.6078 20.5649 -8.16211 0.08872 -0.673971 4.58113
2063 1 -11.9359 -11.6012 -19.985 -0.791491 -1.7351 -0.600763
2064 1 -15.1164 -17.5144 10.4539 2.41687 -0.487117 5.83353
2065 1 13.5231 -16.9566 23.1476 6.91083 -2.49773 -0.519589
2066 1 18.2778 7.08219 10.2741 -4.04653 -1.40092 2.09411
2067 1 -23.5668 8.82019 20.5639 -1.29158 -2.41471 1.33563
2068 1 -14.1891 8.4358 -4.25955 2.0676 -4.09485 2.16346
2069 1 21.8643 -23.1482 -10.9111 0.59211 1.59193 0.924807
2070 1 -23.2447 -0.204332 -1.23552 -2.77837 -0.232856 2.5386
2071 1 -20.9372 -14.0936 22.6131 3.98486 -0.699669 -1.48105
2072 1 -18.2972 6.11874 20.6768 0.923619 -1.09228 3.32132
2073 1 -18.0999 7.34952 -17.1064 -4.87236 -0.300907 1.00714
2074 1 2.11617 12.5572 -12.2091 -3.41629 2.22347 4.50467
2075 1 -6.3748 -14.9884 22.9683 -4.41097 0.12512 1.91569
2076 1 -12.8055 25.8647 -8.81326 0.797711 -4.86923 4.42572
2077 1 -16.8555 -5.02152 3.7805 3.04259 5.17397 1.8674
2078 1 -14.4735 2.03782 -23.1536 1.64169 -1.01951 2.81577
2079 1 4.39503 -14.3513 -19.1691 1.97555 -3.94294 1.34284
2080 1 -24.4416 -24.5168 -18.2692 0.259874 -0.553306 2.20053
2081 1 -23.8079 20.0274 -15.0939 1.36312 -4.86678 -0.755566
2082 1 -7.92666 18.0333 3.66041 1.62061 -2.22259 4.40691
2083 1 19.0447 9.40024 -8.61013 0.283865 1.75374 0.717958
2084 1 15.5179 18.0672 20.961 -1.05317 -1.97693 10.4449
2085 1 -20.7445 -20.623 -10.9188 1.47316 2.11754 -1.17992
2086 1 -10.3936 -14.1992 5.91205 -0.663021 -2.21057 0.0825154
2087 1 -9.45082 6.72862 -17.3684 0.629142 2.12917 -0.042106
2088 1 8.25384 20.0629 20.3487 2.15321 3.75658 -3.66848
2089 1 9.62028 13.9394 -19.4122 1.71363 -1.38523 1.982
2090 1 16.5985 7.30218 17.2824 2.62826 1.71012 -0.548841
2091 1 -8.63803 8.34273 13.753 -0.455423 -4.88866 -0.640055
2092 1 -18.3056 21.5445 -21.2262 1.62996 1.1572 -0.303121
2093 1 -3.61433 13.6861 -1.52861 0.251926 -5.77927 -1.36581
2094 1 22.7738 11.6376 -2.20988 -0.9973 -6.71854 0.2156
2095 1 -20.6969 -7.89109 3.79302 -1.86264 1.45131 -0.41056
2096 1 9.97399 -5.14997 0.0602085 2.1106 1.04694 -6.17596
2097 1 -5.07846 5.89184 10.8058 -5.56181 -1.31912 1.32041
2098 1 -16.485 -16.9963 -5.78374 0.360338 5.2781 2.29385
2099 1 14.4003 -9.86541 6.23054 2.93133 -0.694975 2.20241
2100 1 -1.39199 -5.12538 22.596 -1.27749 1.85143 0.696057
2101 1 -22.1606 -7.42412 18.0483 -1.24519 -1.72221 1.50544
2102 1 6.19845 7.76298 -8.64578 -4.50828 -1.20766 1.63088
2103 1 10.9532 -15.0646 -15.6048 3.89651 3.22891 4.13888
2104 1 -21.5283 -3.59453 20.0662 1.07068 0.020752 -3.00694
2105 1 12.607 9.65197 -11.4658 -1.82827 -4.96123 -1.49535
2106 1 -20.9306 -16.0692 -20.3658 -1.54482 -1.56129 2.87963
2107 1 -8.53077 5.79293 -13.6698 1.70117 -0.255945 -1.99998
2108 1 -9.39512 11.0084 -0.0492992 5.50628 3.62291 6.79497
2109 1 -3.358 8.4473 20.4559 -2.49418 -1.89461 -1.16338
2110 1 2.48026 9.35299 0.781838 -0.971819 -8.23382 1.96381
2111 1 21.9756 -10.2385 21.83 3.50676 1.69516 0.650832
2112 1 -11.2681 4.54314 11.909 -0.481932 4.33091 3.18698
2113 1 -17.6407 -2.94365 22.1973 5.94076 0.147389 -2.81464
2114 1 -0.993077 -23.0744 19.5436 -1.652 1.06842 -5.53021
2115 1 15.7795 -14.0291 -9.38926 2.80314 2.17375 1.44812
2116 1 20.0427 -2.80953 4.68657 -4.28999 1.47262 -4.17649
2117 1 -24.5252 23.4647 5.39575 1.32022 -5.83806 0.146388
2118 1 -12.8888 -2.43123 -4.3317 1.61985 -0.567655 -0.652888
2119 1 -10.738 17.8736 3.23365 3.01032 2.03501 -1.80063
2120 1 16.7226 -17.8305 10.8101 2.4223 -0.668988 1.40528
2121 1 8.57516 -18.4085 -24.0316 1.9514 -2.63606 2.17823
2122 1 12.0506 7.87012 -9.11509 5.75707 0.614243 -4.35772
2123 1 21.2473 -8.46468 -17.0915 0.437102 1.75733 -2.93761
2124 1 21.7057 -1.45104 -18.091 -0.257458 5.25075 4.42864
2125 1 -2.03385 -14.3984 15.7002 4.96498 2.81311 3.23182
2126 1 11.6251 -6.91183 -3.8403 2.73814 2.70472 -4.67293
2127 1 23.3265 -10.0308 -22.6269 -2.88293 2.4204 -1.49146
2128 1 -17.9208 -20.3152 -2.58688 2.89204 0.244273 3.92385
2129 1 -12.9152 -24.1769 12.91 -3.16481 -3.30428 3.84544
2130 1 -21.8149 8.62083 -7.47352 0.27463 -0.726699 -0.377239
2131 1 17.2226 -4.42411 0.201711 1.06919 1.2446 -2.5526
2132 1 11.3805 -21.5959 -22.8107 2.38668 -4.58541 0.892016
2133 1 -13.0595 -12.9642 6.44385 -0.444251 -5.14562 0.708664
2134 1 12.0247 21.556 8.15353 -0.781163 -4.48529 -2.47723
2135 1 17.247 9.58565 23.2183 3.99636 -1.10677 -0.132147
2136 1 -4.43508 -22.1581 5.37576 0.580857 -4.17725 2.99449
2137 1 17.4739 15.8926 -23.7017 -2.22088 2.64297 3.15795
2138 1 16.9035 22.79 -15.4396 4.22777 1.80733 -1.05316
2139 1 -7.86442 4.0843 -17.0953 -2.40924 1.33327 -3.20459
2140 1 9.83988 -12.6017 17.6387 -1.20293 4.20732 0.686036
2141 1 -21.1771 -22.8687 0.739395 0.970903 -6.35485 -3.98716
2142 1 -17.5489 -8.78247 17.6696 0.180251 2.90279 0.333472
2143 1 19.2722 3.94492 -14.0137 -1.21955 0.0265794 5.47749
2144 1 5.34739 -1.44494 5.78057 6.51044 0.679404 -6.92271
2145 1 21.044 9.66238 23.2386 5.56003 1.05575 0.330193
2146 1 3.23068 9.51616 18.4046 1.78988 -2.82949 -1.28355
2147 1 3.28904 5.49455 15.1405 0.232722 -0.251267 1.23573
2148 1 11.5163 -21.4001 20.7461 1.61374 -5.87935 -0.305431
2149 1 19.3202 -3.91327 -5.09771 -1.18689 2.22153 -5.07309
2150 1 16.6296 -9.17607 2.08339 0.35525 -1.41311 2.3594
2151 1 6.95977 5.19559 -11.0917 -0.324841 1.70696 1.41637
2152 1 8.6225 22.3299 -5.12247 -2.79766 3.89359 1.38925
2153 1 -8.18958 -12.4066 -1.24612 5.3393 3.98036 4.13923
2154 1 -10.2409 17.7773 -23.5793 -1.79656 -2.43235 -4.88051
2155 1 14.3689 3.18868 20.1778 -2.81124 2.42154 2.07514
2156 1 -21.1072 18.2569 -8.35955 -4.13523 -2.1554 -7.63107
2157 1 -2.26787 16.3724 21.5926 -1.1719 -3.8176 -1.13756
2158 1 -17.9595 13.6522 14.2525 -5.23169 -0.498922 2.48926
2159 1 4.88412 -20.3142 12.345 -3.66132 -5.18061 1.3979
2160 1 -20.5449 -1.02475 21.2377 -1.54486 -3.23297 -1.12117
2161 1 0.199087 9.49211 -4.52535 0.72358 0.481741 4.93586
2162 1 19.3086 11.6977 -5.57989 1.32464 0.689233 -8.65151
2163 1 6.25982 -8.12638 12.9758 -0.563787 1.36082 -0.211992
2164 1 16.6006 1.63031 -8.85015 0.740275 3.99349 2.40901
2165 1 18.7098 19.5158 -13.5211 2.46072 0.528058 -3.98809
2166 1 -16.0861 19.1559 -15.7428 -0.0271489 -0.885595 0.432115
2167 1 -14.1959 -10.8749 -16.9822 -1.7163 -7.01533 -3.23453
2168 1 -19.7357 17.2837 2.45216 0.361881 -1.88074 1.42221
2169 1 9.59005 -7.20911 -19.4027 0.0529745 0.574938 0.15243
2170 1 -8.21135 -15.8181 -0.100259 2.55108 0.770093 1.60211
2171 1 -4.38776 3.43698 4.5522 0.696435 0.836764 2.22703
2172 1 1.36354 20.4072 -4.27842 0.522311 2.48546 0.0880628
2173 1 21.2772 0.310205 -14.257 2.24999 0.138276 -4.32064
2174 1 4.85151 8.38985 -3.75159 1.50321 1.71993 6.77674
2175 1 11.1755 -24.1321 10.2787 -0.738184 3.79844 4.53951
2176 1 9.48025 -19.2294 15.916 -2.25851 -2.14046 6.17962
2177 1 18.7319 16.2133 18.2248 -0.222624 -3.14727 0.466053
2178 1 18.2387 -18.1018 -9.10772 0.409363 -2.20946 1.36601
2179 1 10.4687 -4.30462 6.69833 7.86619 0.674019 2.24819
2180 1 10.9014 -6.42924 -10.4727 -4.68642 1.00457 0.0470127
2181 1 -16.7567 -21.7744 20.8602 0.955821 -3.42884 0.296245
2182 1 -1.58427 -2.79625 11.1553 1.40328 -2.20067 -4.02879
2183 1 4.73349 -4.25975 13.1131 -1.04008 -2.88976 -1.05861
2184 1 15.4897 16.6625 -19.2521 4.36423 0.708218 -1.48007
2185 1 6.84602 6.01291 18.5798 1.80051 -1.15132 0.756082
2186 1 3.26322 -9.20599 -16.6622 -2.58464 -1.46835 -1.17086
2187 1 15.2571 -5.25082 8.90883 -1.11015 2.75447 5.31794
2188 1 -13.2926 5.15529 8.3731 -3.59406 -2.53753 -0.215305
2189 1 2.22531 19.2395 -9.24716 2.46156 -3.16404 0.0278836
2190 1 -2.09438 2.90441 -12.7262 -0.983554 -0.295346 3.41838
2191 1 13.4996 10.7545 4.44626 -0.344418 -2.02671 3.77151
2192 1 0.875904 2.4543 24.0073 1.77358 3.36171 -0.258653
2193 1 15.9098 -13.2183 -13.4436 -1.30207 0.28233 2.83145
2194 1 -20.5783 3.22248 23.4734 -5.26084 -2.83638 -0.745704
2195 1 -9.63969 -18.3541 -8.92868 -2.85735 -1.42001 4.65048
2196 1 -3.70471 6.94281 -11.1496 0.458947 2.26124 4.37743
2197 1 16.9438 21.8914 21.3241 2.98561 1.92764 2.33178
2198 1 3.7347 11.1864 -4.38791 -2.3319 -4.49508 4.15565
2199 1 -17.5762 11.8708 0.668646 4.98481 3.23651 -3.06606
2200 1 -2.91487 -23.2134 1.96646 -0.895032 -1.1415 1.59478
2201 1 13.7349 -11.4744 -20.8133 1.76543 -1.04502 -0.386998
2202 1 17.4013 -19.5886 -19.0314 0.901126 2.39193 -1.12299
2203 1 8.57463 -0.0636225 -3.20089 -2.37285 1.84348 1.89646
2204 1 5.75846 -0.145059 -2.31084 -2.53611 2.75521 0.931999
2205 1 -22.594 8.08793 -15.74 3.87568 8.11817 -2.43837
2206 1 -2.75428 -9.55542 -12.9849 5.34299 -0.672935 -0.814995
2207 1 -22.5864 -8.17087 -2.14036 -2.46404 -4.30493 -0.183634
2208 1 17.5246 18.4256 -4.67507 -3.42733 0.724746 -2.86065
2209 1 23.6115 22.3813 21.9884 -1.92861 2.82444 -2.07954
2210 1 21.9136 -19.7213 -1.77204 1.58763 -3.38513 0.439652
2211 1 -18.4206 4.7649 -19.8466 -1.49221 0.850754 1.70575
2212 1 -17.5985 -5.15796 -6.07097 0.181382 6.09119 -0.366843
2213 1 18.1959 9.02624 -4.92383 -6.59149 0.284208 -1.2851
2214 1 11.336 9.53306 19.6492 1.14204 -3.265 -0.780159
2215 1 9.9411 17.7535 -1.1399 -2.91006 2.66558 4.77063
2216 1 2.33208 -1.02099 -13.2691 2.08323 -4.27343 1.992
2217 1 12.814 -12.7539 21.0951 -1.09189 3.43022 1.87346
2218 1 -17.7172 -5.82173 21.2587 1.00759 -4.38674 -1.40658
2219 1 -10.9176 -22.9113 14.6982 -5.43567 -2.52626 4.50584
2220 1 1.10335 17.77 -13.5616 -1.6769 -2.33277 -2.11075
2221 1 18.8918 4.50692 18.5265 1.13133 -0.0152723 -0.888634
2222 1 1.79891 7.02577 3.47764 0.20351 0.721192 -0.838504
2223 1 -20.5214 13.8593 -22.435 0.23438 -5.50305 2.08417
2224 1 -14.8022 14.392 -5.64229 0.887003 -0.244926 -0.427185
2225 1 0.976372 -17.7766 -23.47 -0.616878 2.01935 -2.02045
2226 1 18.7443 -1.28322 15.3447 -0.907792 0.280671 -1.36622
2227 1 9.6247 2.5796 -2.73144 -3.3899 -3.65545 -1.56029
2228 1 -8.01027 -7.87735 -22.236 -3.35174 1.93917 0.137066
2229 1 17.3852 4.75701 15.9947 -0.210852 -0.34883 -0.0067888
2230 1 3.12745 20.5929 -1.8289 -3.03601 3.46231 6.657
2231 1 -12.9126 22.9052 10.6053 3.09966 -0.353865 -5.34168
2232 1 -22.2946 24.6332 -15.9114 -1.04646 0.569141 -0.545223
2233 1 -10.7611 1.46888 -17.6437 1.57953 1.01312 -0.93484
2234 1 -3.80352 2.55275 -4.25682 3.11389 3.78989 0.0149465
2235 1 8.60376 -23.9121 11.5046 -2.10529 0.973751 -4.48252
2236 1 20.0451 3.54442 -16.9789 1.04986 5.63706 2.45007
2237 1 0.0969792 -23.7435 -20.9297 -2.55788 2.11299 1.06229
2238 1 14.5068 13.9588 -16.6571 1.55111 -1.32759 -4.3554
2239 1 -15.7498 -9.62935 22.7217 -0.32861 -1.02134 -2.08143
2240 1 14.2841 17.0169 17.6232 0.998606 0.565104 2.69726
2241 1 -22.292 -2.95176 -17.5202 0.974326 3.19832 2.62768
2242 1 -11.8944 -17.1885 18.6664 -2.27973 3.9443 -0.233565
2243 1 10.9848 23.3578 -10.1121 2.11877 2.74964 -0.686941
2244 1 23.047 22.2569 -14.0402 1.88626 -4.27985 6.75295
2245 1 20.9289 -19.4246 8.38297 1.11683 0.0542064 -3.31866
2246 1 3.77576 18.0424 -14.8522 -1.82377 -3.74019 -4.60092
2247 1 23.2686 -11.921 9.2991 -4.47409 3.35541 -1.33335
2248 1 -1.50764 -6.74027 -12.8713 1.88581 -4.00955 -2.35923
2249 1 -14.1182 12.7998 -17.3258 5.36792 -7.53151 0.909808
2250 1 -0.0489945 -0.228087 9.15863 3.27591 0.339549 -2.1778
2251 1 -10.6588 -10.8469 -11.9912 0.659157 1.81774 0.134045
2252 1 -24.0471 -13.8763 -1.21231 -0.393657 3.6994 4.43237
2253 1 6.68305 -18.4568 -3.3421 -1.9763 3.67812 -4.31067
2254 1 4.63955 17.4693 14.0274 4.0348 3.31756 1.72192
2255 1 1.44915 -1.33945 -16.3147 6.05937 2.86473 0.498544
2256 1 14.221 19.5221 -21.6545 -0.465844 1.3897 0.323148
2257 1 -0.471634 3.253 -9.12042 -3.8194 -0.0980941 5.23556
2258 1 -10.2821 14.9847 -22.3366 -5.01783 -2.52523 1.58328
2259 1 -22.2659 -9.16866 22.809 -0.306917 0.325281 -0.778797
2260 1 20.2325 18.2304 -16.5212 0.329484 -1.90908 -2.78574
2261 1 13.7685 -4.33326 -8.79047 -2.95039 -2.87885 6.02231
2262 1 17.9127 -24.2001 -1.60456 -6.07499 -6.2935 -7.08036
2263 1 2.7776 -16.2355 -2.26185 4.26777 2.13013 -1.23635
2264 1 -2.88147 20.2794 3.59934 4.74238 1.84914 -1.0126
2265 1 -2.68882 2.05661 18.6573 0.378616 3.04151 -2.82025
2266 1 -22.8883 7.51609 12.6787 1.07526 -2.20191 -0.482318
2267 1 -11.2233 -15.5732 -0.594746 0.875289 5.76415 1.14735
2268 1 14.7162 1.28384 -5.73562 0.424105 4.46283 0.569833
2269 1 17.6402 9.33193 -21.5012 1.33296 -0.485672 -0.911963
2270 1 -5.66975 19.9516 2.91789 1.23659 1.93405 4.67125
2271 1 22.6534 -17.4809 -8.00201 3.07064 -0.226861 2.33984
2272 1 -0.0811881 11.7093 10.8904 -2.62768 3.5346 1.64306
2273 1 -23.2495 -20.5322 14.6347 -1.25248 -1.25865 2.44555
2274 1 -6.15332 -0.593931 19.266 1.4002 1.28402 -0.696904
2275 1 -12.1206 23.2275 -15.3683 -0.0931592 -2.51282 1.02906
2276 1 0.126813 11.3554 4.32949 -2.58676 -0.997962 0.086584
2277 1 -12.2015 4.90182 22.3551 -1.64242 4.42871 0.514532
2278 1 -16.6031 -13.2728 -5.92171 -1.47601 0.256376 1.44145
2279 1 -11.8904 0.541703 7.56208 0.600595 2.77041 7.41385
2280 1 11.8193 -10.8979 -2.55388 -3.73395 4.18018 -3.91905
2281 1 19.113 11.8629 23.7649 -6.94724 -2.42435 3.99608
2282 1 -5.65846 23.1494 7.73782 2.20794 2.4323 -0.786054
2283 1 22.4596 -12.0712 6.52898 -2.7315 1.62987 3.39373
2284 1 -20.9115 22.1755 -22.5768 -3.88363 1.52095 -2.47038
2285 1 -21.7612 16.3496 0.681587 -7.23336 -0.535218 4.21425
2286 1 3.48614 -8.82677 3.48428 4.77324 -0.801047 1.34182
2287 1 21.8386 17.1858 15.2605 1.96462 -5.82778 -7.13348
2288 1 22.6716 -8.25982 -6.15269 -1.84952 0.256665 3.62429
2289 1 -3.1761 12.7229 -21.0781 3.2654 0.312824 -4.32075
2290 1 16.5007 -7.94784 21.5885 2.94273 2.74561 4.23926
2291 1 0.165908 21.5227 20.2003 -1.60591 8.61305 1.6958
2292 1 -14.1135 -11.0762 -2.5031 2.65453 -1.2742 -2.9448
2293 1 2.09949 5.71733 10.8616 1.50861 2.68457 -3.29366
2294 1 -18.9481 9.93185 -18.6251 3.44047 3.27217 2.93825
2295 1 -15.2109 9.86015 23.8948 -2.2503 0.288556 1.34096
2296 1 -21.8426 -10.0464 -17.4484 1.78777 2.53134 2.54364
2297 1 10.7375 5.06786 -19.9584 -0.832294 -3.88085 1.04339
2298 1 -2.93139 -21.4129 -6.33505 0.391917 -0.37071 3.41162
2299 1 9.13899 -11.8982 -2.91279 4.50843 2.75842 1.89396
2300 1 7.00725 12.1128 2.05855 -1.0258 -0.412546 -0.397437
2301 1 5.11388 -24.2595 21.1861 -0.306706 4.64343 -3.23083
2302 1 15.7535 10.3132 -15.0454 5.16048 -1.10362 -3.21957
2303 1 -11.6199 17.9928 -12.6714 3.54031 2.60177 3.15131
2304 1 8.37936 17.0561 7.98679 -0.395129 0.112349 -1.37487
2305 1 -14.5265 18.1959 12.5746 -0.44111 4.61399 0.542715
2306 1 3.19113 -4.60961 22.817 -0.401519 -4.57628 0.653452
2307 1 -15.7487 12.9252 23.0011 0.697776 -1.2541 1.01377
2308 1 4.90811 4.61 -18.9726 -1.63813 -0.560914 -5.89106
2309 1 20.2093 16.8779 22.6291 -3.15782 0.162494 -3.89684
2310 1 6.0031 -17.8669 9.21505 2.98677 -2.04669 1.86721
2311 1 7.45007 0.570057 1.79659 5.33592 -1.42689 -3.11144
2312 1 -20.4756 -21.5229 7.72057 -2.63806 0.520659 0.477594
2313 1 -7.20043 14.7485 -20.7234 -2.38155 -2.68249 -0.267741
2314 1 -17.7456 5.98365 8.18219 2.52498 -5.25644 0.635338
2315 1 -10.4507 15.1897 16.1761 -1.79344 -7.53889 -3.93032
2316 1 -18.2056 -12.5124 2.68325 -0.88993 -2.54039 -6.60094
2317 1 -4.20358 -11.1671 -8.10053 2.15617 -2.52009 0.652357
2318 1 20.2196 -6.58513 -6.17417 0.820498 -2.54679 2.51609
2319 1 4.88686 -9.30351 7.50041 -0.851875 -0.0720881 -2.07302
2320 1 22.1813 2.51129 -18.8276 1.08463 3.67515 2.18458
2321 1 -1.15875 24.8721 22.9182 -3.24446 -1.8749 -3.11224
2322 1 -4.42146 19.8075 19.9809 2.45773 1.38146 -4.3314
2323 1 3.95911 -3.98557 -3.67707 4.26272 3.20892 -0.638598
2324 1 7.9576 -20.1758 -16.5664 -2.99375 0.583952 3.33358
2325 1 14.6676 -22.2943 -15.3904 0.781211 -0.0975133 0.481694
2326 1 21.2394 -10.746 -12.9161 -2.20229 -3.41396 1.82243
2327 1 12.7132 -1.07346 -18.1117 -0.323172 3.78938 -1.543
2328 1 -9.21657 -8.25026 -4.24032 0.459923 -4.606 -0.54467
2329 1 6.91586 5.95057 12.7683 -5.16045 1.21925 -0.0657989
2330 1 12.7084 -21.4973 15.5759 -1.07597 2.69859 -0.785981
2331 1 -16.1039 -15.1047 11.5582 -0.82886 4.00726 0.980603
2332 1 20.842 -17.2618 11.2111 1.2837 -0.44132 -4.32871
2333 1 10.9149 -20.0008 -14.9378 -6.63971 -5.46214 3.1867
2334 1 -9.80751 20.2404 15.0222 -0.617463 1.3272 2.0591
2335 1 -4.26315 19.8103 23.6364 -0.95262 -1.22617 2.79508
2336 1 16.6062 -11.1232 -20.9485 0.565407 -4.67046 2.52374
2337 1 8.90311 5.52272 0.446475 3.18069 -0.64216 4.40823
2338 1 0.259664 -3.3481 -21.5583 1.04282 4.98542 -3.20335
2339 1 8.44321 10.6544 -3.74034 2.42017 -3.63863 0.754979
2340 1 7.52056 8.83527 14.6637 -0.383823 3.76602 -5.63969
2341 1 7.57142 -18.1418 -18.7435 2.33236 0.624659 2.07353
2342 1 8.74238 -14.4673 0.622419 1.12719 3.79974 -2.60721
2343 1 9.6196 22.2407 2.57054 -2.87639 -3.26719 -5.21772
2344 1 12.8768 24.5653 3.34078 -2.34425 2.40285 6.11428
2345 1 8.17414 12.3061 -14.0889 -3.48512 -3.97069 -0.294086
2346 1 -3.83533 -21.1053 9.72372 -4.95724 -4.42451 -2.44032
2347 1 -13.637 12.0137 -14.6587 1.42535 1.71821 -1.43367
2348 1 7.63415 -2.86878 4.75901 5.47391 -0.904044 1.95821
2349 1 -9.43794 22.7064 15.9575 -1.18179 -0.221166 -0.598274
2350 1 11.1588 7.3033 -12.9412 -3.7285 2.44697 2.05942
2351 1 17.2328 10.8718 -12.701 -5.374 1.56837 -3.07228
2352 1 -1.69894 22.2838 -21.9034 6.00311 2.37055 -2.40179
2353 1 14.1695 -2.34301 6.60175 2.86378 4.28888 0.762327
2354 1 19.6443 -18.6175 -23.8459 0.244366 0.210745 4.08682
2355 1 -7.40231 0.847965 1.65988 2.13759 -2.11674 -2.72908
2356 1 15.239 -22.252 -10.3774 -0.0945836 -2.09375 2.30962
2357 1 -2.91765 -1.51433 0.52664 -3.08335 2.49271 -1.69281
2358 1 2.15386 -11.5715 -11.1069 -6.73382 3.83686 2.19374
2359 1 9.9468 10.199 7.66987 0.577042 -0.386973 -0.69645
2360 1 14.4448 16.2521 3.48833 -1.10862 -1.20611 -2.45176
2361 1 -22.4827 9.14661 -11.7885 -3.46062 0.357266 0.0774034
2362 1 -20.7718 11.4284 12.2641 -0.10215 2.26464 2.41338
2363 1 17.0552 -10.8745 -0.319065 -0.431641 -0.835099 2.38878
2364 1 2.57653 -1.89698 0.296337 -3.59449 2.33819 0.0684019
2365 1 23.7703 -7.13213 -3.75829 -0.437111 1.26763 0.596612
2366 1 10.659 3.36152 1.62978 -1.37837 2.02909 3.26332
2367 1 3.57546 18.4943 11.4752 4.96754 3.39908 0.57787
2368 1 -7.85113 -20.1507 -7.16848 -4.59699 1.43452 -0.713438
2369 1 19.4084 3.27801 14.4385 -3.93263 -0.18664 -0.604324
2370 1 -22.7239 -8.97815 -6.36181 2.22526 -0.0990083 -2.04154
2371 1 16.7296 -20.2735 -0.0271994 -0.369198 -1.89687 -2.08838
2372 1 -24.2143 4.74943 -1.41708 -4.67078 4.76388 -1.18808
2373 1 14.1161 10.5288 15.2053 -1.62533 -0.328654 0.527664
2374 1 -5.73653 8.82219 -2.00494 0.667004 3.71876 -3.22702
2375 1 9.81281 22.2747 13.6009 -2.58085 0.0115571 -1.28335
2376 1 -15.3557 0.0575771 23.0062 0.615781 1.92714 -1.15694
2377 1 -6.51376 -7.64739 -5.03831 -2.51972 -2.00284 -0.614736
2378 1 6.80069 -1.03916 19.4366 -2.9141 1.56842 0.542546
2379 1 -23.8467 12.7136 8.65745 -0.786344 1.15796 -2.29219
2380 1 8.47739 -13.3954 22.0366 -2.68702 0.0518746 -1.01838
2381 1 13.8045 -9.08386 -3.85315 -3.15975 4.85768 0.212376
2382 1 -13.8863 15.6268 -17.1837 1.12264 -4.39129 -2.26062
2383 1 22.2408 -18.2247 3.63656 0.482107 4.4497 -6.3415
2384 1 6.43185 -12.7119 23.7844 4.40223 2.42201 2.94819
2385 1 -0.911013 7.12746 3.17392 0.278179 -0.385109 -2.49969
2386 1 2.22274 -2.02288 5.70154 -1.34396 2.43163 -3.72128
2387 1 -12.3635 -5.89035 12.7455 -2.236 -0.818608 -1.68376
2388 1 8.48198 22.9106 20.6531 -1.0717 -1.52242 1.57636
2389 1 8.21093 -10.8608 10.8663 2.39959 0.747418 -0.680997
2390 1 -22.529 -6.29075 -7.45637 -1.08787 -7.17075 -2.47578
2391 1 -7.50592 -2.6289 8.32592 -2.80524 0.526962 0.303917
2392 1 9.16316 -24.2266 -15.0147 -2.82869 2.70632 1.38979
2393 1 5.9187 -17.346 20.1047 -0.709265 2.47428 -0.336951
2394 1 16.8588 14.6814 -5.58586 -0.332836 1.59188 3.77018
2395 1 4.18841 16.4165 19.0561 0.816746 -2.08691 0.869535
2396 1 -17.0672 -21.8383 -0.440209 7.1815 -0.215582 -1.41656
2397 1 -15.7801 -7.06947 19.4758 1.32753 0.676024 -0.543314
2398 1 -8.88966 -2.47249 14.3148 -1.7798 5.12153 -2.26547
2399 1 -13.8785 -9.41836 10.0084 1.46743 -2.64182 -0.287467
2400 1 11.814 -7.19703 15.2896 -0.355739 -2.07267 -0.998114
2401 1 -18.7943 21.0932 -3.6046 -1.41982 -0.972585 -0.583989
2402 1 17.0064 14.3529 -18.8846 -0.128561 1.66754 0.260964
2403 1 -11.9012 0.398939 -23.2141 2.31663 2.98991 -5.66932
2404 1 -21.2794 -6.72058 -23.2256 -2.3552 -6.4156 2.08407
2405 1 -5.39368 -10.4465 -20.9145 1.5846 -0.762443 3.81337
2406 1 23.7462 7.11131 -12.0817 -1.02855 2.1281 -2.53478
2407 1 -13.367 -12.4616 13.8841 -5.9859 -2.43822 4.50087
2408 1 -20.3447 -3.93594 -12.3144 -3.47433 -1.72869 4.30285
2409 1 5.86574 11.2502 14.6637 -5.48235 1.17239 0.732878
2410 1 6.83789 -20.9035 -23.386 -0.229861 0.728069 -2.23195
2411 1 9.47528 11.4239 -18.355 1.49038 1.14567 1.27525
2412 1 9.79829 19.2175 15.6465 -2.78706 -0.727011 -2.9813
2413 1 -6.11854 21.5269 5.27417 0.846251 1.27567 0.120314
2414 1 13.0225 -6.22218 -6.50376 1.15404 -0.447804 5.60751
2415 1 22.5439 -22.4372 -23.9507 -4.63637 -8.16722 0.163262
2416 1 7.59843 12.4173 9.53179 6.21266 -1.42862 0.337151
2417 1 -3.60218 -5.10891 -0.869135 -3.04028 -4.67456 -2.18442
2418 1 12.5304 3.78075 -8.80469 -0.528694 -3.13972 0.95487
2419 1 22.1539 7.92101 -17.494 -1.72415 -1.49659 -3.0507
2420 1 -1.38009 -5.53962 -8.03741 0.260297 2.05942 0.0161934
2421 1 -22.9039 15.8552 -8.35315 -4.55902 1.23423 0.751872
2422 1 -16.3068 5.07157 14.7826 2.50497 2.67623 -3.44782
2423 1 14.4457 21.2615 6.77764 0.0382342 -2.27534 -3.03378
2424 1 23.5785 17.4441 6.74042 -5.60514 2.23754 -4.55033
2425 1 -15.7692 8.58842 -21.699 -0.214852 -1.10759 -2.47979
2426 1 0.116294 17.5757 19.75 -5.49889 1.45046 1.91662
2427 1 14.4014 4.50317 2.91947 -0.618182 -1.41711 -1.39907
2428 1 12.791 -16.8152 15.1404 -2.21788 -3.0366 9.43076
2429 1 -8.79382 -9.28951 -13.7635 4.4526 -2.75414 0.198513
2430 1 -13.2294 -6.84873 16.8759 -2.26355 -2.1059 0.10033
2431 1 -19.3565 18.5469 -10.6861 -1.36414 -1.81116 1.66289
2432 1 18.9982 13.4193 -16.2353 -2.73012 -1.52897 -3.76309
2433 1 19.4814 -22.9953 20.7505 -1.74719 -1.90162 1.62585
2434 1 -0.192065 -23.087 -2.77162 5.47075 -0.859229 3.79901
2435 1 -15.7291 22.8591 10.0404 -2.61514 -0.143688 3.45226
2436 1 -6.57217 10.0833 18.183 -2.60113 2.56499 2.03786
2437 1 -13.9489 -5.10044 10.6247 -0.938878 2.15124 -1.04059
2438 1 -2.65117 -24.2766 -21.1026 -6.47097 0.484206 -0.0921896
2439 1 -14.4511 19.2025 9.76218 5.58403 -1.68658 3.93052
2440 1 5.06114 -3.21842 -15.0541 -0.676547 0.747219 -4.27281
2441 1 -23.68 13.5787 18.3395 -3.32205 1.5667 3.26271
2442 1 -2.141 -10.1652 -15.6405 0.938935 -0.0382063 -0.981008
2443 1 7.19537 9.35452 -22.8608 0.734992 6.03486 -1.17189
2444 1 12.516 21.1586 19.7241 -3.18289 -0.0564049 -2.73465
2445 1 1.13062 2.45913 21.0872 3.80201 2.55554 -3.18703
2446 1 -2.16178 -6.6143 16.1612 -4.63293 3.45747 -3.49222
2447 1 -0.434262 -13.223 17.7545 6.3915 0.655809 -1.07352
2448 1 0.27645 -16.2034 -9.74461 -2.34773 -4.35315 2.18122
2449 1 17.6651 -24.227 12.3147 2.17184 2.73367 -1.40041
2450 1 8.1391 10.5965 20.8383 -3.30579 -2.90596 1.20943
2451 1 9.1692 -22.1175 4.82102 1.33282 3.9879 3.80733
2452 1 13.5076 15.6218 -14.2861 0.0992441 0.259573 -1.2224
2453 1 -2.15033 10.1261 13.7351 2.60845 0.700673 0.73764
2454 1 -4.08379 10.2772 -17.4198 3.31559 0.756485 3.57122
2455 1 11.7107 9.28676 14.2796 2.47889 -3.59083 -2.04829
2456 1 20.037 19.267 21.0964 -3.5809 1.91651 -2.0316
2457 1 -2.85273 1.5189 11.6236 1.65299 -0.577087 -1.11169
2458 1 -22.9615 21.366 -2.36439 1.42369 -4.91352 -1.28734
2459 1 -19.3855 16.3995 -6.96859 1.60083 -4.84287 -0.821271
2460 1 9.58974 8.79255 -15.0179 -2.21089 1.87017 -0.0979397
2461 1 -23.1997 18.7246 -3.66009 -2.11452 -0.982482 6.91367
2462 1 -12.339 23.5013 2.41712 -2.75449 0.13489 0.920996
2463 1 -12.4859 -20.8204 22.3662 -3.09378 -0.278054 -0.325724
2464 1 7.35599 19.2024 -14.6827 -1.00017 1.57351 -1.81392
2465 1 -8.52397 -13.6505 -11.7776 0.34552 -1.36389 -2.66338
2466 1 2.49016 4.42679 -3.91696 -1.8583 2.82713 -1.93742
2467 1 1.56753 -18.7557 10.6226 0.118824 1.19577 -1.87586
2468 1 -20.1438 46.7826 -6.34124 -0.0453769 5.00385 -6.12379
2469 1 12.3604 -22.742 23.2192 -0.461486 2.23435 0.732126
2470 1 12.4082 -19.8151 -10.2639 -2.44959 -4.33401 2.05936
2471 1 -3.00663 24.934 -23.3434 3.88937 3.81758 1.78783
2472 1 -18.4065 0.213419 13.3948 2.13339 -0.216699 -6.43467
2473 1 12.9714 10.0115 -6.59878 2.57915 -3.60393 1.50284
2474 1 -4.49867 -9.12201 -16.7347 -0.823946 0.281867 3.1362
2475 1 -17.3717 11.9381 8.82383 0.260756 -1.51448 -1.73136
2476 1 -5.59315 -17.81 -19.4888 4.22033 -1.07581 3.19946
2477 1 11.4407 9.27218 -1.54143 -5.19685 -6.28967 1.5529
2478 1 -4.51938 -21.7412 -1.8586 3.84445 -1.49765 -6.51021
2479 1 -20.1768 -3.25157 2.41728 0.55624 3.2737 0.535278
2480 1 0.13663 20.689 -8.07351 -5.18687 0.202554 0.60897
2481 1 -14.5276 -6.45187 -10.1337 2.06302 -4.63829 1.41891
2482 1 7.53133 -4.00401 -0.586944 -0.989187 3.15597 -1.47644
2483 1 0.491276 9.77374 -11.2769 -0.874238 3.93153 -6.35651
2484 1 2.03232 -15.4652 -7.46704 1.48172 -0.848248 -3.24459
2485 1 -1.70109 -19.1746 5.92442 -2.8745 2.40582 4.25099
2486 1 -4.03766 -19.9215 7.20864 0.248765 0.352834 5.43739
2487 1 3.61416 18.5053 0.500547 3.49987 1.94624 6.02001
2488 1 -8.8673 20.0124 18.863 -2.07747 -0.587677 0.393062
2489 1 6.17672 21.79 -11.3895 -1.13453 3.13253 -1.60464
2490 1 -12.0562 23.6936 19.8364 0.180362 -3.68182 -5.06886
2491 1 12.527 -22.8684 -3.85317 -1.51018 0.509601 -5.3282
2492 1 23.1477 14.1682 3.68805 3.8115 -4.86461 -2.27028
2493 1 19.6145 23.1158 -21.1132 -0.967597 0.956988 -0.537674
2494 1 -14.1581 -15.9237 -23.7479 0.906768 -1.46203 0.00844101
2495 1 13.6606 -11.9725 -9.65344 0.324232 -1.16205 5.22802
2496 1 3.63036 3.00083 -23.6607 2.44607 0.103368 -4.43603
2497 1 4.21009 5.73335 19.5364 -1.95977 -2.92793 -1.50646
2498 1 -5.7117 6.88219 3.43341 1.37405 -0.56058 2.25532
2499 1 -23.9689 -14.5786 8.78829 -6.21471 2.28387 4.08996
2500 1 9.34486 21.8627 7.27846 -1.1728 2.71572 -0.872626
2501 1 5.51507 11.4046 5.6437 3.36608 -5.88998 2.63968
2502 1 -6.40737 -12.3852 10.8385 0.803661 3.91535 -1.10519
2503 1 17.3886 15.3283 -1.13667 0.0108213 4.15674 1.07546
2504 1 10.1357 11.2322 10.3381 0.538546 -0.500346 5.67927
2505 1 -10.7544 18.2082 22.1144 0.852543 -3.70424 4.96964
2506 1 -24.2609 11.3651 -10.4413 0.506306 -0.878038 -2.58126
2507 1 8.19346 -2.39858 -16.8522 6.63723 -2.02782 -5.66333
2508 1 13.0174 23.1779 -5.97999 -2.25349 -1.74774 -2.51956
2509 1 -3.77194 -7.48036 4.49236 -2.29772 -4.3788 5.35178
2510 1 -21.0102 1.07302 -3.01434 1.08045 3.68924 -6.37404
2511 1 4.16163 3.66028 17.7523 -6.85454 2.75913 -2.62456
2512 1 -9.71426 12.3718 14.2138 -1.57544 1.32247 0.997096
2513 1 19.3411 8.15163 7.68834 -0.383738 -0.957753 1.53664
2514 1 23.3205 11.6352 23.3159 -3.44995 1.26871 1.49938
2515 1 3.11584 -20.7017 2.80099 -0.735309 -1.32767 2.04531
2516 1 5.71724 11.538 -19.5921 7.61736 0.357868 -1.19652
2517 1 -11.7543 -14.4927 15.397 2.69949 3.46909 -2.95054
2518 1 -1.61388 -3.04357 -1.39866 -1.30171 -1.4567 1.2882
2519 1 -22.8223 20.3337 12.6898 -2.02501 -1.98477 -1.32461
2520 1 -21.5912 -0.0823855 -6.66406 -3.60566 5.5132 -0.195735
2521 1 8.51516 6.18517 15.0571 -3.90362 -2.05364 -0.17838
2522 1 -4.61586 12.1501 2.47162 2.6657 -2.32264 3.89293
2523 1 -16.9495 46.2237 -22.9588 -0.83434 3.33752 5.26449
2524 1 10.0418 22.0756 -21.6671 -0.113719 -0.0721265 4.71085
2525 1 -13.2344 -14.7711 -8.98877 -0.209084 -1.51545 -1.96101
2526 1 -10.3016 -3.17336 -17.0381 3.23599 0.35001 1.0369
2527 1 5.00811 4.47829 8.28962 -1.77211 -3.3772 -2.07339
2528 1 -8.68587 12.144 7.04814 -3.00899 -1.01113 3.94295
2529 1 -18.4273 -8.24588 -4.2572 0.238094 -4.40504 -1.9104
2530 1 4.29931 -13.023 -15.3184 -1.53981 -1.08366 1.23118
2531 1 -19.1058 -9.76375 -16.621 -0.992638 9.56197 1.82556
2532 1 -14.9713 -17.0792 0.638024 2.68195 -0.542835 6.15019
2533 1 -14.6239 23.3395 -1.96246 7.27032 -0.478887 2.18464
2534 1 -18.3686 -9.80879 -1.83908 0.275282 -0.98521 0.303524
2535 1 15.3738 -6.54044 15.0472 4.15013 1.5827 0.534499
2536 1 -23.9543 -19.4851 23.915 -7.78055 3.53455 -0.933368
2537 1 -1.03172 -22.7264 14.0014 0.715485 0.124925 -2.50216
2538 1 -7.38799 4.34951 -23.1914 2.80431 1.57038 1.4515
2539 1 12.9683 -10.6632 18.6916 -1.64072 -3.48933 1.04753
2540 1 20.5644 -9.28162 15.0639 0.96231 -3.50876 2.5367
2541 1 5.00374 7.57968 14.4349 -1.04131 0.598821 -3.66801
2542 1 -12.4433 -8.00465 -21.0744 -4.2681 0.806015 -1.29604
2543 1 -16.0664 -7.02434 -7.46243 -0.22352 -1.66969 7.35359
2544 1 12.235 2.92219 6.91198 3.87899 -1.09253 -0.266414
2545 1 -10.892 10.6608 -21.8114 1.21426 -6.08242 -0.493879
2546 1 -15.5501 3.78463 12.2404 -0.448127 -4.73118 2.53447
2547 1 -12.2844 -3.217 5.60024 1.32264 -1.24774 -3.65145
2548 1 16.4838 -5.37945 -8.8029 4.05058 3.03558 -4.74579
2549 1 7.72627 10.6068 -16.4748 1.07308 -1.47891 4.83867
2550 1 -22.0002 -17.9343 -18.5089 -1.24279 -0.540973 -2.84152
2551 1 -6.11578 12.6495 -14.602 -1.9884 2.77229 1.5439
2552 1 -1.62647 -14.2504 9.07036 1.35389 3.25589 -1.01933
2553 1 1.0043 24.5292 15.5033 -3.19926 1.65519 -1.30087
2554 1 20.309 24.2789 -5.90701 -6.32948 2.63966 -0.221518
2555 1 4.16907 15.026 -6.01242 1.66053 -4.65347 0.45382
2556 1 -9.01586 -13.2144 9.87709 3.236 -1.27941 1.86902
2557 1 18.0468 -23.8839 -13.7103 -0.927964 0.102948 3.95378
2558 1 -20.3374 9.01641 -20.9874 -2.32302 0.784057 -1.68713
2559 1 -17.0074 6.71786 4.33002 -7.39099 4.04047 3.19261
2560 1 20.8172 -22.6822 8.06628 1.30836 -0.0388528 4.94164
2561 1 -10.3006 -2.13248 11.823 -1.87646 4.71653 -1.31195
2562 1 -19.7426 -5.79739 -10.1738 -8.73907 4.51972 -3.38179
2563 1 20.7067 -3.34093 -21.9751 -3.97983 1.89156 -0.370636
2564 1 -10.8977 -15.1864 -11.0101 -3.31436 -1.71626 -3.00488
2565 1 14.1354 17.6203 14.7819 -2.91793 3.69049 0.281463
2566 1 -24.1128 -11.0167 14.0299 -1.72601 -0.691958 1.28171
2567 1 -13.6797 -0.507988 -17.4007 -3.91148 3.46347 2.8918
2568 1 19.5748 -9.40314 -19.1355 -3.60413 -0.601585 -3.25184
2569 1 23.1119 -19.5511 -13.8587 0.912729 0.439563 -3.04966
2570 1 -21.1397 17.0673 -16.9679 -2.28328 7.43998 -1.04321
2571 1 13.3941 -0.664798 21.2565 3.04014 0.138611 1.5837
2572 1 -23.3737 -18.7477 -7.49855 -3.73436 3.11193 -5.31512
2573 1 19.1925 -23.8284 -4.22584 1.91593 -0.551862 1.66806
2574 1 -19.4425 -23.4057 -8.9404 5.20818 -1.79249 -5.6109
2575 1 3.82064 15.6733 1.5403 -3.6804 2.02739 -3.04597
2576 1 23.0648 20.7585 14.5069 -3.4318 0.176386 2.20174
2577 1 14.0899 22.2248 -3.38402 0.758097 4.64223 -2.37075
2578 1 -15.8485 -15.1479 -3.76093 4.7323 -0.500302 -2.17056
2579 1 -8.86429 9.84813 3.81346 2.6817 1.22126 2.33464
2580 1 -24.5598 13.7403 -20.4142 -0.0621043 3.11286 -2.24441
2581 1 -5.9934 14.9551 22.2516 -0.249237 3.63051 -3.52446
2582 1 12.2359 23.9019 9.67506 -3.9794 -0.354367 0.73343
2583 1 6.19807 19.6025 0.0177569 3.09754 -0.479191 1.015
2584 1 -11.7094 -21.4842 -11.9736 5.51247 1.22826 3.13931
2585 1 15.7512 -15.7107 19.6128 3.35886 1.75473 -1.12629
2586 1 -14.1518 13.8974 13.336 -0.502016 3.43551 -0.585563
2587 1 18.0425 -19.4089 7.46167 0.887679 -9.34105 -2.2971
2588 1 16.7109 -0.131146 -16.7266 1.95832 -3.01999 1.55223
2589 1 -1.13005 -7.35787 8.62355 -1.26747 0.0961526 -0.282961
2590 1 13.3847 4.24305 -11.4737 -1.22086 0.690175 0.482858
2591 1 -4.49141 -23.4218 13.4544 -0.836817 0.492691 -0.0433149
2592 1 -0.555853 -17.8368 8.56713 1.85097 4.85502 -4.20078
2593 1 -23.7498 -5.68615 -22.481 0.87918 0.0617508 -0.29462
2594 1 21.9859 -7.47013 16.7924 -0.511579 1.95912 1.41925
2595 1 -2.0023 -18.3914 -18.288 -0.996595 0.405275 1.61363
2596 1 -14.4175 10.7531 -20.0899 0.620691 -0.426886 3.10156
2597 1 -19.4541 -2.84534 -17.242 5.47596 0.31935 -1.28238
2598 1 20.8663 -0.00596304 -2.89795 2.24286 -2.50921 0.882304
2599 1 -6.51877 2.89555 7.69566 -2.18921 -1.57737 -0.946785
2600 1 5.46117 21.6742 2.26129 -0.327272 1.05147 -1.94249
2601 1 -3.0992 6.91026 4.87307 -0.0704878 1.3443 -0.164344
2602 1 -5.27054 -12.6092 -1.27301 -0.64858 0.321039 4.79486
2603 1 23.1851 20.5177 -6.70894 -3.0595 -5.23017 2.1296
2604 1 13.5592 -12.6507 -0.96975 -0.820039 -0.798644 2.1425
2605 1 -16.7475 8.54399 -5.82778 -1.13812 -1.36911 1.62302
2606 1 16.7138 15.665 20.0606 -2.67392 2.37466 -1.17662
2607 1 10.7646 1.5778 24.29 -1.28379 3.57563 4.96182
2608 1 12.5024 -17.7527 -21.7088 3.97116 -0.0719749 -1.74821
2609 1 -13.9098 -5.58654 -17.9361 0.337614 1.87276 3.06806
2610 1 0.742193 4.53385 -17.2338 3.21637 -0.313352 -3.61655
2611 1 -22.5818 23.5057 -20.4641 0.94034 -0.0254882 0.474348
2612 1 -16.3471 -20.626 18.408 3.411 3.87087 3.51378
2613 1 -22.1068 5.11315 15.673 -2.38293 1.46572 1.63175
2614 1 -11.8321 11.9869 -19.0223 -4.34144 -0.333107 2.92344
2615 1 -3.51152 2.21162 15.8448 0.649126 -0.198933 2.51652
2616 1 23.166 -2.28675 -10.0906 -2.47619 1.9643 -1.40106
2617 1 -5.37189 12.9336 -17.2567 -0.349787 2.73475 -2.13447
2618 1 -6.73966 -17.0353 -10.6421 0.422245 -3.11342 0.434532
2619 1 -0.196695 12.5006 -21.2446 -2.95572 2.20607 -0.45722
2620 1 -8.964 15.0695 6.49365 1.8681 2.55918 1.57147
2621 1 4.14001 -21.2054 5.51708 2.9342 0.383363 4.86586
2622 1 -2.46041 -17.9945 22.3178 -0.255753 6.15085 -4.42045
2623 1 -20.1511 17.8639 -22.9217 -2.87793 1.64937 -0.352168
2624 1 -18.8282 18.2605 -4.64845 0.559727 -1.07516 0.303064
2625 1 -6.33015 -4.84618 22.1089 0.792311 -3.36365 -3.34697
2626 1 -3.53937 4.38615 21.2036 0.980195 4.00533 -3.05
2627 1 15.0036 24.5427 9.45195 -3.2874 -0.313463 -4.60742
2628 1 13.0492 -7.26866 -21.8809 1.55054 1.92581 4.39324
2629 1 -20.3586 -1.67731 6.5562 2.76964 -1.07616 2.26674
2630 1 -12.4155 -9.14149 18.5271 -0.581249 -5.87909 1.41216
2631 1 18.4682 15.6761 1.41302 -1.11908 -2.62532 0.869571
2632 1 19.0493 -2.12149 -17.1399 -4.58432 8.35078 3.91699
2633 1 -5.32479 -16.3001 -13.8636 -0.236255 -1.23925 5.00464
2634 1 -5.19905 11.3419 -22.4597 -7.23504 -0.233944 -2.53174
2635 1 0.694579 9.54991 22.7333 2.82904 1.62544 2.08476
2636 1 -15.0581 -20.5657 13.0992 2.18257 -3.31105 -3.20725
2637 1 9.97307 -15.331 -18.3841 -0.514472 2.24502 0.907273
2638 1 11.8314 4.64157 -5.78943 -7.18472 -0.212191 -2.3354
2639 1 -0.829143 -9.37673 18.92 4.01329 0.840184 -0.475864
2640 1 5.85172 13.886 -17.8004 0.857776 3.11448 -0.474294
2641 1 23.6042 6.47189 -15.0868 -3.60693 5.28258 -2.45561
2642 1 -5.09254 -19.9178 3.6458 -2.21455 1.73371 -3.57264
2643 1 -2.35775 -14.6786 -22.6634 -3.11345 -2.19379 -0.827841
2644 1 19.1289 -20.4341 -12.6091 -0.0423173 2.41682 -0.67803
2645 1 5.72941 -22.2797 15.4122 -0.549434 1.47067 3.56057
2646 1 -3.93576 10.9688 -2.42198 3.27057 -0.322753 -1.1183
2647 1 -10.4135 5.5345 3.62356 4.64778 -1.32392 -2.53471
2648 1 17.3722 1.30133 3.68517 3.62582 0.825307 3.20191
2649 1 -17.6349 21.0679 -10.6466 -3.68122 -0.60429 5.75096
2650 1 -4.25067 8.74501 14.8611 -1.91431 -4.54044 -2.08347
2651 1 -16.8435 -19.0595 14.7226 0.339222 -4.49259 -3.94738
2652 1 -20.7046 -5.9152 -14.2186 -4.31753 -2.85122 2.43484
2653 1 -8.17168 8.91098 -3.43313 1.72337 -1.00875 4.72566
2654 1 19.9563 -8.69117 -1.65819 1.3034 1.36992 2.46367
2655 1 -5.10464 -10.6177 0.658248 -0.895513 0.261175 -1.1808
2656 1 -4.10077 8.1872 -19.3341 -0.522617 3.29861 -4.51458
2657 1 -9.52704 -7.02663 7.34585 3.21044 -0.241672 -5.00564
2658 1 -5.9289 0.900017 16.2588 4.08272 -1.5173 -0.328985
2659 1 16.3801 -4.32413 -23.6309 3.85713 -1.70812 0.213175
2660 1 -11.7504 22.9498 13.2695 4.3891 2.15717 3.46343
2661 1 7.78957 6.23676 23.2802 -0.0915059 2.2231 1.69153
2662 1 -22.6245 -23.0589 10.7338 2.37093 -5.04577 -4.55253
2663 1 -7.65499 9.1273 22.1512 2.57996 -5.36084 -1.82169
2664 1 -15.4116 17.8338 23.3866 3.93906 3.16581 0.937961
2665 1 -21.0306 3.40286 0.987824 1.86198 -1.30314 0.830552
2666 1 19.8692 -23.5327 1.5664 -3.74586 1.29147 2.46349
2667 1 -8.06325 -3.81874 -4.94166 -3.35628 -2.08849 5.07181
2668 1 -7.92735 -17.9988 -21.5171 1.52281 2.16927 -5.72242
2669 1 0.506799 -7.93936 16.7195 -2.05781 5.77866 0.213879
2670 1 23.3983 24.6402 -15.9966 -0.241293 1.5248 -0.0186283
2671 1 10.9669 18.9834 20.8113 2.39129 4.03233 4.88859
2672 1 6.55453 -6.44185 9.45304 3.68522 2.76582 1.43978
2673 1 -14.6666 -23.3697 -1.49234 0.655382 0.861675 -0.00356
2674 1 -8.76958 -21.179 -1.99726 -3.77178 -3.08544 -0.927326
2675 1 18.2931 4.18928 -9.11545 -1.50463 -0.756761 0.830915
2676 1 21.3031 22.1583 -19.0145 0.751865 -3.87352 2.34503
2677 1 -0.332318 -22.5875 2.86005 -2.13229 -1.31214 1.61554
2678 1 4.39149 -18.8872 -15.2451 -5.86256 1.66756 -2.29593
2679 1 8.23668 -2.2648 1.57034 -4.35401 -1.49751 3.86966
2680 1 8.91072 -5.6049 -6.72189 3.43345 -0.353965 -1.83776
2681 1 -15.182 -8.03045 -17.243 2.43426 -3.29488 1.17361
2682 1 -20.6551 1.99249 13.4327 1.02744 0.656569 1.20781
2683 1 -16.2885 5.41987 -17.9174 2.63455 3.51439 0.628142
2684 1 23.0498 -11.3323 3.60461 1.04681 1.68886 -1.49253
2685 1 -2.62265 -9.05455 6.47598 -1.55493 -0.32523 -3.1935
2686 1 6.31742 -22.2481 -17.4626 -0.122757 -6.5019 -1.71106
2687 1 18.378 -16.8373 -15.0761 -4.6056 -2.1924 -1.38544
2688 1 -16.9067 -2.37347 -0.436937 1.51518 -0.844271 3.08185
2689 1 -6.90244 -2.27442 -8.25735 -3.38335 3.497 0.0632266
2690 1 -14.2501 -13.3 -18.7276 -0.356895 -5.19817 2.34938
2691 1 -20.2761 -22.9737 20.2608 -0.14657 -1.09784 -3.62216
2692 1 4.92507 1.50296 -12.4864 1.87634 -6.25139 -5.55704
2693 1 9.59641 19.2921 -18.3311 -4.83132 0.528697 3.81777
2694 1 -4.67453 -11.6087 20.0509 -3.2942 -3.37123 -1.29474
2695 1 15.13 7.39753 12.3711 -0.952551 0.37534 0.153977
2696 1 -24.5543 -16.6459 -23.7169 -5.34576 1.8234 1.51434
2697 1 6.25549 -0.262582 -5.46746 5.48634 -0.320172 2.06375
2698 1 15.9842 -13.3592 21.2174 3.4182 -3.1538 3.77091
2699 1 -16.4388 14.9086 -2.98232 -3.06686 3.34906 -1.28222
2700 1 -8.11245 -20.4133 3.23307 1.44911 2.29341 -0.075404
2701 1 -20.1053 22.5287 0.0881475 -2.2218 -1.71656 0.5775
2702 1 -7.36917 17.7702 -20.5463 -0.298315 -0.993903 -4.25769
2703 1 12.3928 -6.41985 -12.9573 -1.80194 -3.8648 2.05347
2704 1 2.43256 -23.5543 2.40954 -2.16933 5.57781 -4.51891
2705 1 -2.67711 -5.34666 6.0714 1.01957 -1.38234 -2.67133
2706 1 2.48828 -21.8542 21.6009 -2.68941 -1.38106 -1.40279
2707 1 -9.92851 -13.3823 0.850217 3.45935 0.429031 -1.62184
2708 1 -13.9445 2.43149 22.3182 0.906604 0.0106322 -3.64354
2709 1 20.7415 -3.62942 21.2552 -1.06661 6.4469 3.79008
2710 1 -3.12934 16.1911 18.9533 1.58195 1.36957 -3.16946
2711 1 -15.2772 -5.4864 23.9186 1.47362 1.99393 3.25009
2712 1 17.6362 14.4937 5.87581 -3.42009 0.5364 -1.23425
2713 1 23.2668 3.49178 -6.69349 2.61137 -0.00477072 1.87223
2714 1 -19.0682 4.94853 -12.3867 -0.707925 3.74953 -0.51339
2715 1 -12.7365 11.6034 20.5148 -1.99814 -2.0782 -1.23275
2716 1 17.4324 13.6688 3.16072 -5.62661 -2.96728 8.63854
2717 1 11.2264 19.5882 10.009 1.63519 -2.03567 -2.1559
2718 1 9.9913 -13.8306 -22.0233 -2.28385 -4.15043 -4.8232
2719 1 20.1904 -11.3296 2.665 3.35594 -2.51461 -2.7643
2720 1 -14.2883 -9.73903 -19.6557 0.248352 -4.18565 0.315621
2721 1 3.82991 -11.5284 11.1486 -3.23483 0.799289 -0.997644
2722 1 -10.0404 19.1094 -6.03666 1.90735 1.6428 -4.365
2723 1 -4.5942 15.1765 13.9095 -0.112321 -2.54698 0.957271
2724 1 -6.22013 5.33157 6.06874 4.3049 0.45562 -3.10554
2725 1 -1.2004 9.60855 -17.2858 4.94756 0.927785 5.05636
2726 1 -11.6236 -8.11067 -23.9059 0.549073 -0.766005 4.41953
2727 1 -13.6541 -20.2865 -1.38047 1.41376 1.73684 -4.18736
2728 1 -24.2108 -2.65803 11.9868 0.28098 -5.15129 3.56316
2729 1 -4.7147 -23.0888 -19.3178 -0.658427 -0.0278035 -3.22773
2730 1 -7.81049 -15.7776 9.98422 -0.877029 -1.38983 -1.55575
2731 1 -24.3048 24.3137 -8.4211 -3.03723 3.16018 -0.228919
2732 1 1.40687 2.67469 5.72516 -2.02219 -0.283925 2.41379
2733 1 -6.98669 10.4314 -18.6789 -1.85719 1.53836 -7.78544
2734 1 18.6258 -8.53431 19.2187 0.278494 -0.48192 -0.203854
2735 1 -4.79714 8.42238 -15.2658 3.07661 -1.99719 4.30898
2736 1 18.0744 14.8037 22.1653 8.40585 1.08686 2.06282
2737 1 -21.3409 -17.6349 -1.91127 -4.92494 -0.818026 2.1325
2738 1 -6.7228 10.2767 14.2377 0.942348 -2.27739 0.621177
2739 1 -12.8586 -6.96676 20.3572 2.32233 4.62793 3.1773
2740 1 -13.147 -14.7986 -20.93 1.76895 2.937 2.2975
2741 1 -8.48523 7.36303 2.14367 -2.32379 0.77036 2.08691
2742 1 -14.6792 13.5671 4.66166 -3.17766 2.46908 0.552464
2743 1 1.39337 -19.56 -7.35815 -3.90573 -1.74487 2.35911
2744 1 -16.511 -18.8427 -21.7953 0.294428 -0.389602 -1.26418
2745 1 -10.2109 21.504 2.99161 -2.03437 0.192891 2.58244
2746 1 4.81644 -11.9012 -3.80668 3.21432 0.627168 2.18278
2747 1 0.344828 3.06096 15.0146 2.52935 -1.80543 -0.715646
2748 1 -5.92548 -1.04418 -10.9162 -4.92918 -3.19776 3.31029
2749 1 -13.9101 -7.68264 23.1325 -4.13272 -0.425982 1.13782
2750 1 -14.6887 22.3072 -20.605 -1.21054 -0.581166 -0.929132
2751 1 8.17866 -22.762 7.31631 -3.56008 -1.08387 -1.65086
2752 1 -8.469 18.1534 -10.3222 -2.87457 2.20789 3.43159
2753 1 -1.55018 -6.91944 11.5326 0.0625727 3.22657 2.1725
2754 1 -12.7398 24.2368 -0.249778 -3.412 0.310004 4.39595
2755 1 2.01258 -12.4537 16.517 -4.56751 4.05851 1.83846
2756 1 22.0639 11.0249 18.9461 -3.65716 -6.9899 4.05117
2757 1 18.3176 -17.2701 19.4757 0.395101 4.02012 -4.7487
2758 1 -22.0807 -14.277 -8.87637 5.59098 0.847377 2.33921
2759 1 -18.0137 -15.9093 7.65226 -3.91601 2.82835 2.65684
2760 1 1.47565 12.6451 -17.9235 -1.53723 -1.06072 5.6947
2761 1 -5.92171 -14.1289 19.2538 5.54516 -1.85623 0.754511
2762 1 -10.3802 9.89417 9.61707 1.01398 1.47007 -2.37692
2763 1 -7.15772 -12.2158 17.312 0.742317 -0.35394 1.14571
2764 1 9.96611 20.0893 -13.1373 -0.768267 -0.997963 2.26124
2765 1 7.04981 -15.4936 -18.0472 0.378989 1.79774 -0.595713
2766 1 9.59195 6.61106 17.7564 -5.09502 1.70619 1.50068
2767 1 -13.7057 -18.6047 -22.6629 -1.41639 0.158271 0.418273
2768 1 -6.25626 23.9579 0.374453 2.69394 1.89485 -2.03507
2769 1 -15.4953 16.8014 16.4769 4.49484 0.423307 2.89337
2770 1 22.9019 10.0224 3.60897 -3.11247 3.16608 8.14597
2771 1 -18.8968 -15.7771 -17.9421 3.21794 1.96442 -0.42215
2772 1 -14.6587 17.8303 -18.8821 1.27456 -3.15039 -3.44516
2773 1 8.5823 23.7611 4.77958 -1.96745 -2.18162 4.45382
2774 1 22.8213 0.587754 -16.5442 0.733064 1.38921 0.525572
2775 1 -3.17918 -19.1456 15.1064 -0.239388 -0.659539 6.67717
2776 1 9.78681 7.55406 -7.27673 7.19289 0.943246 0.662211
2777 1 -13.162 16.1566 4.12478 -3.78204 -5.07388 -2.4388
2778 1 -21.9557 17.4119 19.2948 1.52532 0.759687 0.047382
2779 1 21.0763 15.6451 19.5784 -1.66465 2.93399 1.28682
2780 1 -11.6208 0.0247157 -5.83751 8.79667 0.218436 -3.17471
2781 1 11.9331 23.9486 12.4404 0.16468 1.06556 -2.32235
2782 1 8.16009 -10.5469 13.8218 -5.04971 -2.95433 1.02431
2783 1 10.663 -10.1877 -12.6996 0.760419 0.878265 -1.3399
2784 1 -11.2615 1.86882 -0.613003 0.498187 5.31796 -0.882895
2785 1 20.6682 -4.08035 -14.1056 -3.79707 -0.042203 4.28633
2786 1 6.9836 -4.65321 2.6193 2.48389 -1.38779 4.26189
2787 1 -15.1071 14.5501 -0.436424 -2.60931 3.04008 3.0682
2788 1 -21.3861 15.2815 11.4324 0.433359 -1.88798 -4.74948
2789 1 9.07648 -6.21755 -4.03788 -1.51379 2.9591 -0.221884
2790 1 -9.09243 -5.33962 -15.7339 -2.47987 -2.40333 -2.09357
2791 1 22.4639 14.0906 -5.16465 -1.01226 -0.329198 2.41315
2792 1 -8.0741 -5.282 3.79314 -0.748337 -1.03808 -5.08093
2793 1 -2.23584 1.09981 7.74867 -5.15436 3.51293 1.81928
2794 1 6.57432 18.9746 -7.45306 -8.52161 2.27251 -6.344
2795 1 19.6591 12.7475 -19.4212 -2.06605 -3.18968 2.47463
2796 1 18.5118 -16.0134 12.7025 1.40395 1.84402 -1.71241
2797 1 17.1496 -11.5065 -23.7415 -3.60789 5.01876 3.47485
2798 1 -19.2778 -0.352327 -5.06077 -0.654189 3.15395 -2.58201
2799 1 0.51955 -16.6483 -5.38699 -0.90583 1.12016 1.97342
2800 1 -12.4302 -15.0298 -17.0659 0.272021 -2.30615 0.108853
2801 1 1.84923 17.2904 7.50824 -0.13165 -1.16054 -1.97416
2802 1 7.33203 11.6943 -10.4057 -2.69971 5.54603 -1.31432
2803 1 23.1079 -5.57823 -15.2265 -2.17305 -0.531312 -1.28381
2804 1 -16.9995 17.3017 -9.61558 -4.30021 5.03552 -6.26829
2805 1 -15.3226 6.32104 -10.8323 0.230653 2.08687 0.551999
2806 1 -4.39613 20.0469 -17.5164 4.87208 -1.74791 -2.51272
2807 1 -21.275 17.1499 -1.84303 5.74476 3.86735 4.66541
2808 1 3.7186 -24.1158 -10.957 1.20676 0.628319 5.51825
2809 1 -10.1473 18.2388 16.9673 -1.43035 2.39645 -1.09585
2810 1 6.29421 23.8743 -13.4119 3.8837 0.736667 -4.28954
2811 1 -13.7723 11.2892 3.3182 2.12794 3.32375 -1.24994
2812 1 -9.19038 -1.29024 22.4156 2.98752 0.724277 2.77734
2813 1 0.426289 -8.81703 -16.2822 -2.35722 -1.36347 -1.47668
2814 1 21.8572 -4.30258 -6.79271 2.44903 1.10991 0.901832
2815 1 22.2189 8.04053 7.66296 -3.06808 1.1827 2.73964
2816 1 3.52859 -15.9101 19.6938 -1.5801 -4.01395 -3.59829
2817 1 6.18106 -16.3399 -20.8177 -0.173993 4.14016 0.435228
2818 1 -1.09295 -2.50109 3.44666 -2.84369 2.16483 2.00671
2819 1 19.6472 13.9727 16.5425 -3.44606 6.86303 1.59184
2820 1 -16.5523 20.9578 7.59919 3.0328 -2.93198 0.884539
2821 1 16.5714 -9.9034 -11.6131 2.24591 0.314838 0.811115
2822 1 -14.6475 -2.28078 4.32849 -5.72764 -1.16515 3.26236
2823 1 12.4104 -14.108 5.27797 2.58581 -2.65928 3.6428
2824 1 8.59091 13.798 16.0191 -0.00163264 0.533618 2.48717
2825 1 15.9008 18.7717 -9.88804 1.39104 -2.44334 2.66859
2826 1 8.45454 -19.8107 -1.63733 -1.04423 -2.20069 -2.9613
2827 1 5.65378 -8.92885 21.1742 -0.427393 5.89078 -1.45344
2828 1 1.32809 -4.99993 -17.7065 -1.25121 -4.60541 -1.14569
2829 1 18.4385 -21.686 9.24364 0.184337 2.43191 2.46376
2830 1 -23.8115 6.69012 0.619041 0.982277 -0.309528 -1.47627
2831 1 17.4352 4.09746 -11.6556 1.76136 -1.13713 -1.86989
2832 1 -23.1214 -20.8492 -9.26306 2.59407 -0.484592 1.40694
2833 1 -22.2509 2.05974 5.3929 0.977866 -4.92758 -0.395082
2834 1 -9.07846 -16.155 22.13 -1.5185 0.309845 0.709484
2835 1 -4.91911 6.68116 -0.471161 -2.49623 -1.51912 -0.23208
2836 1 -12.5141 18.5513 -4.16298 -1.1714 1.51108 -5.30714
2837 1 -17.1256 10.4961 -10.8178 1.62383 3.08477 -2.92661
2838 1 19.0837 -9.81378 21.96 -0.256829 -3.13155 4.95189
2839 1 -17.9382 -3.52959 -21.6591 0.8424 0.582178 0.0785607
2840 1 4.12718 -19.1858 -23.5697 -2.70435 -5.64633 5.0752
2841 1 18.0687 -17.8474 -3.73969 8.91136 0.097241 -1.74406
2842 1 -4.40962 -13.4854 -9.88205 -1.3036 -2.24942 7.60306
2843 1 15.0225 3.01213 -21.7317 -0.864678 -0.993037 -0.557834
2844 1 20.6646 17.8626 7.63706 1.34895 6.79529 -1.9431
2845 1 19.8029 3.81008 -20.6267 -1.54884 -1.99341 2.15722
2846 1 -21.875 1.22921 2.81019 1.1511 1.24516 -5.49183
2847 1 8.24404 13.5811 0.0551372 1.05104 0.0505498 3.12405
2848 1 -17.8013 -24.5952 -11.2339 -1.614 2.38604 -0.911491
2849 1 -22.069 -24.4895 13.0571 -2.09371 -1.04694 -5.90286
2850 1 1.93066 4.95973 -9.72176 6.31532 -0.22862 3.29375
2851 1 -6.54759 22.0917 20.4193 -0.742466 -3.60284 0.925697
2852 1 2.05003 -5.52739 0.265976 3.46651 -2.08645 2.95527
2853 1 -2.92519 23.754 20.9322 -4.47985 -1.20619 5.62626
2854 1 4.73436 -7.56674 -5.41075 0.239 1.65144 -0.830754
2855 1 -18.138 -6.78798 -20.0367 -4.22759 -0.213338 -1.30681
2856 1 15.7505 -16.3139 -0.489135 -1.15684 -1.70172 -0.395394
2857 1 18.3414 10.5011 11.186 -0.0908941 2.83358 -2.60516
2858 1 12.6212 -2.78631 -22.1782 -3.47232 -0.633956 -2.51639
2859 1 -23.0134 -23.7004 -20.6809 2.59352 3.48676 1.35052
2860 1 -21.5243 5.76237 18.4409 0.704215 4.06313 2.10235
2861 1 13.7689 11.692 20.9784 1.04736 -6.2997 2.39841
2862 1 10.5252 -3.23274 -18.3331 -3.33664 2.28894 -1.11634
2863 1 20.4127 -19.0684 -18.9105 0.645158 0.803748 0.104718
2864 1 -15.4218 12.2454 15.5563 0.671404 3.30585 0.0452476
2865 1 4.85419 10.7463 0.484549 -0.579794 2.29632 3.88231
2866 1 -19.6576 23.0328 -7.0804 -0.636436 1.72587 -4.18988
2867 1 -17.7479 15.9696 -13.9478 0.0287839 0.0418856 -5.08295
2868 1 3.3699 -23.079 19.0213 3.3947 -0.936973 2.31849
2869 1 -19.8903 -16.8528 17.0437 -0.265211 -3.47198 5.07677
2870 1 -11.632 15.9774 -10.7304 4.51081 -1.26512 1.21802
2871 1 -14.9999 20.0058 -23.3783 6.02916 1.26728 1.73159
2872 1 6.67281 8.31789 9.58173 3.77983 4.68027 -1.36987
2873 1 -10.2227 -1.8555 4.23846 -0.811936 3.55511 2.68854
2874 1 -0.725622 -11.5904 -11.6847 -0.83223 0.0940967 2.1451
2875 1 21.6652 -4.96546 -9.48735 -0.225208 -0.230856 -1.20759
2876 1 19.91 -22.8819 -23.3359 0.608391 1.59647 0.611516
2877 1 10.9158 -6.00149 4.57856 -2.2888 3.03149 -0.643618
2878 1 -16.7651 22.5356 -13.2022 3.28726 -1.30484 -0.578511
2879 1 1.95903 16.5811 3.71673 -3.45795 2.55197 1.14997
2880 1 0.441988 0.293946 15.5555 3.14061 2.131 1.95998
2881 1 -16.6882 14.4656 -21.4653 -2.80376 7.50808 1.97594
2882 1 -22.3414 -16.6398 21.3258 -4.41333 -5.21057 0.403188
2883 1 11.7374 -14.507 0.312078 -2.80032 0.680808 -1.64492
2884 1 9.07518 -6.53142 24.0332 4.05872 -0.508298 -0.347985
2885 1 -6.48765 3.86631 -6.85151 -0.0708129 -0.38491 -3.16333
2886 1 11.6962 23.7451 0.915523 5.69169 1.30956 -0.0510748
2887 1 22.6073 18.0947 21.501 -5.6625 -0.111911 3.91579
2888 1 -11.0898 4.31803 -23.2775 -1.86964 2.2333 3.57494
2889 1 2.72245 -2.32966 8.42664 -0.0426542 -1.55177 2.32613
2890 1 -2.9211 -7.8702 -22.9231 0.132891 1.00152 -0.579293
2891 1 7.79884 -5.22253 15.1137 -1.2656 1.6871 -1.58029
2892 1 22.2929 19.0841 -10.2599 2.31194 -1.77247 -1.32907
2893 1 -11.7018 -16.4841 23.4032 1.18241 0.618351 -4.86743
2894 1 -7.97358 5.51179 16.8027 -0.0545026 -1.15241 -0.742497
2895 1 -18.4803 19.7872 21.0351 -1.75346 0.448069 -5.19766
2896 1 -13.9388 4.33399 16.8011 0.327376 -3.57959 -0.904308
2897 1 -2.92889 16.4992 -1.26905 -1.82847 -0.117337 3.19417
2898 1 -9.89052 -9.63456 -21.1619 1.85386 1.47245 0.415355
2899 1 -4.1069 -21.0752 20.2412 4.64167 0.437393 0.126748
2900 1 15.2192 2.08311 24.0542 -1.62606 -4.23696 2.73691
2901 1 -12.5522 -17.92 -18.0768 -1.57565 4.09615 2.67369
2902 1 -21.5656 1.65629 -21.0564 -3.3211 -3.91666 -2.99838
2903 1 -14.5346 -13.5876 4.06891 -2.3641 -4.22812 5.3796
2904 1 -6.45706 12.9043 -1.23768 -1.098 -0.746696 -3.33255
2905 1 -16.9959 22.2413 21.6257 -0.756051 3.40239 1.85767
2906 1 12.6177 2.2428 17.9981 6.58941 2.03636 -0.920265
2907 1 -17.2215 22.3364 -6.00335 -0.305041 -4.68285 1.23954
2908 1 0.705398 10.9737 18.4449 -3.7215 -4.86147 -5.31261
2909 1 -9.94051 -5.64847 -23.6924 -0.124107 0.827767 -2.97789
2910 1 -13.6474 7.0663 17.7927 1.13392 1.31752 0.12003
2911 1 0.913438 4.25237 -20.1766 3.75793 -3.06618 -1.72323
2912 1 9.82086 -17.0027 -7.90211 -4.44888 -2.36716 -3.50778
2913 1 17.2603 5.9907 -3.24608 -4.04737 0.732234 1.61414
2914 1 0.16726 -0.914176 12.9302 -2.03639 -1.65748 0.681472
2915 1 -14.7041 -11.8258 24.1204 -2.58366 -0.407418 2.62601
2916 1 19.602 19.2478 -6.59557 0.0976151 -1.88152 -2.98746
2917 1 -7.81 7.40118 7.49311 -0.932095 -0.508255 -1.59091
2918 1 20.9507 8.01067 -5.11535 -0.894436 5.29983 -2.66753
2919 1 23.3494 -15.6752 -3.4304 -6.67789 1.38544 1.03811
2920 1 23.0063 14.3464 6.54337 -2.77841 -2.05709 -5.02035
2921 1 -17.2839 20.0165 10.4182 3.62481 -3.18663 2.09669
2922 1 -15.4926 -20.9503 23.1571 1.17506 2.08372 -1.80171
2923 1 -13.5469 1.32288 19.811 -3.34723 2.44935 -1.16461
2924 1 -0.887149 -15.9254 23.5687 0.0784663 0.333395 0.741137
2925 1 19.7401 -8.50645 12.1211 -1.11318 -2.43058 5.90548
2926 1 -8.30819 8.54907 -12.3104 0.445851 0.405243 -2.36879
2927 1 12.3727 5.53114 1.20749 2.30029 2.74848 2.09582
2928 1 -22.365 47.181 -11.3747 -0.00155779 1.88212 -1.89701
2929 1 6.00358 -12.9473 8.20089 -3.45542 -3.48006 1.83231
2930 1 -20.6083 6.0372 -0.353925 1.00971 6.43156 1.05527
2931 1 3.03561 -9.36472 22.2627 2.13123 2.36894 -0.0290348
2932 1 8.43107 18.3967 17.8897 0.0065192 0.811936 -2.96638
2933 1 22.5488 -4.94933 11.1284 -0.163657 -6.00064 2.0861
2934 1 8.36234 1.87552 -20.8427 5.07846 2.51341 0.0991463
2935 1 7.44529 23.8249 1.29285 0.868438 -1.06662 -1.22506
2936 1 22.0012 8.80725 -7.82548 -0.470135 -0.498474 -0.456871
2937 1 -16.4477 5.63117 -13.5847 -2.56415 3.8032 3.678
2938 1 -6.99018 -5.01912 -2.4925 -0.14456 1.93472 -1.3258
2939 1 -11.9535 20.17 4.87531 -6.03511 6.01109 0.516918
2940 1 15.3694 17.5223 -0.466055 -0.469093 1.57022 1.81864
2941 1 -6.18308 2.76347 -10.725 -2.00815 2.17608 0.593975
2942 1 -21.0571 12.568 21.5048 3.46189 -1.38759 -1.06192
2943 1 23.7548 7.43473 10.0724 -0.406657 0.543844 3.02661
2944 1 8.08384 -22.6665 14.0035 4.72072 -4.62094 -1.61122
2945 1 -7.28369 10.3461 -8.39776 -3.98357 -2.14873 3.30136
2946 1 12.7718 -0.758963 12.5851 7.21485 -3.17774 7.43042
2947 1 18.722 -14.8167 -22.4232 4.68044 0.148974 1.07157
2948 1 1.98392 -22.014 -1.04693 0.433883 -3.58824 -0.912818
2949 1 -10.6612 -20.478 -24.0077 5.57474 0.953404 4.77453
2950 1 -20.1024 15.242 4.70612 -2.90772 0.178407 -3.35084
2951 1 12.0288 -17.1037 -11.0058 -0.533011 -7.00794 -0.864886
2952 1 -12.5542 21.5654 -22.3162 1.43207 2.05748 1.74456
2953 1 17.1487 3.41722 1.6969 -4.10422 0.00607965 -5.80324
2954 1 -16.097 -2.64613 9.04761 -1.4981 5.17133 -0.754572
2955 1 11.9461 -9.98556 16.053 1.46211 -0.607556 0.399914
2956 1 -14.4668 19.658 -1.94549 -2.16407 -2.44228 1.24676
2957 1 1.04525 -17.627 15.1086 3.50398 -1.09093 -4.174
2958 1 8.13143 -6.90479 -11.4618 -4.76304 -0.860169 -1.18243
2959 1 -17.4467 17.5045 -21.6015 2.30648 2.68152 4.66503
2960 1 -13.1135 -1.47864 -21.2178 2.61274 -5.45645 4.49668
2961 1 -12.138 -12.564 -22.783 -0.217356 2.57425 -0.0463192
2962 1 -8.2934 -1.09014 -15.9143 -2.44337 -1.38222 -5.00932
2963 1 -22.5404 11.638 -4.92801 1.96039 -1.98372 1.76478
2964 1 -0.358797 -19.6468 -22.0728 -1.27694 1.28842 -6.69294
2965 1 19.0314 -1.71091 -14.2751 -4.50228 -1.60132 -2.39867
2966 1 -3.31954 -22.6183 17.988 0.970397 -1.27294 1.20153
2967 1 0.49262 9.32054 9.63668 -3.91143 0.0301161 1.91014
2968 1 -3.69761 -14.0142 0.872232 -0.531225 1.80261 0.153769
2969 1 -4.15828 -1.47816 16.9643 -2.5828 -4.29509 -3.11936
2970 1 19.5024 -13.1648 -12.8727 1.65055 -2.45105 0.748987
2971 1 -4.36736 20.328 10.5909 1.36359 4.45402 -4.6793
2972 1 -10.5875 7.60311 -9.62946 -1.98682 5.60005 -4.42942
2973 1 -11.9154 15.6556 21.2845 2.00008 -0.00284116 -5.25399
2974 1 22.4334 -0.962381 21.0457 3.82787 2.1607 2.67354
2975 1 17.8552 11.1182 -1.07501 3.30234 -0.82062 -3.966
2976 1 -20.0837 20.9819 -14.965 3.22039 4.06868 4.1847
2977 1 3.6229 -9.38861 -1.3575 6.55997 0.695441 0.760255
2978 1 12.4106 19.1069 -16.8542 -0.552406 -4.76813 -6.882
2979 1 7.46996 3.95481 16.8085 3.59121 0.0051067 -4.2539
2980 1 -1.39163 14.1576 0.132103 7.24327 0.805685 -2.39838
2981 1 -12.3639 8.88967 16.3581 4.38089 0.455853 4.5645
2982 1 -12.3163 -5.97611 5.88532 1.28237 -2.34157 0.134575
2983 1 -8.60304 14.2032 23.6892 0.888813 -4.15534 0.915102
2984 1 -1.35235 -0.792528 23.2734 4.18783 -1.88483 0.365157
2985 1 -13.5072 -11.9753 11.1132 -4.53274 1.90462 -4.06601
2986 1 -5.40681 17.7387 -22.867 -1.38514 -0.593435 0.17715
2987 1 -22.184 47.252 -8.56285 2.17692 1.77284 0.138523
2988 1 1.33643 -23.2069 -5.4493 -3.0797 2.79887 1.88985
2989 1 22.4805 18.5971 -13.4383 1.8472 0.647124 0.339409
2990 1 11.97 -18.7761 16.9193 2.24562 1.73776 -4.32052
2991 1 2.95311 1.42563 11.1797 4.80477 3.66373 -0.827632
2992 1 21.2704 11.714 -10.7002 0.662008 -0.280381 3.90923
2993 1 -24.4209 17.3565 17.5426 2.06641 0.0479023 -3.61226
2994 1 18.6114 1.33386 12.3857 3.33249 0.559015 -3.86939
2995 1 -2.48655 10.912 -5.11375 2.12002 -0.313795 0.216256
2996 1 12.7993 5.28225 5.20707 4.36478 -4.80591 1.8145
2997 1 -6.23874 -18.8239 6.17963 6.0625 2.8059 -1.86474
2998 1 3.32321 -14.2645 14.7433 -1.84264 3.77086 -0.0788623
2999 1 11.819 -18.8627 -1.89609 -1.12031 -3.0376 -1.34306
3000 1 -0.540297 13.4487 17.3951 1.83955 1.25735 -1.7668
3001 1 12.288 12.9115 9.33221 1.10149 2.03816 -6.43754
3002 1 -20.2348 15.7747 17.4785 -2.05367 -0.745955 -3.20436
3003 1 16.3463 13.5532 11.5192 2.20029 -1.14976 0.285898
3004 1 17.6525 18.0275 -17.5189 -0.181883 -4.71841 3.25051
3005 1 3.0933 3.67708 -7.59895 -1.49752 2.07102 -2.51141
3006 1 20.3495 7.75778 -20.6974 -0.411619 -0.315812 1.96717
3007 1 -6.3537 -21.1421 -23.7124 0.450465 3.69507 -1.49447
3008 1 -3.5193 -20.0577 23.8731 2.24974 5.97431 -2.41458
3009 1 -14.7817 -21.977 9.50033 -1.11106 3.808 2.32096
3010 1 -16.5194 -19.4008 -16.0568 3.61722 -8.38056 -1.5159
3011 1 -8.35514 -2.02945 -12.0487 4.26311 -2.65389 -2.82422
3012 1 1.94953 -22.5719 -19.1413 -3.91691 -5.16404 1.26037
3013 1 10.8094 -16.3004 22.4212 -0.624141 -1.80815 0.0502477
3014 1 -24.0704 11.9488 20.6226 -2.03449 -1.43761 -0.897197
3015 1 -3.63847 10.168 8.43083 0.237406 -2.21952 8.22533
3016 1 18.8458 -13.0125 -20.0811 1.43629 0.367761 -2.08217
3017 1 -13.6136 7.03372 23.6516 1.0567 -2.01191 -2.64932
3018 1 -21.9522 -1.74944 -13.1994 5.25086 -3.2085 -0.34807
3019 1 -21.892 -20.6135 11.888 -3.87541 2.86413 -0.248094
3020 1 -12.7231 -10.2596 7.54049 1.50173 -5.60733 -0.753579
3021 1 -17.3613 24.9208 -2.329 5.43415 -1.35384 -0.489541
3022 1 15.185 -12.2572 1.38947 1.47704 -4.67468 -0.78032
3023 1 5.56869 18.9287 -2.68762 4.0103 -1.43995 -0.082951
3024 1 22.5714 5.52032 2.60545 -4.64344 -1.35341 0.183545
3025 1 3.75739 -23.0359 9.39265 -1.09313 -0.66367 -0.873209
3026 1 2.21833 -21.4295 7.59914 -3.7127 -3.69558 0.884043
3027 1 13.0788 4.19311 11.0933 -6.37417 2.84711 -0.936576
3028 1 -15.2791 12.8375 20.1577 -4.66807 -2.20673 0.927741
3029 1 6.93235 2.91332 12.8888 3.76588 -2.71564 -2.01063
3030 1 -15.0009 20.753 -11.7599 -0.914031 -1.41502 -1.36308
3031 1 23.5015 -10.2269 -17.5318 0.519924 -4.88126 -1.25455
3032 1 18.0398 -10.5601 -6.55365 -0.151911 -0.365818 2.0547
3033 1 -12.0869 3.15182 6.48032 -1.6414 5.97704 1.49608
3034 1 -11.275 -7.14498 -16.6175 0.113428 1.12185 2.48826
3035 1 19.9485 17.9573 5.01353 -1.32882 -1.5461 -5.36441
3036 1 12.9721 17.9242 22.3896 -5.42087 4.7656 -0.335574
3037 1 -3.6663 -11.4271 7.24358 -6.74477 -3.36066 -0.200907
3038 1 -17.61 -24.5344 -18.4104 1.77614 -3.47342 3.95343
3039 1 16.5309 -21.5053 18.691 -0.962602 -2.80294 -3.34811
3040 1 7.20853 -19.2811 14.0393 -2.25472 2.81566 2.07352
3041 1 -20.5963 20.1781 -1.60849 -3.23347 0.786151 3.51676
3042 1 -7.25702 19.2852 14.6199 4.65866 -0.00303398 -0.414382
3043 1 5.34734 -11.0031 -17.2132 -4.38322 1.39448 2.78054
3044 1 -5.23805 15.0278 -3.89473 3.59462 -3.84578 0.199552
3045 1 -0.0630732 -4.2986 5.57174 1.62142 0.766201 -3.96954
3046 1 16.3437 -9.59082 -16.6766 3.53649 3.65056 -0.66337
3047 1 7.08282 18.0794 5.35318 -0.577244 -3.78058 1.87935
3048 1 6.41048 -11.7467 19.7409 -1.08429 1.33129 -1.27528
3049 1 -11.0673 -21.0872 -14.7484 4.52008 -2.07789 2.66876
3050 1 0.983755 -24.1571 18.0597 -1.2615 1.68175 -2.72977
3051 1 -16.9931 0.18579 -13.1315 4.03043 -4.01716 6.16725
3052 1 -20.5826 14.3481 -14.4856 0.739211 -3.7021 -0.456016
3053 1 19.9966 -22.2087 -1.16685 6.04017 0.878156 3.50374
3054 1 21.9691 -2.256 23.8084 2.24437 3.93186 -0.0360432
3055 1 19.6956 2.52715 4.54305 -2.1368 -0.285431 -0.496962
3056 1 -24.0542 14.1996 14.4595 -4.17855 6.84651 -2.83454
3057 1 17.5767 5.60816 22.6425 0.418137 -2.08825 2.21262
3058 1 12.4332 -6.83528 9.59865 -0.841683 -0.257247 -1.27064
3059 1 -11.3138 -23.1511 -4.9353 -1.19552 0.21611 2.60191
3060 1 -21.4109 23.9707 -5.19665 -0.913348 -2.87421 -0.947724
3061 1 -10.2339 22.9416 -17.6249 -1.18586 -2.11974 -1.83895
3062 1 -9.07616 15.7651 -16.9734 0.327489 1.12721 -3.20843
3063 1 8.88771 22.6175 -12.2349 -2.19858 3.47239 2.90329
3064 1 -1.45842 12.3723 -18.6276 -6.09155 -3.56779 3.36538
3065 1 5.87618 -11.4667 -11.0155 4.74201 -0.810843 -1.35989
3066 1 21.3887 -1.6761 1.35456 0.812222 -0.47144 4.79923
3067 1 17.1911 17.5312 -12.1547 1.88413 1.27246 0.59747
3068 1 21.2858 17.5124 -1.08847 1.83329 3.94209 -1.18168
3069 1 6.72233 -7.7804 -3.59826 4.32359 -2.34239 -3.41181
3070 1 23.5505 -7.27288 1.0132 -2.65913 -2.60364 4.46331
3071 1 -3.96314 -2.68465 -6.3707 0.790235 -1.59311 -1.52672
3072 1 2.83119 8.06621 21.0878 3.29529 -3.90371 6.94872
3073 1 3.23766 22.4275 0.306755 -1.79646 2.29729 0.496425
3074 1 -8.95506 -8.77306 9.98739 3.23496 -3.25335 -3.77653
3075 1 19.154 7.97291 -23.8363 0.22415 2.23518 -2.9501
3076 1 -11.7799 20.2967 10.5366 -1.35446 -3.68563 2.26459
3077 1 -14.4522 -22.1913 -7.93656 -0.151401 -0.467506 2.05215
3078 1 -20.2662 6.3947 -14.7512 3.81811 4.68599 2.08383
3079 1 12.3037 -4.25709 -4.70323 0.216823 -0.753305 4.03429
3080 1 -20.7107 11.3526 -7.75226 3.47258 -4.12545 4.28719
3081 1 -19.475 7.70631 6.46181 4.12224 -0.7693 -0.592681
3082 1 -2.61016 2.75633 23.5748 -0.155183 -3.42036 3.0584
3083 1 6.61037 -14.4027 -8.18637 -6.91645 -3.97421 2.79868
3084 1 -16.1803 -23.2567 7.3044 -3.90533 -3.69249 -0.80693
3085 1 -16.0329 -2.94487 -7.15985 0.382753 2.77716 -5.61038
3086 1 14.6256 22.0295 3.15533 2.81833 -2.42689 0.615926
3087 1 -8.58636 -20.3355 10.1086 -0.445577 -3.79564 -3.81857
3088 1 9.36179 3.35863 14.3438 -0.469815 3.04619 4.13952
3089 1 8.95871 -20.8688 11.9657 -0.0594999 -2.4681 -2.28317
3090 1 15.6624 -3.1549 -4.69296 -3.08957 -4.59125 -1.65735
3091 1 -3.81023 0.298669 22.4336 1.09304 4.58925 -3.41792
3092 1 -9.88546 -7.34488 20.8525 2.36004 -1.72693 -0.825845
3093 1 -13.5597 4.12457 -21.621 5.18583 2.44179 -0.959648
3094 1 14.0819 6.00133 20.5897 -1.36054 -1.9215 -0.613659
3095 1 -17.3321 -12.868 -1.86276 4.10702 -4.70344 -1.85831
3096 1 7.22797 5.03039 -22.7101 -0.962005 1.76826 -2.54999
3097 1 -7.72684 -11.4007 -20.6037 -1.29324 3.26493 -2.09768
3098 1 -10.4726 -18.9017 4.41166 2.56506 -0.50371 2.72134
3099 1 -19.1731 8.3186 22.586 -0.849085 0.448792 -2.03943
3100 1 17.2259 -8.35708 -20.8591 1.84143 -1.03068 -2.14783
3101 1 22.0868 -14.9545 -19.4102 3.19863 -3.72446 -0.79113
3102 1 3.69006 3.65883 21.7278 -4.00297 1.65411 -1.51258
3103 1 -6.17142 -12.787 -23.6451 2.72963 -2.73513 3.89327
3104 1 -20.0547 -7.38932 8.17033 -1.51803 -0.58972 -0.532474
3105 1 -24.4095 -6.83254 19.9505 -2.75031 -1.54787 0.159498
3106 1 1.41427 -10.2285 -6.35643 -0.459467 2.089 -2.68315
3107 1 20.7692 -14.3905 22.8374 -0.809238 -0.726016 -0.197891
3108 1 8.14657 -16.9071 -5.24812 -0.0685955 2.66865 0.144023
3109 1 2.69822 0.433155 1.93026 -1.64279 2.05215 -2.27811
3110 1 6.63403 6.84817 1.75242 -1.58682 -1.21075 -4.23035
3111 1 10.7587 -20.1931 -17.7278 -0.221333 -2.03973 1.29767
3112 1 -0.478694 -13.5988 -20.9939 1.56204 3.03215 0.568345
3113 1 8.06998 -11.8685 -15.9853 -1.14303 -1.8136 0.190868
3114 1 3.27188 5.92342 -14.0494 1.6289 -2.9277 1.88375
3115 1 -18.9111 18.1889 -15.7546 -2.14854 3.9631 -1.76987
3116 1 -11.6477 16.0066 0.688796 3.12798 4.79102 -2.29438
3117 1 15.4139 -11.3223 -2.72666 1.63006 4.22943 6.71344
3118 1 4.79969 5.82818 5.67877 0.421428 -0.00398464 4.13565
3119 1 -7.78102 -9.12604 3.75921 -6.71252 -3.30311 1.0087
3120 1 -11.5497 -5.96797 -19.4638 -3.11849 0.382617 -1.9006
3121 1 -1.56424 -21.1235 16.4049 -1.64986 -0.61943 -2.13636
3122 1 -13.8776 24.7124 22.1068 -2.31309 -0.4719 0.694756
3123 1 14.7681 15.4377 12.9033 0.743938 8.87563 2.28422
3124 1 -12.9733 11.1327 -7.49387 2.44094 -0.200467 -3.24818
3125 1 -1.97863 -16.4975 -1.64324 -1.70828 0.0867925 -5.75895
3126 1 1.56088 7.61763 -8.6184 0.227186 -2.0235 -5.07471
3127 1 16.9031 5.97056 3.31307 -2.50635 -2.83635 -0.174167
3128 1 3.05461 9.50967 -15.1667 0.630409 -2.04288 0.596822
3129 1 -3.38745 -11.9463 10.0928 -4.29661 -1.68955 -0.982113
3130 1 21.8274 -7.72673 10.2048 -0.339378 1.78602 -2.83745
3131 1 -10.3621 13.1927 1.61484 -2.58451 -4.59761 6.04606
3132 1 2.46632 10.0266 3.59108 0.206201 1.90317 -1.01745
3133 1 -0.560497 14.874 -11.5632 -2.10765 -2.58411 -0.721961
3134 1 21.0378 7.5602 -2.35096 4.87051 -2.43322 2.82263
3135 1 -18.2264 -11.593 -4.43348 -1.1077 1.62275 -0.950952
3136 1 -17.6639 -20.8012 6.46717 3.35309 -1.3151 2.25492
3137 1 3.97983 -5.57579 -18.0088 4.91472 -1.68785 -0.541652
3138 1 19.4116 -4.03035 23.9696 -5.56706 -1.66799 -4.2994
3139 1 5.91463 11.0326 -12.7051 -0.348617 3.73042 2.62179
3140 1 2.05325 17.2631 -18.6936 -1.93422 -2.36019 3.3246
3141 1 9.88022 -3.10702 -7.66788 -2.77424 -1.93665 -3.99323
3142 1 3.19253 23.7447 -19.987 1.54658 -1.82502 0.281209
3143 1 21.706 24.7884 -21.3903 4.32244 -1.4938 2.63592
3144 1 -1.87997 15.5423 2.61561 4.99539 -2.22424 0.278822
3145 1 19.1686 -19.3223 10.6135 1.75176 2.53915 -1.26096
3146 1 -1.19419 8.16839 -9.60111 2.99719 -0.418392 -1.60383
3147 1 -1.6722 -19.5343 0.877041 -0.177309 -2.12439 -2.32442
3148 1 8.17419 -6.92122 5.1443 -0.759258 -1.86276 3.23883
3149 1 11.0677 8.00913 -17.1324 -1.94072 0.613059 0.215482
3150 1 -22.4267 13.9725 3.62209 2.64884 -7.77583 -3.94157
3151 1 -12.8494 46.927 -16.0611 -5.12176 -1.75173 3.18155
3152 1 -14.3743 16.514 -21.43 -3.55794 -6.48314 1.61696
3153 1 17.0609 6.45039 -20.8673 3.472 -0.262479 3.2359
3154 1 7.72793 19.8832 3.28767 0.629323 0.268195 -5.1982
3155 1 -5.53594 -12.5542 2.60251 2.57312 0.747324 -0.355075
3156 1 20.5335 -4.05032 7.28608 1.13641 0.0401707 2.24292
3157 1 10.7006 3.15136 4.53806 -2.72183 2.69965 3.65018
3158 1 19.4808 -21.6385 -8.57418 1.853 1.48574 -4.85199
3159 1 20.5671 4.08394 -5.61185 -1.8439 -2.80456 0.299098
3160 1 -11.1634 -24.6641 23.22 -0.780643 1.63315 -1.43196
3161 1 -9.35325 -17.8076 -3.97084 3.08784 -6.20243 0.83429
3162 1 -14.7725 -14.8848 -15.5715 5.02126 -3.27704 7.01281
3163 1 23.4792 1.12925 14.4964 -0.0395 -3.41145 4.46423
3164 1 -20.8242 4.18423 20.699 -4.64824 -1.7993 -1.45048
3165 1 -7.12696 20.1708 -16.7506 4.61961 5.40557 0.206642
3166 1 16.1339 -9.90122 16.0172 -0.045837 7.67175 1.73825
3167 1 19.4387 -14.992 -18.2158 5.16489 0.00348128 3.67675
3168 1 -18.6173 -19.819 16.8556 2.94694 -0.519465 -0.844378
3169 1 13.0745 -23.0675 -20.6373 -4.90564 -2.99023 3.25259
3170 1 4.7219 21.4692 22.9305 2.22999 -2.85522 1.87352
3171 1 -6.03643 13.8215 -23.2051 0.357674 1.19904 2.58135
3172 1 -8.40275 1.50069 5.84149 -1.25492 -2.89673 -0.301233
3173 1 10.8043 16.6725 9.56358 0.263014 -0.256328 -1.78117
3174 1 -24.0404 13.8735 -11.7196 -0.20156 -0.250857 -1.62105
3175 1 20.5245 2.72851 -2.10901 0.283826 -3.92344 1.99629
3176 1 19.8427 1.33296 16.396 0.932533 1.01978 -0.514435
3177 1 -0.0605825 -11.5824 -22.9645 -0.087878 0.766257 -1.21129
3178 1 16.3416 19.1811 13.7841 2.39144 -3.47895 -1.94118
3179 1 0.697102 -0.335644 21.4287 1.98665 -1.08943 1.75433
3180 1 0.460505 14.2682 3.96112 -1.60911 2.4178 -1.54992
3181 1 -21.3461 -17.8267 23.6165 1.25346 -2.64083 -1.08761
3182 1 -17.8722 -24.5109 20.6151 3.67611 0.691221 2.69992
3183 1 -23.9071 16.2129 -5.00004 -0.0495662 2.99199 -3.02174
3184 1 14.0488 -2.39608 3.75995 3.2462 1.12582 0.160905
3185 1 -16.002 19.8433 -20.6883 -1.72627 2.38229 -0.314342
3186 1 -4.76196 20.3376 7.52764 3.31301 -0.493223 -4.20395
3187 1 -21.2756 -14.6865 1.55109 2.44335 -4.08998 -1.07164
3188 1 -18.89 15.0131 -9.341 0.601369 2.81366 0.528471
3189 1 14.7688 11.4564 8.3519 -1.42408 0.199584 1.98126
3190 1 -21.6088 20.0375 -17.2291 5.48756 -2.42783 -1.06081
3191 1 6.40704 -6.28905 -7.72865 1.03298 1.60073 5.64907
3192 1 22.9359 10.6134 0.523047 6.72128 -1.15065 -0.0861201
3193 1 -17.4702 23.1076 0.232935 -1.65809 5.46627 -4.11171
3194 1 -17.3976 -6.18985 1.07029 1.61413 -1.09771 -2.72774
3195 1 -17.3554 1.21522 3.68296 -2.56791 -1.56497 -3.06325
3196 1 0.351057 -0.887705 -1.64292 4.74519 -1.73907 -0.219237
3197 1 -3.68102 9.62368 4.46098 1.86618 3.30947 -3.61019
3198 1 10.0386 1.80134 -16.6676 3.09551 5.87151 -4.06476
3199 1 12.7883 -22.8119 6.46797 5.67526 -3.2868 0.595717
3200 1 -22.6645 -3.13568 -3.97625 -0.871996 3.77824 -4.58369
3201 1 -15.9175 -2.81562 19.7165 1.46605 -2.80509 -0.28176
3202 1 -18.1837 -12.4864 -9.96615 -0.840006 2.91238 3.7346
3203 1 17.9419 9.13915 20.3856 -3.33734 -3.60552 2.32766
3204 1 -16.4647 -8.40638 10.3147 2.94972 -2.63376 3.11516
3205 1 -12.7918 4.28305 -4.66879 1.46759 0.511787 0.0991043
3206 1 15.1424 12.0973 -3.38278 -0.610249 2.08284 -4.19393
3207 1 0.561339 -7.30264 -18.8264 0.252573 -3.76931 -1.52751
3208 1 5.30343 -6.57832 3.8973 -0.886042 -3.57167 -2.29962
3209 1 10.7993 -13.5074 23.3564 5.65245 -2.36321 5.16505
3210 1 -12.4643 10.6069 -3.50115 0.383471 -0.328726 1.0208
3211 1 -2.6803 18.2678 11.5676 -1.37624 -3.48651 2.9657
3212 1 -11.4559 6.28453 -19.4849 2.6858 -0.413441 1.42087
3213 1 -2.4098 2.02338 -15.3998 -0.822995 0.00414621 4.14707
3214 1 -1.25741 16.1562 16.6286 -1.54019 -3.11672 0.104061
3215 1 10.6124 3.08516 10.9641 3.15524 1.93167 1.99844
3216 1 23.4823 -1.33585 9.61372 1.99185 0.351243 -0.979895
3217 1 9.60897 2.33167 8.41627 4.23849 -1.73172 3.12053
3218 1 -4.64726 20.9727 -8.88958 -2.87851 5.12064 2.57423
3219 1 -7.53413 -19.5739 -17.9054 -4.96219 -1.31726 -2.54625
3220 1 -4.84237 -9.7286 17.9308 1.87543 2.46429 2.61638
3221 1 -6.20479 -7.69134 -2.16718 0.135315 -2.68007 -2.35147
3222 1 -15.4146 -19.8379 0.98954 -4.51328 -4.87343 2.71843
3223 1 23.3393 8.37011 18.1887 -3.19811 -1.62907 -0.0683513
3224 1 -5.57154 -6.73518 0.524098 -2.16019 1.18709 -1.59147
3225 1 -9.562 -6.73463 15.2594 1.33349 -5.7691 1.0269
3226 1 -22.3765 22.793 -11.2328 -0.877262 3.1626 -0.943373
3227 1 5.96487 21.5549 -4.20687 -2.23475 1.75851 2.50552
3228 1 -11.6408 11.2537 -10.1984 3.26158 -0.326113 0.228664
3229 1 -8.82701 1.81293 -3.67985 -2.02591 1.95514 0.587667
3230 1 -23.2384 12.6192 -23.0814 0.057051 -0.771422 -1.06682
3231 1 -18.4413 -17.7909 -1.77469 -0.687543 -3.27429 -2.45243
3232 1 -23.3415 16.715 4.54171 6.00839 1.07004 1.59752
3233 1 -2.17396 16.0862 7.28972 5.17407 -0.014331 1.38084
3234 1 9.45365 -4.65287 -12.5161 -1.39694 7.66464 -4.93796
3235 1 -6.1246 11.4697 -11.9562 -1.57512 0.993173 2.36444
3236 1 18.2606 19.073 8.63821 2.02802 1.13677 3.86158
3237 1 -3.23724 -12.9844 23.7379 1.13012 -0.710506 2.49879
3238 1 21.7601 21.4027 -4.40767 1.14132 1.33319 2.0518
3239 1 -14.2929 -16.8367 7.69957 3.80106 -2.37514 2.58482
3240 1 -13.0991 -22.7965 -19.1826 -1.32749 -3.12188 2.69611
3241 1 1.10877 -20.4459 15.7448 -0.41023 8.13955 3.36072
3242 1 20.5426 -11.0556 -15.7545 -1.60179 1.38286 3.83395
3243 1 6.48047 14.7665 22.38 -0.876685 -3.89064 1.01677
3244 1 19.9356 14.2762 -13.6014 -3.13064 2.67656 -2.71869
3245 1 -8.81738 20.5499 9.56859 3.9689 -8.30978 0.796822
3246 1 18.1267 4.64406 5.75272 2.38223 2.09094 -2.76444
3247 1 -5.83706 9.07834 -10.6551 2.97451 -1.72442 -0.221642
3248 1 9.13583 -0.0477173 -0.323759 2.683 -0.854334 -2.33824
3249 1 9.46855 -3.63016 13.2437 0.283003 -2.22744 -0.389421
3250 1 13.5988 4.83001 -16.6055 -5.60279 1.75987 -3.29816
3251 1 -0.223155 16.7864 11.1537 -3.02908 2.00475 -0.259161
3252 1 16.8869 -24.2444 15.1897 3.90055 -4.69885 3.34315
3253 1 10.1351 16.5276 2.7612 -1.19665 -4.66948 0.367309
3254 1 20.7516 2.62556 -8.31848 -2.27586 -2.13742 1.40054
3255 1 -18.0483 12.2874 -20.0795 0.769861 -6.55284 0.352499
3256 1 -6.25705 17.0141 -9.07647 -0.600418 1.23007 -0.774601
3257 1 -12.3014 6.87033 20.3247 1.49327 6.29181 -2.0078
3258 1 -20.3863 -6.3536 19.9253 -5.33819 -4.47965 1.12541
3259 1 16.8912 20.1244 4.22854 -4.1745 2.26338 2.28789
3260 1 18.7193 46.3249 -6.07595 -5.3508 2.81006 3.29476
3261 1 -14.3302 -3.30501 -16.143 -4.57686 -2.43898 -1.94069
3262 1 8.86509 7.17447 11.0744 -0.264464 -3.1897 -1.96281
3263 1 23.2135 4.03758 19.4287 1.04119 1.16654 -1.03612
3264 1 11.2442 7.91206 23.4412 -1.88257 -4.62044 -2.97299
3265 1 5.83137 -5.75837 -13.3853 0.0303731 -1.10915 -4.10288
3266 1 9.64627 -0.726278 22.3972 2.06051 0.652286 -3.40633
3267 1 -17.4792 8.95036 0.170178 -1.19321 -0.631145 3.7032
3268 1 6.56601 -21.2391 10.2505 -2.49827 -0.218239 4.60051
3269 1 8.09699 17.6692 -3.14675 0.715651 -1.13647 -0.254201
3270 1 17.4436 -17.1889 15.2663 -3.29083 -2.5859 3.98981
3271 1 8.33718 -10.3399 21.5371 4.31507 -0.396942 -0.990598
3272 1 2.74736 11.5732 -7.00182 1.66156 -2.16022 -3.32089
3273 1 -15.8908 8.99208 -16.1091 -5.52709 -1.30247 -5.46946
3274 1 13.9014 -19.3517 4.7537 0.992362 0.9042 3.62139
3275 1 20.5426 8.13112 11.7704 6.13073 0.907627 5.85958
3276 1 10.3919 0.969855 12.9386 4.99981 -0.698707 6.8768
3277 1 -1.43303 -18.1731 3.23652 0.507186 -5.4456 -8.82579
3278 1 1.57191 -5.93342 -21.4942 5.73301 2.7509 -3.99125
3279 1 6.75177 -0.577654 14.585 1.06869 -3.79042 -1.08069
3280 1 9.78785 16.1986 12.0899 5.13158 -1.02684 3.16285
3281 1 -5.84837 -14.9909 12.0434 2.04884 -1.62239 -1.52022
3282 1 4.85868 -0.288952 -14.8763 0.225169 -1.30494 -1.30385
3283 1 -2.40421 0.0133011 14.1292 -1.95277 0.924465 2.05719
3284 1 14.831 23.7408 -18.6978 1.25459 -5.67889 -0.921532
3285 1 1.42788 20.6992 -13.8514 -0.473311 -1.13809 1.36262
3286 1 -16.4523 19.2245 4.23031 -1.47598 1.38379 -3.18073
3287 1 -3.94961 -15.551 17.4622 1.63294 -0.0688765 -0.131412
3288 1 1.60645 8.07389 -18.9686 -0.700009 -2.88827 -2.08522
3289 1 -17.6728 -22.4112 10.5843 3.92612 -0.19266 -1.9989
3290 1 -12.6024 19.9301 17.3753 -2.02591 0.0205746 -3.05667
3291 1 21.2983 23.2357 -12.0932 1.25708 -2.62398 -3.42243
3292 1 -21.025 21.0174 2.18538 4.96548 -5.90439 -0.0878243
3293 1 -9.00718 11.1122 23.6183 -4.96023 5.5633 3.5357
3294 1 -21.2472 1.91242 -15.192 -1.50478 -0.109206 -5.97272
3295 1 5.83175 -24.6634 -0.434267 -3.95571 -3.90463 0.272451
3296 1 -17.5264 -13.385 16.2432 -2.53833 3.67842 -0.392569
3297 1 -17.3368 21.7491 -23.8291 4.05542 4.76176 4.82027
3298 1 5.75896 -7.94819 -17.6127 0.869186 1.83701 4.66133
3299 1 -13.413 25.1625 -5.83045 -0.663569 1.19237 0.893483
3300 1 -2.35268 5.42825 -8.3758 -1.17825 0.0400797 5.24033
3301 1 -24.1486 8.57085 -9.35942 -1.3866 -1.02216 1.75757
3302 1 -18.4248 -11.463 20.0473 -2.82918 0.511094 -4.18376
3303 1 23.5639 -23.6117 -15.6098 -2.46751 1.7673 4.32759
3304 1 -0.550601 15.5126 13.7223 -5.70933 -1.29276 -3.14361
3305 1 1.99709 6.12284 -6.39519 -5.10847 3.55772 0.701929
3306 1 -7.93003 10.7344 -22.0179 -0.659931 -1.03361 -0.746154
3307 1 -18.2913 12.3915 19.932 1.93547 4.37482 0.885881
3308 1 -16.2392 17.842 -3.52558 0.853347 -0.69413 -1.12642
3309 1 3.98403 -1.38088 10.7295 -7.29809 -2.59739 -3.53663
3310 1 16.1965 23.7678 6.88024 -2.24814 0.87805 2.78155
3311 1 8.94936 2.93735 -8.94635 1.6455 3.32522 0.783984
3312 1 -24.6161 5.6684 14.1854 -0.291281 -0.927827 0.723283
3313 1 16.4533 9.59403 13.5304 2.57069 2.29779 5.18098
3314 1 0.635544 -4.04207 9.63271 1.03771 4.16789 4.12358
3315 1 20.9399 -10.885 -21.0904 0.170142 -0.757132 -0.181295
3316 1 2.87962 -5.44207 -5.77619 6.52575 -1.2065 0.797295
3317 1 4.93983 1.30505 6.57697 0.657363 6.68189 1.00455
3318 1 -10.3164 0.689599 17.0713 -4.97536 -3.66475 -1.22041
3319 1 0.594976 1.79195 -16.0095 2.15196 2.3113 -2.76072
3320 1 4.13105 4.3848 -11.8773 0.43731 1.29976 -0.940679
3321 1 -9.01572 -16.5667 19.2918 4.65368 0.567617 1.17918
3322 1 12.9737 -10.9026 -23.5026 -4.80971 -0.939007 -0.465495
3323 1 -3.03887 17.401 14.2741 2.55522 -0.443598 -6.10641
3324 1 14.6263 -16.5773 -10.6146 -2.20266 1.97201 1.61799
3325 1 -10.314 14.7805 4.01906 -9.36882 3.4708 -2.25052
3326 1 -23.7002 5.96422 -22.0681 -5.90791 -0.740171 -6.94313
3327 1 7.49584 -22.7189 -8.61345 -2.10074 -5.52426 -2.93109
3328 1 2.32745 -18.1647 -9.8362 -0.742044 1.40389 0.203467
3329 1 11.2325 5.64372 -15.5559 -0.77622 -1.01307 0.614724
3330 1 -7.35387 19.2706 -14.0322 -0.464874 -2.21055 0.237296
3331 1 -18.6394 -3.89183 -2.25037 0.584975 2.36977 -2.96123
3332 1 -4.77188 6.75414 22.6106 -2.15322 2.5042 -0.188856
3333 1 6.50715 -7.6698 23.6194 -5.41058 -2.63437 -1.23487
3334 1 -22.7131 20.7825 15.8099 -4.65197 2.35986 -1.14671
3335 1 23.5253 0.523227 -3.39797 -0.139534 4.41086 -2.39989
3336 1 12.9184 -16.7594 1.77325 1.28679 -0.99597 -2.01271
3337 1 -14.5872 11.6147 9.21121 1.66418 -0.540015 0.473694
3338 1 12.0298 22.3543 17.3324 -0.09761 -1.34055 3.05121
3339 1 10.7315 18.0498 -20.7853 0.385358 4.02571 5.82694
3340 1 18.4313 0.190448 -20.9883 -0.874959 0.939164 -0.658456
3341 1 20.9005 20.7413 -15.0717 0.0201482 4.20896 -1.35363
3342 1 0.189995 0.257582 3.22104 -5.06124 -1.32329 -1.27443
3343 1 -22.8547 -5.71788 -16.5353 5.77532 -1.48099 -0.436498
3344 1 16.6638 -18.7782 17.8136 1.29272 -2.64917 -0.235872
3345 1 13.5934 23.9313 -22.772 0.230747 2.84337 5.15307
3346 1 9.67506 -23.2998 -0.1047 -0.269715 -1.75641 0.496822
3347 1 -23.4831 13.7253 -14.506 -0.459135 -3.44187 5.32151
3348 1 -9.55312 -19.2262 0.961172 -0.00691724 -2.69748 -0.707434
3349 1 14.9619 18.0435 -13.7532 -3.05985 -0.178158 -3.43433
3350 1 -4.49065 -7.79945 15.696 -1.88955 -2.81133 -1.37632
3351 1 -20.3759 -9.4483 16.5557 1.43432 -3.56448 -0.239265
3352 1 4.60189 15.2239 4.7006 3.82245 -4.08561 3.04243
3353 1 -23.0001 3.04293 17.4955 -2.27332 -1.74199 7.1587
3354 1 -15.0461 9.23139 -1.42542 -4.47053 -0.424881 -2.64823
3355 1 -17.1273 -20.0969 -5.405 1.69346 3.03915 4.701
3356 1 -9.54431 22.8107 6.21566 2.07006 -2.80792 0.0961338
3357 1 7.19957 -6.38469 19.5442 0.659722 -1.39888 -2.26571
3358 1 -1.52063 19.7789 13.8445 -1.26264 -3.77434 -1.2835
3359 1 -3.85313 22.8402 12.3494 -1.09806 -1.80458 2.19928
3360 1 -7.58254 -15.3294 16.7422 -0.512759 -2.55082 -2.50719
3361 1 -3.42518 23.0611 9.54325 0.906647 -0.214519 -5.05814
3362 1 -6.313 4.19125 -14.5767 1.50465 -6.04615 -1.89215
3363 1 12.2587 -3.29422 -15.99 4.37148 1.2408 6.28356
3364 1 -20.2496 -8.12517 -0.207217 -3.01556 -2.90614 1.70848
3365 1 -2.17242 -9.58507 11.2217 -7.90616 -1.99936 -0.717785
3366 1 -20.2682 -22.9715 -20.7129 0.604428 2.96313 1.51285
3367 1 1.53819 -19.7638 -19.8436 -0.873816 2.33751 5.69075
3368 1 20.839 -20.3046 17.1845 6.48365 1.52588 2.1106
3369 1 -3.05439 -1.83518 -11.2139 0.820879 -0.454704 3.18082
3370 1 -19.0508 -14.8519 -15.2189 0.135972 -3.45529 0.846302
3371 1 -8.54696 3.90454 12.5447 0.57683 3.91235 -0.597
3372 1 6.03094 -3.57925 -7.84888 -0.00213843 -1.33482 -0.957504
3373 1 13.1019 -6.09973 18.9249 2.54482 0.48239 0.596901
3374 1 22.145 -13.5187 -21.8969 0.281041 -5.48997 -0.476831
3375 1 19.9667 -11.0223 -0.0718681 2.27562 -0.541595 -1.26622
3376 1 -16.1883 10.3466 13.4067 3.66499 -3.05791 2.53712
3377 1 5.8015 -12.7195 14.2816 1.42201 -1.80546 -3.18358
3378 1 -5.3634 -18.9942 -0.968172 0.613804 -1.13591 6.78375
3379 1 9.34894 -6.69963 8.62651 -1.1131 1.32624 2.01334
3380 1 0.838938 16.5043 23.781 -1.27279 2.50114 2.9453
3381 1 -3.88441 -16.4561 -21.2711 -5.40544 1.05719 2.71683
3382 1 -21.2309 13.9425 14.0157 -2.24829 2.52587 -2.04022
3383 1 -21.2437 22.9236 -18.2499 -0.276131 0.59795 -0.398856
3384 1 16.3863 -18.9648 -12.7374 -0.464192 0.640962 2.42178
3385 1 -3.67928 -18.8325 -6.3457 1.44657 0.580363 -1.56984
3386 1 10.015 -10.8019 -22.3981 -0.902573 4.36626 2.85772
3387 1 -17.4523 -2.47096 2.19037 2.23907 1.28541 -3.7757
3388 1 -19.1035 -2.02771 15.0604 -2.7743 -0.773116 -0.331166
3389 1 -14.4474 -11.0403 -12.3122 -0.218459 -3.08943 1.57765
3390 1 -24.6346 -23.2601 14.3643 -0.807568 3.1899 -4.69296
3391 1 -8.70022 -14.362 3.3333 0.512863 3.46337 -4.15688
3392 1 -7.84438 1.2775 -17.3995 2.63095 1.04129 0.56799
3393 1 -12.4318 14.7675 -19.5736 -1.13531 -2.89322 2.06022
3394 1 -12.494 -0.577154 13.3669 1.28817 -4.03277 -0.343712
3395 1 14.8811 -15.5276 10.3889 -3.41535 0.804653 3.21648
3396 1 -20.7448 6.97628 -5.16039 0.600274 1.54971 2.1804
3397 1 -4.9063 1.75655 20.3861 -4.25662 -4.1112 3.70687
3398 1 -7.18178 -20.6132 -4.29088 1.43268 -1.63107 1.47419
3399 1 -0.130934 -6.61418 3.72092 1.39156 -1.50213 1.19328
3400 1 15.5611 -23.1851 -21.9669 -1.12892 -3.78671 -0.243349
3401 1 -18.5229 -22.4983 -14.3781 -2.33353 0.409348 2.73888
3402 1 14.0618 -16.7446 -17.9139 -4.2966 1.38748 -4.50932
3403 1 -16.8582 -24.6309 0.448455 0.710918 0.727621 0.345868
3404 1 -17.7453 -8.95156 0.977545 1.7482 -0.017808 -1.78341
3405 1 16.9639 5.57947 13.1882 -3.8378 -1.66489 -4.32002
3406 1 2.90896 -3.1649 2.94103 2.43402 -0.772779 -0.204815
3407 1 11.7295 0.784977 -12.2592 -1.71825 0.765263 -2.50296
3408 1 -17.8955 14.2788 -23.9657 1.75483 -3.09457 0.641415
3409 1 -3.0141 -18.4315 19.6035 1.04756 -3.89576 0.657773
3410 1 -20.4117 -8.73428 14.0291 1.32297 -1.44921 3.05292
3411 1 -4.64747 -4.58078 19.9382 1.83866 -2.10037 -1.57121
3412 1 5.57904 -2.93887 -10.8583 -0.049523 -2.6904 -3.3604
3413 1 -4.00958 -17.8814 -16.1508 1.79494 -3.71018 2.20325
3414 1 -18.1918 5.20357 -6.91693 -0.298039 -3.22835 3.08668
3415 1 -17.1018 0.1811 -16.273 2.97871 -1.67301 -0.658058
3416 1 20.6145 -21.8719 -5.88975 4.37915 -0.114407 4.13901
3417 1 -24.1922 -9.38188 9.619 -1.64696 -2.90793 -0.917369
3418 1 21.583 18.7269 12.9285 0.912895 -0.605671 -2.24813
3419 1 -11.2093 -11.1097 1.82697 -0.300608 -1.89686 0.950269
3420 1 -19.5446 10.1375 8.29694 -0.214846 -4.06532 0.481285
3421 1 11.1093 15.4564 -12.818 -2.20536 1.17137 -2.00983
3422 1 6.18908 -14.3211 -3.24955 -2.83586 -2.43169 -0.953786
3423 1 -13.1517 3.91907 0.961894 2.70822 5.04491 -3.33722
3424 1 -0.974161 -9.9921 1.67312 -3.43511 1.38979 -1.77164
3425 1 -24.4269 -9.35604 18.4034 -2.65264 -4.87006 1.35132
3426 1 -19.6081 -5.37751 4.2377 1.36902 3.18399 5.35045
3427 1 23.2778 12.7276 -16.6426 -0.319748 -3.47442 -5.37881
3428 1 -4.29035 12.1409 14.2186 4.41917 -3.06123 0.114854
3429 1 4.39374 -16.7499 16.2558 -5.36386 -1.58182 -2.96541
3430 1 -14.5212 -16.2357 18.4602 1.75898 -1.77473 -6.1156
3431 1 -9.41169 -5.42421 -1.17461 4.60977 -0.422916 2.8408
3432 1 -2.30292 7.79789 7.44115 2.07033 2.98995 -2.57468
3433 1 -8.24068 -2.14714 -21.9568 -1.5317 1.81213 -0.421869
3434 1 14.1871 16.7956 -8.84378 0.414579 -2.2791 -1.25964
3435 1 -4.11339 22.2624 -14.5965 0.0241174 1.46521 2.92818
3436 1 -4.27505 8.3868 17.6166 -6.40098 2.90532 0.622446
3437 1 12.6917 17.0477 -6.33175 -0.916386 4.20266 3.69709
3438 1 -18.5953 9.9057 2.85458 2.82495 0.623664 1.01197
3439 1 1.7227 -13.2219 12.6903 -2.45693 0.603707 0.0672338
3440 1 4.4432 22.4369 -9.32184 -7.03678 2.578 -5.56177
3441 1 5.69692 -15.699 -5.72717 2.85359 2.64495 1.30589
3442 1 -6.68816 -0.345021 4.30433 -1.28203 -3.72982 0.34268
3443 1 -23.4809 2.40003 -0.000702885 -4.77361 -6.6843 -2.37644
3444 1 -18.9787 12.8141 3.27242 2.27969 1.73597 -1.1011
3445 1 -12.3965 2.44598 -9.88014 0.853812 0.349069 -0.925689
3446 1 -3.29971 -22.742 -16.4819 -2.35403 2.05818 -3.8539
3447 1 -5.38601 5.34361 -8.87772 2.58695 -3.57552 -0.311834
3448 1 -19.8068 4.21497 14.7691 2.66418 3.04466 -6.55994
3449 1 7.61835 23.5658 -15.8392 0.287921 -1.52074 4.89932
3450 1 -2.32954 -13.6128 -12.7536 0.423322 1.51576 6.63201
3451 1 3.99004 -11.4821 -19.7605 -0.949829 1.59156 -4.11158
3452 1 -10.941 -0.499571 -12.6828 1.31849 2.92356 2.98021
3453 1 15.2768 10.5568 -19.9639 3.13938 3.45819 -1.20944
3454 1 -22.1045 18.7351 10.2684 -1.65886 2.05414 5.63669
3455 1 -18.4809 15.1001 19.6929 -1.58877 -1.13929 -2.59569
3456 1 10.4597 23.1676 -14.795 -0.526502 -0.0757724 -1.96544
3457 1 23.8437 14.2869 22.4002 0.19297 1.29044 1.81133
3458 1 14.6558 5.66028 -22.3024 -0.0123541 -1.31886 -1.75513
3459 1 -2.13336 18.7926 18.1459 2.24799 1.579 -0.831085
3460 1 -0.231936 20.8095 17.2982 3.01415 2.29193 -5.78094
3461 1 -13.8413 -24.3369 17.9945 -2.14529 4.19982 2.42451
3462 1 -11.9595 21.4077 -6.73221 -0.214199 -3.2691 -0.065431
3463 1 22.5618 7.88996 -22.3062 0.634558 0.062124 -0.0895731
3464 1 -18.6911 -18.5921 12.4721 -3.00812 3.39938 1.31387
3465 1 1.06602 -5.71828 11.8794 -1.41432 0.762693 3.86175
3466 1 -8.98646 2.64122 -8.38605 -2.35273 2.34949 -2.30264
3467 1 13.3953 13.2731 14.345 2.22625 -5.4466 -0.0583175
3468 1 -7.93522 -7.25332 23.1455 -1.06143 1.44716 -0.529168
3469 1 -3.5025 -8.35382 1.70009 -2.54619 0.520991 -4.01526
3470 1 -18.7351 -20.2986 -8.83383 4.44634 -5.22519 -3.38384
3471 1 -16.3197 -19.2897 -18.8321 -0.56948 -1.85734 -3.09828
3472 1 -13.4121 8.0524 -15.4027 2.46562 -0.872412 0.936586
3473 1 23.2692 24.2387 -19.1455 6.00005 1.05077 -1.19184
3474 1 17.6865 -3.34513 13.307 0.892094 -1.64203 1.08647
3475 1 -22.1487 -13.0977 18.5593 0.180172 -0.422135 0.188926
3476 1 4.22589 13.4583 15.7171 2.26613 4.86009 3.07394
3477 1 -19.7318 -0.869817 -15.1726 2.59128 -2.1929 0.734838
3478 1 10.8494 -13.1422 2.7356 0.776404 -0.187533 0.734674
3479 1 16.7197 -7.24511 10.0568 0.00185548 -0.390182 -0.380448
3480 1 -23.7716 25.7052 -5.95054 2.17953 -3.89602 -6.89203
3481 1 3.06775 -21.883 -24.0644 -3.92118 0.993591 0.392656
3482 1 17.2407 19.9806 -0.0438468 3.49639 -4.6648 -0.639846
3483 1 12.0818 21.7225 -1.17123 -0.497811 1.3946 5.01519
3484 1 2.69332 10.1516 8.09203 -2.1726 -1.52821 1.33238
3485 1 2.18452 7.41334 -3.79078 -0.620779 3.33704 -2.09457
3486 1 17.3549 24.6194 18.3431 1.0048 1.92373 3.61311
3487 1 9.3842 -10.4716 -10.3412 -3.30631 -4.86991 -0.451581
3488 1 17.1326 14.8731 -13.4147 1.79652 -5.27624 -4.49548
3489 1 18.8634 0.761318 -7.31087 2.67381 4.59927 -3.87833
3490 1 -19.659 5.02278 5.34164 3.37694 1.78964 2.01739
3491 1 -7.67018 8.39749 -20.5302 0.919891 -3.22261 2.0787
3492 1 17.452 -1.00959 5.4096 -1.0199 -3.54865 -2.49666
3493 1 6.51398 11.1742 17.5934 1.2723 -1.65391 -3.80482
3494 1 -16.6108 3.72425 22.1044 -0.963013 2.79772 -4.48585
3495 1 23.3742 -3.64393 18.0759 -0.192258 1.56836 -1.1739
3496 1 -8.98328 9.53059 -16.5749 0.812123 -2.14636 -1.5913
3497 1 -16.6711 11.246 17.8031 -2.19268 -3.98114 -2.08678
3498 1 -17.4767 12.0336 5.85543 -3.74281 3.23709 -6.01825
3499 1 -22.1069 19.6052 -21.5788 6.36627 -3.00105 3.64251
3500 1 21.1089 15.6335 -7.05133 0.0932947 -4.73343 2.34329
3501 1 -16.916 17.9832 -6.94327 -1.86749 -1.99092 1.10359
3502 1 -6.63955 23.0714 -4.2173 -2.90978 -6.42039 1.81922
3503 1 18.6704 -22.8272 4.02173 0.262258 0.787072 0.979937
3504 1 17.0257 0.478709 0.853309 0.41254 -4.50874 -2.23745
3505 1 1.68398 -14.1425 2.56837 -3.54986 1.62168 -3.32733
3506 1 -22.6788 21.6466 -5.38661 -4.93805 0.607877 2.30441
3507 1 8.5263 9.37643 -9.48303 -3.22184 -2.45466 4.31645
3508 1 -2.93026 -11.9721 -19.8144 -0.9592 -2.88348 6.09537
3509 1 -22.6911 -20.2036 -22.0528 4.33817 4.9427 -0.878845
3510 1 -11.7693 5.42985 14.7811 -3.82161 1.21185 -3.36467
3511 1 14.1316 8.84636 -2.07024 3.82743 -0.831741 0.679843
3512 1 -18.8 3.60433 2.92249 0.350316 1.06921 0.0216481
3513 1 -20.2648 -21.3055 -18.3804 -3.97767 -2.127 1.13057
3514 1 -3.8378 18.1418 -9.76771 0.745983 -2.14297 1.48922
3515 1 14.8143 -17.8763 8.79105 5.60257 -1.04234 0.537938
3516 1 -20.1705 5.28574 -17.4709 3.96319 -2.99997 3.89171
3517 1 -5.7704 17.5217 18.6338 0.951138 -1.17298 0.366772
3518 1 -1.12848 0.470925 0.623643 -2.61169 0.547883 -1.86972
3519 1 -3.7218 5.13839 16.1445 -1.37845 1.31513 -2.34296
3520 1 -3.98681 -14.3491 21.3947 -2.82812 -0.148603 3.04272
3521 1 2.59402 15.577 -14.6413 -2.45431 2.1493 3.87517
3522 1 23.7415 15.1427 -23.1497 0.0212269 -1.16056 0.587553
3523 1 -13.6132 -19.8128 7.76267 -3.9586 -0.614597 -5.00692
3524 1 -1.1219 23.4238 -1.12662 3.03666 -0.197532 -7.94397
3525 1 -15.4552 11.9805 -22.5103 -2.03421 6.71095 -0.375213
3526 1 10.278 18.677 -6.98929 2.03716 0.619112 -5.65046
3527 1 -1.89046 11.282 6.3981 -1.3583 -0.511531 -2.13036
3528 1 -23.6551 -23.3671 -0.278938 1.04355 -1.90447 1.12428
3529 1 -20.3507 8.22667 19.7617 -8.54956 -4.55478 0.962989
3530 1 -11.0567 10.7204 6.91631 -2.64093 8.29769 6.17237
3531 1 4.77767 6.38674 22.4779 2.42268 -2.84488 -3.34879
3532 1 -7.85037 13.1554 -8.21856 4.42673 0.410149 2.44339
3533 1 15.7937 11.0472 3.02123 -1.87773 -4.25926 -0.225938
3534 1 5.40878 -4.57101 20.7343 0.740077 4.24637 3.09444
3535 1 13.0316 -22.116 -17.9236 4.01175 0.31168 4.56579
3536 1 22.8785 -16.8822 8.20725 -0.390503 1.90786 1.50547
3537 1 21.0854 23.194 17.8218 -2.93529 -1.73814 0.00766506
3538 1 5.0797 -6.19127 15.1175 -0.670307 0.749925 0.439607
3539 1 14.6688 22.622 -12.4841 -1.98482 1.01313 5.16659
3540 1 -1.71052 13.5484 -3.9045 3.76916 -2.44215 -4.73246
3541 1 12.6514 0.0135938 -22.8609 -2.82262 5.10828 2.86339
3542 1 20.3375 -0.0847835 5.87513 4.19278 0.383464 2.84879
3543 1 -15.0247 12.9409 -8.29147 -2.29432 -5.46057 3.455
3544 1 -8.6168 20.4454 -1.13582 -1.22826 0.774523 -1.6264
3545 1 2.44601 21.0579 13.1165 -0.0680379 0.279215 -0.80863
3546 1 19.7031 13.9326 -9.08707 4.58044 2.2015 -4.31464
3547 1 9.15449 -17.017 -10.7278 0.841909 -1.53947 2.31489
3548 1 7.36358 -12.533 -18.8085 -2.20906 -1.30129 -4.67634
3549 1 -10.3338 7.82462 5.71535 0.928767 1.13898 0.78311
3550 1 -14.6018 16.8757 8.15009 1.96046 -1.62097 -2.48871
3551 1 12.902 1.13303 -20.3243 -3.4031 4.32477 -2.18926
3552 1 15.8273 18.9029 6.91668 3.80276 2.60058 -4.14179
3553 1 -8.94604 15.8162 -3.68215 3.70259 -2.26388 -2.75273
3554 1 14.5477 13.4959 -12.938 3.6744 1.32534 -0.408274
3555 1 -22.9933 -18.7412 0.224988 3.90437 5.89205 -1.25385
3556 1 -9.19766 -13.8087 18.6356 -3.12904 -6.37459 -0.50667
3557 1 8.94599 7.29363 -18.9854 -2.71154 6.20663 7.64932
3558 1 -18.7745 -15.0134 -2.78262 1.15771 2.42655 -4.6402
3559 1 10.3859 -4.95692 10.7267 4.49072 2.76758 -0.631587
3560 1 -17.8443 15.7851 -18.8938 2.11832 -5.65271 -0.555807
3561 1 -19.5154 19.5333 4.21437 -4.41819 0.381223 3.4482
3562 1 19.1903 11.9624 1.32362 0.897055 -3.26312 0.572857
3563 1 3.52713 -23.7187 -7.19112 0.469961 -2.40995 1.73628
3564 1 19.9954 11.376 -13.3746 0.197588 0.279702 -3.75015
3565 1 16.9106 -17.466 -6.55006 0.208825 -1.09484 -0.983452
3566 1 -10.8422 -16.2027 3.86981 4.08189 -3.31734 -3.83792
3567 1 2.11495 -9.69563 5.57967 2.35474 1.15906 -1.37773
3568 1 16.6247 -0.222762 13.8517 -0.801874 5.53805 1.20753
3569 1 -4.59713 4.28676 -12.3968 -1.94914 -0.123074 0.656168
3570 1 12.4303 22.9228 23.3644 -4.42827 -2.61074 -4.20067
3571 1 2.58456 23.6001 10.4951 -2.23164 -6.5576 -1.92788
3572 1 -14.5818 -17.2759 -19.9803 -2.92875 -1.75467 0.0797701
3573 1 19.0158 -2.45339 -2.66254 -4.4517 -3.56801 -3.34994
3574 1 -16.6562 -3.37619 -10.9443 -0.526852 -5.54441 5.46769
3575 1 -12.3384 -13.1378 -12.6235 1.25554 -1.60711 -1.67787
3576 1 14.6149 3.33907 16.1529 0.922333 -3.67732 -1.88946
3577 1 -6.71595 8.34024 -5.78898 -0.507395 1.30072 3.59609
3578 1 21.822 6.57474 19.6573 -1.41295 2.42778 3.88091
3579 1 -15.9732 -11.466 -8.2815 4.13087 3.74092 0.188174
3580 1 -0.489474 -12.1207 7.44476 -3.05251 -0.399697 0.681035
3581 1 -12.1085 8.19674 3.43034 0.840156 7.38234 -1.38593
3582 1 -15.0712 -22.9901 14.1887 0.95191 -6.39171 -3.62471
3583 1 -17.4477 16.046 7.43553 -2.29952 -1.1673 -2.93956
3584 1 10.6748 5.16079 23.6054 -3.44458 -0.738852 -2.64992
3585 1 11.5292 -2.17318 10.3057 5.39481 -3.57034 0.437206
3586 1 14.3843 -0.25348 -8.25918 -1.16164 3.63583 -4.70907
3587 1 22.6313 -13.0012 -17.3605 -1.92473 0.717333 -7.41653
3588 1 -22.7863 -7.14599 -10.1931 1.3577 1.57788 -3.9589
3589 1 -12.9428 2.5181 -7.10501 -3.37434 -2.2916 -0.359881
3590 1 12.2136 1.39736 -4.26645 4.34533 -0.566178 -1.17855
3591 1 -7.48581 -10.2858 24.2195 1.92517 5.48299 0.997223
3592 1 -8.10755 -17.2646 -6.42269 1.05636 -0.894663 0.875151
3593 1 14.1102 -9.19885 -14.8144 2.16357 1.44455 3.6027
3594 1 12.5369 0.172542 6.28305 0.586502 -3.26324 3.04759
3595 1 -2.89781 -16.2805 7.61614 5.50579 -2.19661 0.337873
3596 1 -6.6767 -9.81436 -8.88281 -7.19032 -1.66096 -1.45148
3597 1 -4.97929 11.8841 5.50477 2.17482 5.58775 -4.69884
3598 1 -12.433 -10.8396 -5.52 2.14725 6.53412 5.36842
3599 1 14.0714 14.4997 -6.64504 3.58278 -3.26192 -1.5954
3600 1 -19.8352 23.0771 -9.96964 -4.89715 4.51771 3.92072
3601 1 -22.9781 -11.2411 -4.7614 0.243406 1.00211 -5.43337
3602 1 2.84508 23.4858 21.8871 1.36803 0.362005 -0.129861
3603 1 -5.55903 -1.04342 11.7728 -0.548999 -2.40052 0.327645
3604 1 11.111 11.7604 -22.8138 -0.7244 -3.86033 -0.200574
3605 1 17.5323 21.2562 15.553 4.2093 -3.28392 -0.0717211
3606 1 3.31384 9.69463 -12.4864 -5.56219 0.427582 2.48867
3607 1 -18.5395 6.52606 18.0069 0.732478 1.88088 4.25961
3608 1 19.6131 22.6899 -16.7776 -2.58447 -2.14085 -3.0307
3609 1 8.29257 -11.9889 6.81446 -1.93723 0.580442 0.428913
3610 1 15.0119 9.75652 -22.7457 -1.24417 0.0824606 -2.76103
3611 1 -17.2259 21.7539 -15.8463 -4.50059 -0.183713 0.0383958
3612 1 -2.70861 16.4904 -4.16296 2.83589 0.600691 2.11688
3613 1 1.1167 23.7237 12.933 -2.90854 1.31484 -3.97945
3614 1 -0.650133 -4.23668 -3.72442 -0.147856 -2.39603 -0.57959
3615 1 3.40548 19.8555 3.31178 2.98512 -2.74587 3.31933
3616 1 -10.7603 -12.1743 22.3934 -0.384768 5.09734 -2.87833
3617 1 15.8125 -0.0832663 -19.4504 4.83755 4.11018 -0.378367
3618 1 -0.307077 -8.10514 -8.32882 -1.12379 -1.05964 2.04454
3619 1 1.7634 20.6745 8.43505 0.604175 0.601464 1.14251
3620 1 -2.93384 15.2773 -10.3454 -1.50143 3.19724 7.74996
3621 1 -8.86974 13.1351 11.3871 5.50908 6.65705 0.684827
3622 1 6.27098 -12.9778 11.2575 1.66028 2.10337 2.69506
3623 1 10.4211 -1.33283 16.0851 -5.78492 0.586049 -2.63785
3624 1 21.6867 -7.44958 4.96029 4.05211 0.726437 1.36557
3625 1 7.59959 -15.961 22.7539 0.403603 -2.53793 -2.23899
3626 1 -15.3657 4.86866 -6.29544 -1.19453 2.09598 2.91763
3627 1 -3.64444 17.8855 8.81515 -0.111376 -0.724979 -1.93943
3628 1 10.4061 -0.456346 8.24602 5.60725 -6.80673 1.73589
3629 1 -4.2328 -1.2891 2.9472 4.16195 4.8562 -2.40497
3630 1 4.82274 -12.0581 -0.884468 -8.51309 3.51331 2.21711
3631 1 8.76333 9.26497 18.2563 -8.36518 5.40101 0.0864172
3632 1 -14.2065 -15.2176 13.7356 2.63328 -1.27569 0.00578612
3633 1 9.71699 7.96694 -3.3057 1.11733 0.159111 0.421483
3634 1 -2.40492 3.81214 8.57993 -1.36003 1.82572 1.85749
3635 1 -0.549654 -15.8463 -18.9578 3.59224 2.89215 3.04
3636 1 3.89904 -18.3849 -12.5723 2.199 3.83234 -3.32714
3637 1 -3.60813 11.6918 23.4369 -4.3013 -0.535581 3.33548
3638 1 22.5702 -7.58386 22.4013 2.84616 3.26501 -0.970954
3639 1 6.81114 -16.172 4.73934 1.4108 -5.04185 -1.58961
3640 1 18.4952 -15.9196 -10.6935 -0.601437 -4.21648 -0.101472
3641 1 5.01991 11.0979 20.026 -1.67825 2.07716 1.27934
3642 1 -2.39776 -15.6693 4.72841 -1.47392 0.453475 2.44876
3643 1 0.352929 4.724 7.50077 0.43625 3.87194 0.667976
3644 1 18.7492 21.1888 -2.2308 0.695632 1.60157 4.74193
3645 1 -18.4353 -15.4111 -7.02878 2.28359 -2.85987 -4.95392
3646 1 17.401 2.60737 -16.7254 -0.0247141 0.0798802 -2.87808
3647 1 19.5026 -20.1747 5.00985 4.10831 1.52967 -1.41885
3648 1 -23.7451 -20.7347 -1.65183 2.69623 -0.551766 -4.35417
3649 1 -17.5076 -1.24819 -18.5544 1.11025 -2.30635 0.97853
3650 1 7.24631 -7.02142 -15.4796 -0.726269 -0.891716 -1.67332
3651 1 -11.176 7.56408 11.5186 4.23064 -1.37276 -0.585009
3652 1 21.6049 -11.9596 14.9418 -2.96265 1.69167 2.07331
3653 1 -0.341885 17.5196 -1.80736 -1.03485 -2.88418 1.91894
3654 1 -18.9433 21.2517 12.3269 2.79595 -1.78331 -0.753398
3655 1 -9.23274 23.4952 -14.7227 -3.76777 -1.46027 -2.92947
3656 1 -10.3363 -19.7991 18.4594 -0.214702 -5.25832 -1.51289
3657 1 23.7826 24.4815 -11.2524 4.01837 4.43106 1.32603
3658 1 22.4599 14.7087 16.9057 1.63257 2.30512 1.16632
3659 1 20.0389 5.95508 -18.594 -0.0491462 -1.63983 1.47531
3660 1 16.101 8.55457 9.93955 0.0625461 -0.615663 2.24368
3661 1 20.6247 10.0978 -18.848 4.6265 -1.75806 -3.9904
3662 1 -1.03787 1.08495 -22.7084 1.45303 -1.86471 -1.35432
3663 1 -20.9817 -14.0671 -12.9324 0.983215 -1.18539 1.10702
3664 1 7.13063 16.8745 12.4422 -2.14483 -1.24731 -0.585106
3665 1 11.352 -8.87035 -17.7152 1.96783 4.45155 -0.12698
3666 1 4.34388 -16.1247 -22.9514 1.27079 -0.348703 -0.149097
3667 1 13.3787 16.4669 -17.198 1.4065 1.01804 0.854315
3668 1 -13.6915 -1.97127 21.5052 -0.579765 1.79671 2.51743
3669 1 1.03207 21.3984 4.1465 2.76855 2.26097 -0.807462
3670 1 14.7479 6.53236 -9.1766 -3.42525 -0.851897 -0.792538
3671 1 -1.17439 10.9128 -13.3399 -3.02085 -5.98671 0.480339
3672 1 -13.8984 11.3972 12.1445 -0.954763 -1.25704 4.99688
3673 1 -4.12329 -23.0597 22.1195 0.935709 2.31505 -4.64702
3674 1 -1.09662 -0.246439 -7.38253 -2.55476 0.884697 -3.93208
3675 1 -13.6646 20.6079 -9.24688 2.66788 -5.09663 -0.925718
3676 1 17.7513 13.0303 -10.9513 3.71453 -1.25463 0.452605
3677 1 -5.34123 13.6293 16.4774 2.29713 1.37128 -2.62454
3678 1 -18.548 6.93051 14.191 2.38224 -2.25908 1.28526
3679 1 10.021 -19.1939 -5.81505 2.9255 -2.47045 5.93438
3680 1 13.6143 5.13809 23.2353 -2.74802 -2.3573 -4.99989
3681 1 -7.51654 0.0704985 13.9285 -8.7159 -4.69207 2.35629
3682 1 22.8976 -22.3679 17.0793 2.53042 -2.67546 -0.519119
3683 1 3.8875 8.99759 5.79762 -4.21384 3.97152 -2.03661
3684 1 14.8601 15.3317 -23.036 -1.07793 1.55612 6.44578
3685 1 5.57818 -1.77583 0.126545 2.04583 0.469679 4.14293
3686 1 -22.8663 9.37878 0.314313 -4.36382 1.30436 -7.34386
3687 1 9.78825 -15.6602 10.0275 0.0729499 0.729694 2.98913
3688 1 -11.8171 -23.4365 -0.479887 3.05089 -1.82665 -1.12465
3689 1 21.1722 15.6373 -15.9323 -0.497116 1.12785 -2.4129
3690 1 -8.37929 6.4095 -6.87698 5.0182 4.72819 0.903542
3691 1 21.1753 45.8691 -7.74196 -1.23171 0.732455 2.23325
3692 1 5.9188 1.96008 -17.9899 0.144565 -1.08449 1.71736
3693 1 4.28881 23.2794 -2.47199 2.55109 2.89133 0.490714
3694 1 -21.1327 2.72846 -7.28278 6.67897 1.40059 9.72786
3695 1 -7.66436 -4.92923 1.145 -1.79843 -0.057476 -0.43644
3696 1 7.4848 0.729135 -15.9815 -1.45491 -0.896776 1.72914
3697 1 9.80684 5.72568 5.11115 -6.1082 4.01614 -0.940109
3698 1 -22.1895 0.997359 15.6612 3.92613 1.88879 0.00437306
3699 1 -9.73768 -4.87698 12.9878 0.489218 -2.41811 2.11893
3700 1 -5.21194 -20.5976 -16.2319 1.42406 -0.198597 -1.86355
3701 1 15.7891 -3.84599 11.2501 -1.64441 -3.66944 0.438757
3702 1 -7.03016 -0.175822 -13.6763 2.9961 -5.1485 4.77308
3703 1 21.6344 13.0817 -23.2047 -4.162 0.0495435 3.54462
3704 1 19.9593 -3.54457 11.4857 1.23234 0.372289 2.18526
3705 1 4.97513 -0.978414 2.79843 0.796253 -4.60427 -0.596773
3706 1 -12.8948 3.62948 -16.9578 0.929128 0.985837 7.0427
3707 1 19.2248 6.67259 -14.8314 -0.650753 3.67126 -2.18643
3708 1 6.86696 1.82287 8.62621 -1.56367 1.83455 -2.08348
3709 1 -20.6449 15.8372 7.72062 -0.65667 3.29485 -1.88635
3710 1 -7.65137 -6.80985 19.1246 2.46043 0.400731 -3.0464
3711 1 -12.3799 11.8315 15.5006 2.23703 -3.21828 -1.08976
3712 1 17.446 25.0215 -6.01913 -2.21567 -7.89952 3.3854
3713 1 0.171681 19.3701 6.01267 3.12654 -2.41534 -1.60484
3714 1 -11.6512 -0.172615 21.2042 -4.8893 -1.59989 -2.18838
3715 1 18.9991 19.0758 18.5843 -2.55165 0.86216 1.06952
3716 1 4.94571 5.20248 0.380411 1.14834 -0.794763 4.16234
3717 1 -2.52476 17.247 -18.4563 0.361852 2.51616 -5.41555
3718 1 -16.7567 6.83413 1.61254 -1.0877 -2.03095 5.97977
3719 1 -0.902776 15.2976 -6.09065 3.24442 3.28071 -2.63521
3720 1 16.558 16.3242 16.1913 2.50065 2.29189 -0.0340899
3721 1 -1.22373 19.0812 -10.0625 2.07253 -1.7433 0.864777
3722 1 19.02 -9.24392 6.96595 3.94569 -1.9131 -0.362484
3723 1 6.49589 4.5073 -16.2379 -0.192955 1.68647 0.239167
3724 1 -4.39663 0.639762 -2.42165 4.1612 0.952087 -1.3056
3725 1 -12.7083 21.5274 -3.68122 -2.82643 0.380918 2.82797
3726 1 -8.40455 -13.3776 -15.3441 3.082 1.45331 2.14188
3727 1 5.7737 -10.5321 -21.7501 -3.10836 0.837861 -0.647223
3728 1 15.2675 -9.48798 23.9597 1.64492 1.50357 -2.82126
3729 1 -21.9346 -8.26194 -13.0306 -2.06362 -0.862856 2.9782
3730 1 14.0159 -4.90376 13.1756 -2.6033 4.01487 0.873116
3731 1 3.97792 -18.4899 -20.7095 -4.61447 0.56556 -5.23827
3732 1 19.8571 20.7734 4.56426 4.15971 4.49384 1.21136
3733 1 5.01452 -15.1519 -0.85926 2.74949 -3.08629 -5.30417
3734 1 15.6739 14.212 -9.16234 3.8295 -3.22808 3.86415
3735 1 -7.47878 18.6487 0.947875 2.86011 3.94174 0.655805
3736 1 -21.4691 14.8893 -10.8813 -3.10336 7.00653 4.47491
3737 1 -1.74788 5.00003 1.73121 -1.13207 -5.91434 7.1432
3738 1 -6.93528 -6.34192 16.5037 -0.944638 -1.24412 -5.30013
3739 1 1.22816 -5.9929 7.55078 0.954353 4.12741 2.09424
3740 1 5.81401 0.419896 -20.4402 -1.87613 1.66021 1.9879
3741 1 -18.4551 10.8714 -5.65171 0.809318 3.30936 4.27562
3742 1 -1.92622 -18.7424 -14.2523 -1.69029 1.0701 -0.868968
3743 1 4.96213 -12.8852 17.3017 -4.86125 4.35443 0.790414
3744 1 -16.9057 16.5099 2.69079 -3.30547 -4.93931 -3.58867
3745 1 2.63876 -8.96698 10.8361 2.14811 -0.558764 3.34007
3746 1 6.47976 -20.6624 -5.30558 4.54219 0.459032 -3.74801
3747 1 -18.7803 21.7069 -18.2902 -2.58841 -0.937712 -1.0156
3748 1 -15.1457 -2.44299 -19.1493 1.43279 4.64321 1.52767
3749 1 -21.8136 -2.537 13.9864 -0.946127 3.57638 -0.398045
3750 1 13.3411 22.5586 -15.0131 1.28693 -2.8793 1.66347
3751 1 -5.44954 -3.1698 0.696402 0.28352 0.00477638 -4.31157
3752 1 -19.6804 14.5795 -17.2243 -1.09326 1.91269 -1.07159
3753 1 5.70038 -4.58924 -22.2861 3.02392 -5.5445 -0.263942
3754 1 -11.4673 7.31885 8.28652 0.187187 0.441501 3.01477
3755 1 17.5162 6.86632 -8.511 1.3507 1.62788 2.19842
3756 1 -12.1209 47.3016 -21.1336 -2.67567 5.15784 -3.54091
3757 1 0.499816 22.0664 1.27502 -2.18027 0.23456 3.29997
3758 1 22.263 -8.29872 -14.4158 -0.787654 1.18976 1.57152
3759 1 -10.5506 7.89572 -21.4316 3.60886 1.97079 -1.08637
3760 1 15.4583 25.9372 2.80202 -3.06254 -5.57918 0.621701
3761 1 18.2285 -11.6367 -17.5345 4.79806 0.863871 -6.50069
3762 1 10.1461 -10.5858 8.8718 1.99547 7.40016 0.728587
3763 1 12.7768 9.92298 6.9109 3.15878 -0.531922 -0.664172
3764 1 17.6928 -11.5167 19.9584 -3.88328 3.17232 -0.0596593
3765 1 -23.8678 -24.8775 -2.72048 1.18145 -1.64885 2.90888
3766 1 -12.0813 20.0149 13.4146 -2.03156 -2.38522 1.51624
3767 1 -11.236 -21.6545 1.37104 -5.03856 -0.764849 -1.19257
3768 1 -0.869828 7.39066 -15.3478 0.4481 4.07864 6.71208
3769 1 -21.5423 -18.7813 8.6328 -2.63246 1.98369 -6.65084
3770 1 -7.32013 -5.03304 9.63944 2.5256 -0.9986 1.06956
3771 1 -15.8004 18.6213 20.8238 -1.08181 -0.826751 2.02569
3772 1 14.9994 -14.5517 -2.64419 9.53967 2.05704 4.25135
3773 1 0.976802 -4.20265 14.3465 -4.94567 -3.22814 2.00884
3774 1 -7.58527 12.3373 4.5581 0.297018 0.141315 1.6664
3775 1 2.79584 -2.34277 -10.6298 -0.596919 0.155048 -2.9903
3776 1 9.11582 -4.76518 17.7616 -1.90843 -2.80569 -1.5913
3777 1 12.0844 -6.46139 -1.05362 -1.70872 2.76073 1.15707
3778 1 6.31274 15.3485 -10.759 -2.7483 -2.18049 1.6419
3779 1 -9.25987 -0.116708 8.02628 0.643669 -2.95552 0.32335
3780 1 22.696 20.0867 -17.2236 -1.68571 1.25472 2.50439
3781 1 -3.47265 -3.96004 8.70263 2.61202 3.98919 0.673121
3782 1 0.465208 -13.2574 -17.922 -0.0125128 1.07029 -0.885728
3783 1 22.3627 20.933 3.13245 1.64454 3.53928 2.97386
3784 1 13.3432 1.72279 3.7975 -2.14277 -1.27749 -2.38265
3785 1 -2.37353 -22.7527 -24.044 -3.24526 1.28332 -0.331378
3786 1 20.7872 5.70705 16.8129 4.18239 -1.4541 -0.261107
3787 1 9.16214 20.9611 -16.0985 -3.43936 0.565055 -0.481964
3788 1 5.17369 15.1098 9.79992 1.27924 0.375137 -1.48265
3789 1 19.2264 24.2961 -13.2624 4.15657 -2.78516 -3.44178
3790 1 4.22863 -20.1506 -0.547662 -5.19966 0.344512 0.950005
3791 1 -8.84319 17.2297 -12.8848 3.8227 5.81505 -1.57505
3792 1 -11.5983 -8.36791 11.4672 -3.01075 -1.78185 2.84711
3793 1 -14.3609 21.2706 3.51599 -2.47964 4.82382 -3.21797
3794 1 -3.70903 -20.9718 -9.24833 3.50944 0.70459 2.57078
3795 1 14.2229 22.9284 21.1425 -2.88412 -7.1728 -1.26525
3796 1 -11.3181 -9.57102 -9.20167 -1.10689 -0.405293 -2.55829
3797 1 -15.4364 -14.3711 7.60444 2.37369 -1.38668 -2.05785
3798 1 5.73366 2.21701 -1.30225 -1.3075 -1.24439 2.92836
3799 1 18.9712 21.9317 -5.31288 1.65061 1.35845 -2.83301
3800 1 16.6129 3.02712 -3.11858 1.58614 1.0062 1.64986
3801 1 2.58958 15.5916 -8.46066 -0.444818 3.14442 -1.63184
3802 1 6.89648 0.122627 -22.9572 -3.67981 0.602852 -1.35592
3803 1 -18.8683 -5.23595 -23.6558 -0.664979 3.61483 0.581486
3804 1 13.259 15.285 10.6047 -0.158676 -3.6519 3.71551
3805 1 -5.51239 17.5483 -18.4317 4.35715 0.492403 1.67842
3806 1 0.618917 2.09081 -3.86827 1.06974 2.64177 -2.5107
3807 1 -8.37465 20.2497 -19.1277 0.735257 -4.29074 1.28073
3808 1 6.96437 -13.3954 -21.7469 1.51648 -1.2454 -3.43726
3809 1 4.54871 -22.9021 -19.6468 -6.01449 1.72682 -0.791094
3810 1 -18.0429 -3.88506 12.8536 1.58517 3.25166 1.00641
3811 1 14.5148 -13.1322 23.7065 5.2354 -1.91126 -2.4943
3812 1 -4.17925 -16.7123 0.0350192 3.94468 -3.61228 0.395393
3813 1 18.2816 4.32402 -1.03167 -1.12315 1.18418 -2.62723
3814 1 3.28653 8.52463 10.5843 0.300759 -0.902221 0.580046
3815 1 -0.422667 18.7628 22.4595 -4.57664 -0.991581 0.514063
3816 1 -14.8185 -8.73157 2.05316 -1.96486 0.386272 -0.640894
3817 1 7.27516 8.75407 -1.89613 1.08536 1.36447 2.60659
3818 1 12.2116 15.474 23.8624 1.48998 1.58006 3.71591
3819 1 4.56477 22.184 14.9307 -5.70961 2.88533 5.89002
3820 1 23.3666 12.2881 -6.85165 -1.4942 -0.965898 3.52423
3821 1 10.8445 -11.7789 13.9015 -1.2229 -2.65755 -1.67819
3822 1 9.62674 7.11773 8.01431 3.52549 -0.673498 -1.46655
3823 1 -5.56779 -18.7687 -8.37147 -2.62759 1.78923 2.80423
3824 1 -8.88972 -24.4516 -6.06858 2.18209 4.33658 0.106617
3825 1 21.3753 -13.2882 11.1891 2.55743 2.34366 -4.87345
3826 1 -1.08447 17.443 -15.1304 -4.71669 -0.478145 2.60635
3827 1 0.496283 7.01743 19.7077 -1.05844 1.13406 -0.966281
3828 1 -17.4944 18.5193 -18.2342 1.59063 0.184512 1.66316
3829 1 -13.5035 -17.6422 -5.99189 -2.56385 -4.1509 -6.24976
3830 1 14.1443 -11.1654 -12.4826 3.58613 -1.82138 7.83439
3831 1 -3.85385 22.2587 -0.268285 -1.04667 2.28323 -2.15004
3832 1 22.3293 -0.87116 3.8311 -3.90217 -1.63371 -0.654056
3833 1 19.3848 -1.51661 -11.4449 3.03648 -2.30129 1.25255
3834 1 7.17649 5.24173 4.02748 -6.64882 6.83096 -5.46563
3835 1 21.8574 -23.24 -2.89638 2.65856 1.30294 -2.74569
3836 1 21.7521 13.1246 1.50255 3.71663 2.79918 -0.535201
3837 1 10.4377 14.0103 4.19156 1.71726 2.31275 1.07302
3838 1 -6.17216 4.14094 -4.06481 -0.990936 -1.05625 -2.10374
3839 1 20.0844 6.83569 1.90438 -2.55745 0.712913 -1.87706
3840 1 -10.6502 -21.1032 12.1593 2.72103 0.614641 -1.191
3841 1 21.7076 3.04401 10.6968 -0.414245 -0.938551 -2.9833
3842 1 23.3354 1.922 21.5653 3.61165 -0.46843 4.54969
3843 1 -1.57469 -16.8861 14.508 0.128015 -6.55032 3.10366
3844 1 -22.2568 -14.0665 6.60381 -1.53265 3.1048 -11.1226
3845 1 -3.27593 5.21871 -22.882 -7.9229 1.69139 0.876295
3846 1 -22.5092 20.2643 19.8958 -3.19723 -1.77784 4.27521
3847 1 -16.8544 -16.6782 -15.3648 -2.5117 4.73775 3.68216
3848 1 5.82501 -15.7664 7.39004 -1.18612 -2.76594 -3.28397
3849 1 18.1113 12.0681 -21.7758 0.720567 4.33127 -1.62161
3850 1 20.65 -19.7117 21.8699 -2.29952 -0.460234 -3.56433
3851 1 -2.3632 6.73062 -2.32339 -2.80694 -3.61693 2.4218
3852 1 -4.79212 18.523 16.3938 5.96751 2.12619 -3.71395
3853 1 19.7394 -14.1701 3.33022 2.294 1.39567 1.17985
3854 1 17.702 13.152 -3.27245 0.911226 -0.530305 0.618122
3855 1 -3.92648 -6.22253 23.4631 -1.26258 1.53699 2.62517
3856 1 13.7951 -19.2141 -3.94335 1.8878 4.15691 0.527953
3857 1 -13.0545 -23.9541 -11.2979 0.751829 -1.38147 2.18352
3858 1 15.3741 6.95678 5.65097 1.04081 -0.0277638 2.54029
3859 1 21.616 20.8917 10.0677 -3.62543 -1.65324 1.65138
3860 1 14.1354 -16.7288 -14.9962 2.52132 -3.92556 -0.792622
3861 1 -17.4229 -14.2213 20.8429 3.37689 -4.1022 -2.06631
3862 1 -4.45027 0.979824 -18.5271 1.18123 5.23194 1.28261
3863 1 -13.3192 -3.18887 14.2 3.08198 3.56444 1.15947
3864 1 -5.04658 -2.53357 -14.7489 -0.515371 0.390705 1.01607
3865 1 1.52788 -23.3482 15.342 -5.92355 -0.00935077 1.96334
3866 1 10.441 -14.1467 7.45891 4.42424 -3.35933 0.868906
3867 1 23.4333 1.34312 2.31629 -1.84114 -0.519366 -1.47825
3868 1 5.76975 6.199 -1.924 -3.15813 3.65041 -2.83992
3869 1 -9.19193 5.19468 8.98799 2.18705 2.34442 -0.942896
3870 1 15.5031 -19.2968 -10.058 1.98336 -5.00462 2.21986
3871 1 17.8483 -0.336078 19.7421 -1.79232 0.909274 -6.4096
3872 1 21.829 -23.4906 -8.17578 -0.664271 0.535567 -0.851528
3873 1 -4.24771 6.14056 13.4635 1.57167 2.9114 -1.00147
3874 1 -19.6562 -23.4836 -16.8988 -1.47837 -4.06251 -2.8693
3875 1 -23.6718 -0.402091 6.10785 -1.30355 3.29657 -1.42437
3876 1 -22.7326 -10.773 20.3666 -0.790574 -3.63442 3.16366
3877 1 -21.4768 3.3182 -4.58323 -0.501011 -1.20959 -2.45949
3878 1 8.85301 -16.354 6.83911 -0.275733 3.7677 2.07483
3879 1 18.1111 -13.9422 23.1822 -2.23203 -3.21841 -1.97191
3880 1 -7.80927 16.8954 23.5281 -8.02172 1.11967 -2.68401
3881 1 -14.6483 0.344381 -14.5631 -3.98585 -1.15907 -2.13691
3882 1 22.4818 18.9586 -3.09353 -2.74253 0.103316 -1.60358
3883 1 21.5354 14.8124 -11.3167 1.89924 2.34045 1.81763
3884 1 12.6182 -18.8614 -7.23411 -2.84339 -1.79946 1.39966
3885 1 12.6585 24.9873 15.0069 -0.729606 -1.40266 -4.91267
3886 1 -11.9696 -15.0179 -6.19015 0.521207 -1.64188 -2.05901
3887 1 0.836802 -11.122 -19.9895 0.422971 0.579215 -0.487184
3888 1 -4.9287 5.62628 -19.0257 0.869225 -1.75247 3.07658
3889 1 -16.1548 16.2754 19.2994 -2.34727 -4.18612 -4.65412
3890 1 1.14218 19.5536 15.0327 5.96035 0.236604 4.17536
3891 1 6.22864 -15.2682 17.7468 -0.321033 -0.212479 1.48956
3892 1 -12.3482 23.4136 6.81164 -3.07939 -3.11262 -1.1237
3893 1 -6.86127 11.3023 11.7951 2.49219 3.30158 3.15566
3894 1 10.8098 11.0001 -13.3738 5.22908 5.1928 -3.43145
3895 1 14.5422 -5.5626 0.472077 0.47499 -1.59473 0.122953
3896 1 -8.61421 -9.65382 -1.68684 -1.75611 -2.07482 3.04191
3897 1 6.48372 12.0045 22.9412 0.544767 -1.68678 -5.72306
3898 1 17.0676 -2.3872 17.702 1.20967 -0.696067 -4.81475
3899 1 5.92888 8.16929 17.2168 -2.34454 0.596368 3.25827
3900 1 11.4281 -17.4812 -13.7338 -0.912516 -0.102626 2.42568
3901 1 -16.5659 13.7197 -12.587 -2.59796 4.99538 -0.507805
3902 1 12.6433 12.5682 -5.03259 -0.822714 -1.34844 -1.59796
3903 1 -18.8308 -15.3761 3.01722 0.410523 1.50457 -6.03693
3904 1 10.668 -7.40492 -7.74246 2.46338 -4.73594 2.23703
3905 1 0.678389 -12.2514 4.78683 2.15886 -0.654742 2.29432
3906 1 -16.6511 8.23085 -8.94119 0.473529 -2.17315 1.22819
3907 1 -21.2322 0.717245 10.5452 -0.239006 -2.91218 -0.885952
3908 1 22.8188 -14.6263 14.7207 -2.91925 -2.47495 -2.11406
3909 1 1.53838 -10.5168 19.9509 0.832219 -0.469556 3.57704
3910 1 -6.25052 16.7011 -6.12464 -2.63376 3.93268 -3.91034
3911 1 20.1078 20.8547 0.267695 2.69749 -1.97024 -2.33369
3912 1 -7.35752 -8.90201 0.971268 1.9698 -2.43574 3.20791
3913 1 -7.65906 5.83097 -0.129687 -0.502728 -0.994184 -3.05285
3914 1 11.7681 -12.1954 -5.39164 -0.78544 -1.88205 2.48968
3915 1 5.77777 -2.74551 8.29875 3.33049 4.29826 1.28891
3916 1 22.2081 -12.055 23.8407 -2.08461 2.56778 1.08608
3917 1 1.73352 -5.75233 -8.3898 -3.55498 2.67006 0.286
3918 1 12.2845 10.7996 -17.5132 -4.07718 -2.36118 -0.705127
3919 1 8.11061 -13.9636 19.242 -2.33132 -2.10898 -0.749316
3920 1 -11.3175 11.1538 18.1648 -0.334446 -0.578927 0.932634
3921 1 17.6372 7.12098 -17.2805 2.58101 -2.075 0.68054
3922 1 -16.1771 -15.5369 -18.2695 0.459593 -0.551143 -3.16263
3923 1 -22.1821 3.99395 -10.5737 0.0937409 -0.412546 2.28369
3924 1 -9.9548 -5.8571 10.1814 -3.23849 1.53055 -3.0945
3925 1 -22.7945 5.18276 2.95495 -3.66766 3.82288 -1.31811
3926 1 9.22 -3.69218 23.505 3.5373 -3.81603 4.50617
3927 1 12.725 17.6072 -1.9345 -0.553923 1.62113 -2.0908
3928 1 -17.9545 17.0001 23.529 0.585018 0.275359 -1.23219
3929 1 -1.70135 11.5551 -7.97486 -1.23445 5.10285 -3.46465
3930 1 14.1 20.2573 0.505917 -3.33362 -3.64053 -2.14413
3931 1 -1.38375 9.85122 2.43299 -2.76249 2.3461 6.05347
3932 1 22.2354 5.75828 11.8125 0.633508 4.69994 1.1067
3933 1 -2.8478 -9.46317 21.113 -3.38691 -0.975279 -3.52865
3934 1 22.0337 2.88646 -13.1909 -1.34306 2.55393 0.951147
3935 1 11.82 -13.3729 -19.545 1.32629 1.22804 -1.5241
3936 1 -0.222097 -22.2176 22.1568 2.85741 3.05983 -2.6844
3937 1 13.9133 -15.5833 -20.5948 -1.23098 1.50279 1.85759
3938 1 20.0094 12.9735 19.3378 -4.78336 0.191395 -3.74776
3939 1 22.9399 -1.85301 14.5816 2.7642 -2.96945 -1.41992
3940 1 -2.72181 23.0414 -8.66845 -2.13325 -0.822934 -4.18202
3941 1 -18.0764 2.1839 23.867 0.0346854 1.16209 0.632469
3942 1 10.0663 -21.9446 16.0923 3.86284 2.50927 -0.297556
3943 1 -20.8236 -20.1842 1.43071 1.61934 -0.797243 5.84706
3944 1 -12.7218 -8.87859 -13.0437 5.27307 -8.82731 -2.44531
3945 1 -21.636 -14.066 -15.9949 2.54276 -0.684741 -2.52451
3946 1 -6.37002 16.9462 9.6494 1.97782 -0.653714 2.89051
3947 1 -21.5399 10.204 -23.415 -2.97108 1.3543 -0.450473
3948 1 10.5853 16.371 -18.3176 -1.91333 -0.719319 0.278936
3949 1 3.96333 -13.4434 -12.4618 -0.717084 1.24737 -5.76761
3950 1 -6.06926 -0.755195 -21.035 -0.68975 -3.27116 -0.587323
3951 1 6.9339 2.67959 -14.0136 2.3321 -0.0106674 4.59926
3952 1 -5.00261 -5.72843 -17.7158 -0.44595 5.94154 0.638982
3953 1 20.2621 -18.6792 14.8571 -0.0804461 -0.251105 1.72623
3954 1 3.40743 3.89457 -16.461 3.38312 2.81338 -3.13585
3955 1 -6.8976 20.045 11.6094 -0.433035 -3.75908 0.722766
3956 1 -12.7024 12.9054 -4.96676 -0.204995 1.01353 4.83696
3957 1 18.6201 -22.415 -19.01 -1.61107 0.19986 2.66803
3958 1 -2.34435 8.00813 -4.92669 -2.27197 0.100678 -2.53392
3959 1 -20.7409 -6.08598 -20.4937 -4.46205 -1.30166 2.92053
3960 1 17.4114 -12.5717 -11.1318 1.3175 -0.764329 -1.02293
3961 1 -2.01613 -21.0802 -3.77594 0.0608305 0.829947 -1.83133
3962 1 3.49366 -13.442 4.75758 -2.15974 -0.82931 -3.44721
3963 1 -15.8212 -17.4738 -2.19192 2.59313 -3.23293 -3.04961
3964 1 9.53377 10.6157 15.8407 -0.743846 -4.14274 -1.87593
3965 1 -4.52213 1.61812 2.13419 0.120019 2.30861 4.4669
3966 1 -19.5722 19.0777 9.07003 1.43174 0.149055 -4.213
3967 1 0.9626 -6.53461 -3.81427 0.423181 6.72462 -2.28501
3968 1 -1.54092 4.02239 -3.93567 5.96376 -7.2704 3.10519
3969 1 16.6456 -22.2225 21.6426 0.782617 -1.59994 -0.785525
3970 1 -6.85005 20.1311 22.5897 1.20379 3.94615 1.73999
3971 1 -3.91105 -2.01537 20.7624 -2.06898 -1.06506 0.141059
3972 1 -4.83501 -8.81109 -11.2365 0.361482 -1.41463 1.24008
3973 1 -12.0651 -21.2808 -6.86006 -1.90279 -2.28633 2.26883
3974 1 6.97606 23.3259 13.8205 -1.23909 -3.42237 0.666482
3975 1 3.21088 1.02438 -17.0297 2.10164 -4.84418 -4.59429
3976 1 -4.30932 14.9284 3.20696 -2.41198 6.48725 -5.22446
3977 1 -9.59796 -17.5617 -19.1022 0.439457 3.23435 0.143662
3978 1 -1.21279 20.1122 -12.5643 3.15548 2.77869 -1.45065
3979 1 -10.0037 -22.9053 3.7205 -3.06812 -4.49736 2.29774
3980 1 -23.0807 -17.9076 -13.8593 2.3606 0.468988 -2.91351
3981 1 12.1598 -8.37659 5.01133 -1.87693 1.69762 -2.00156
3982 1 8.34804 -3.61627 -3.24061 2.10267 -1.42758 -4.09681
3983 1 -22.3255 8.79547 8.84544 4.56732 2.35675 -0.851694
3984 1 -4.56435 15.0142 -19.4012 2.06277 -2.39174 -3.19347
3985 1 -13.6919 20.7062 7.25654 1.50286 2.53888 -0.466213
3986 1 16.4093 19.8371 -15.3622 2.23659 -0.51206 4.49467
3987 1 12.3473 15.0931 18.1972 -2.62926 -0.181402 3.17203
3988 1 23.1164 19.552 19.2467 4.41437 -1.46227 0.120959
3989 1 -17.0188 -9.77311 -12.2457 -2.88949 -3.92991 -2.53289
3990 1 9.71814 3.79223 -22.4808 4.95659 0.815753 -4.30048
3991 1 -17.9187 7.31718 -23.3604 -5.43361 1.99285 -3.0846
3992 1 23.1119 9.37795 -3.5127 0.430015 -6.0819 0.839189
3993 1 -6.46919 -10.3782 -5.98953 2.95259 -0.0610168 2.4509
3994 1 -15.8963 -21.717 -21.4248 -0.38926 -1.9777 -0.345436
3995 1 5.37038 -23.5721 2.59442 -1.38113 6.11022 -3.99453
3996 1 4.72122 -13.7718 1.91316 -0.801402 4.94102 0.814764
3997 1 19.0931 -22.955 -11.0743 6.65359 0.172927 2.80986
3998 1 -11.6036 -4.87434 0.808256 1.12025 -6.89573 1.0057
3999 1 -8.11577 17.2816 11.8191 1.4991 1.88373 -0.74273
4000 1 -17.6338 10.8015 22.0222 -2.39306 10.4987 3.19118
4001 1 -10.8254 25.1845 -4.31933 3.587 -0.834322 -2.48289
4002 1 -10.1077 27.7564 -5.21365 -1.01224 0.596156 -1.02833
4003 1 -7.39765 27.7839 -4.68552 1.09035 -0.858257 -1.41528
4004 1 -5.88167 25.2284 -5.61385 -0.0649919 -1.29523 2.30359
4005 1 -10.0162 25.08 -9.28652 -0.613671 1.02486 -2.82323
4006 1 -11.2845 28.1388 -7.72424 -0.543877 -2.72449 -1.16355
4007 1 -8.7166 27.5256 -9.18427 1.6359 -0.438002 -1.72271
4008 1 -7.14209 24.9009 -8.50983 0.199207 -0.705979 -2.35973
4009 1 -10.5326 25.4162 3.68928 -5.89066 -1.84836 -3.43113
4010 1 -9.44782 27.4977 2.22659 0.422284 2.36587 -1.5073
4011 1 -6.74688 27.9434 3.18848 -0.682477 -0.778616 -4.82665
4012 1 -5.18136 26.126 1.98736 1.91081 -0.210539 -3.33034
4013 1 -10.1423 24.9335 -1.43647 0.791011 -2.01246 3.99752
4014 1 -9.32254 27.4377 -0.604763 -1.45191 -1.48944 -0.422859
4015 1 -6.78578 27.726 -1.79015 3.69697 -3.98151 1.32507
4016 1 -4.79315 26.1896 -0.884604 -0.187984 0.515372 5.07456
4017 1 -9.43927 24.9289 10.7257 -3.01527 3.372 2.33644
4018 1 -8.61865 27.7144 9.95464 -0.797481 -4.00813 3.50296
4019 1 -5.98298 27.5446 9.83475 -2.94357 1.59199 7.01248
4020 1 -4.49916 25.776 8.44451 -0.473632 2.18915 0.86807
4021 1 -10.9628 26.0301 6.53859 -6.864 -1.53252 0.74087
4022 1 -8.9389 27.9017 7.03959 -0.196907 -2.85491 -1.84286
4023 1 -6.43068 27.8253 5.96738 2.10926 4.69002 0.680708
4024 1 -4.90197 25.2724 5.6498 3.35224 1.85273 -1.70195
4025 1 -11.511 30.0874 -4.33438 -2.97484 -2.11324 1.55262
4026 1 -10.2218 32.6475 -4.45498 3.09295 1.33842 2.02597
4027 1 -7.54186 32.7269 -4.14305 -1.54488 -4.69649 -3.51962
4028 1 -6.44628 30.242 -5.46392 1.15486 -4.23993 -2.12218
4029 1 -12.905 30.3 -6.85698 -5.36322 0.814653 3.39475
4030 1 -11.1374 32.5871 -7.19873 -1.3748 2.14527 2.49096
4031 1 -8.31596 32.3543 -8.42369 0.4576 -4.58949 0.717101
4032 1 -6.93788 29.8005 -8.34887 3.29568 0.438826 1.72394
4033 1 -10.7311 30.0037 3.19972 0.378449 2.53854 0.288145
4034 1 -9.62863 32.5019 2.44718 2.84015 -0.707671 -0.831956
4035 1 -6.98325 32.5551 3.09657 0.262666 -2.24619 5.83592
4036 1 -5.7555 30.2387 1.89572 5.71841 3.68906 3.8781
4037 1 -10.9517 29.9675 -1.45435 1.78736 -4.05282 2.84786
4038 1 -9.8299 32.4702 -0.349464 -2.17515 0.0969032 -0.722828
4039 1 -7.00241 32.6494 -1.52389 4.76932 -4.64575 -0.991773
4040 1 -5.82256 30.3036 -0.865965 1.05328 2.45822 -8.82881
4041 1 -9.74328 30.1286 11.2 1.84764 -4.53317 1.37028
4042 1 -8.78278 32.1404 9.52832 -1.04622 -0.103597 -0.44167
4043 1 -6.06435 32.2677 10.1072 0.548639 0.50443 -0.310646
4044 1 -4.89906 30.0276 9.52435 -3.18391 2.16783 -4.51775
4045 1 -10.0788 30.2584 5.98275 -1.70216 -0.0806362 3.20797
4046 1 -8.89225 32.4336 6.96252 -3.1381 5.47737 3.78275
4047 1 -6.25196 32.2393 5.74249 1.49882 0.34417 -1.22299
4048 1 -5.05301 30.0623 6.59511 -2.6737 -1.41025 3.92333
4049 1 -11.3209 35.0473 -3.47933 -3.8996 2.95159 3.78901
4050 1 -10.3465 37.354 -4.5519 -1.51566 -3.53533 0.475989
4051 1 -7.57246 37.2474 -3.83968 1.92333 0.735768 0.427163
4052 1 -6.24271 35.0236 -5.15941 -3.31437 4.59737 -0.00473908
4053 1 -12.2645 35.0477 -7.9737 3.1595 -1.37315 4.85141
4054 1 -10.8349 37.2236 -7.14618 -6.14338 2.50632 1.44316
4055 1 -8.36269 37.0048 -8.41428 1.45001 -2.4771 -4.65757
4056 1 -6.8209 34.626 -7.92502 -1.26886 -4.60447 -0.125446
4057 1 -10.7618 34.8069 3.20014 0.481487 -5.24852 -2.09114
4058 1 -9.52249 37.2079 2.86927 -2.10401 3.89195 4.368
4059 1 -6.85525 36.9933 3.39146 0.0926821 -2.00011 2.56269
4060 1 -5.55315 34.821 2.33549 3.5564 2.68485 0.114038
4061 1 -11.0068 35.1205 -0.919011 -1.696 -4.99506 -3.15307
4062 1 -9.58843 37.2857 0.188958 -0.158539 -2.87635 2.66168
4063 1 -7.13071 37.0644 -1.19111 -2.31943 3.46922 -2.36691
4064 1 -5.72023 34.7771 -0.460386 -0.572804 1.00156 2.0699
4065 1 -10.2201 34.3795 10.3548 2.60882 -0.287585 -3.74159
4066 1 -8.81948 36.888 10.0145 1.67666 -4.32809 0.291481
4067 1 -6.03773 37.084 10.4189 2.2929 -0.584194 1.21892
4068 1 -4.89181 34.676 9.59873 2.41172 -2.00629 -1.43786
4069 1 -10.3105 34.8666 6.14258 0.580528 0.0266826 3.38939
4070 1 -8.99853 36.9163 7.20437 0.69669 -1.50356 -0.299607
4071 1 -6.38629 37.0453 6.1684 5.76901 2.45936 0.50586
4072 1 -5.11642 34.4767 6.87589 -0.572756 -3.2118 -0.778059
4073 1 -11.3831 39.4929 -3.4621 3.4268 -6.79902 -2.84999
4074 1 -9.97932 41.5837 -4.62244 5.2445 -1.34298 6.92624
4075 1 -7.38338 41.631 -4.02195 -0.442861 1.48618 5.00914
4076 1 -6.13571 39.4053 -5.02328 5.16857 1.34397 -0.295924
4077 1 -12.2046 39.5683 -8.00513 1.19529 -2.4774 0.98114
4078 1 -10.6736 41.7668 -7.36955 4.03837 -1.57115 -4.02764
4079 1 -8.11892 41.9043 -8.4947 -2.16936 2.73636 -3.78409
4080 1 -6.91233 39.4655 -7.79295 2.26944 -0.656194 -2.02022
4081 1 -10.2147 39.568 4.01516 2.4971 1.27752 -0.97932
4082 1 -9.37789 41.8496 2.87067 -0.925871 -0.0376269 3.97905
4083 1 -6.6773 41.6026 3.61165 0.622691 0.585216 5.99195
4084 1 -5.41388 39.3498 2.60661 2.90804 0.0563367 -0.715303
4085 1 -10.6955 39.5499 -0.675048 -2.76983 -0.337922 1.45395
4086 1 -9.37839 41.9618 0.157505 -4.83034 -0.356643 -0.0452874
4087 1 -6.74604 41.6425 -1.2875 0.660269 -1.05059 -4.03836
4088 1 -5.43879 39.3901 -0.453346 0.655842 -3.4307 -0.57101
4089 1 -10.1677 39.1909 10.4404 -1.94987 1.66009 -1.55936
4090 1 -8.56206 41.33 10.5176 0.824291 -0.314508 3.24097
4091 1 -5.69909 41.4917 10.9403 -0.0975618 2.08091 -2.25208
4092 1 -4.68035 39.3975 9.66816 2.20983 4.65889 2.77339
4093 1 -10.4309 39.5089 6.71342 -1.58757 -6.75667 0.0245877
4094 1 -8.69531 41.3904 7.75652 -1.70179 -3.39942 5.48177
4095 1 -6.43858 41.7651 6.23494 1.90681 -0.458728 -0.575717
4096 1 -4.91377 39.4959 6.97863 -0.925526 2.64164 -4.42975
4097 1 -10.0365 44.3547 -3.72535 -4.48988 -0.507917 2.44795
4098 1 -11.3644 45.9055 -5.65869 -1.08153 -1.20427 0.28699
4099 1 -7.58117 45.8211 -3.87278 -1.27468 1.51596 4.88303
4100 1 -6.19498 43.6739 -5.03299 -1.69255 1.10792 -0.45511
4101 1 -11.2171 44.3059 -8.0495 -4.07379 -2.83663 1.69881
4102 1 -8.86698 45.8328 -8.32877 -1.79183 0.161989 2.81328
4103 1 -8.6801 -24.2304 -10.185 -1.11922 -3.03499 -2.21028
4104 1 -6.60504 44.1244 -7.80416 2.56184 3.98755 0.775703
4105 1 -10.7025 44.103 4.36625 1.23645 0.626618 3.05252
4106 1 -9.56267 46.5204 3.18852 1.72754 10.4529 0.821097
4107 1 -6.96653 45.774 3.90407 1.37575 -1.90916 0.370831
4108 1 -5.32277 44.022 2.67574 -2.01923 4.08985 -2.74895
4109 1 -10.7575 44.2324 -0.877133 0.272976 -2.39945 -1.5677
4110 1 -10.1262 46.4897 0.25986 2.38654 -2.27731 -5.48052
4111 1 -7.44376 46.0541 -0.875917 -1.01361 2.86932 -0.966612
4112 1 -5.55671 44.0511 -0.259671 4.99524 2.46371 7.71274
4113 1 -9.21964 43.3461 12.1789 -1.18827 -4.38002 1.81254
4114 1 -8.22072 45.5482 10.7628 2.68809 -0.182934 -1.05823
4115 1 -4.4977 46.218 10.7821 -3.15474 1.95001 0.962344
4116 1 -4.20823 43.6135 10.0037 2.19881 2.52316 3.27798
4117 1 -10.4047 44.0726 7.13478 2.67875 4.15449 -1.41042
4118 1 -8.79819 46.1107 8.03632 2.86231 -5.54388 -0.285021
4119 1 -6.23555 45.9401 6.60324 2.07247 -1.03699 -1.91602
4120 1 -4.73808 43.5918 7.34288 -3.3318 -7.23386 1.53156
4121 1 -2.90552 25.068 -5.57275 -4.72891 5.77185 3.55137
4122 1 -2.56001 28.0699 -5.75645 0.684907 0.170015 4.28763
4123 1 0.245966 27.8976 -5.00633 -4.29449 0.191968 0.0476981
4124 1 -0.131506 25.3977 -6.39403 7.24063 -3.3883 -2.23994
4125 1 -4.20741 25.359 -8.17975 0.880537 -4.95625 5.92606
4126 1 -2.88545 27.8191 -8.76233 0.451434 1.73028 2.37423
4127 1 -0.13673 27.8917 -9.70918 -3.04579 0.295797 2.70967
4128 1 1.10761 25.4731 -9.16962 2.97325 -0.88601 2.07693
4129 1 -2.55221 25.6434 2.92603 -2.93499 -0.767004 1.31654
4130 1 -1.62024 28.0921 1.8028 1.74584 -4.06232 -3.1812
4131 1 1.35162 27.6703 2.14318 5.76654 2.22283 0.821953
4132 1 2.64297 25.2448 1.09055 -3.1881 -2.61094 -2.48022
4133 1 -3.2558 24.7993 -2.75831 1.65502 0.700901 1.75921
4134 1 -2.42842 27.8134 -0.926206 4.28137 7.67936 0.961333
4135 1 -0.0100149 27.5778 -2.13581 5.13888 3.21778 -3.93199
4136 1 1.00391 25.31 -1.11214 -1.02446 1.1869 -4.0423
4137 1 -1.46261 25.1233 8.75948 -0.861018 3.03832 2.49475
4138 1 -0.609259 27.6688 8.6528 0.524193 2.85865 3.67213
4139 1 1.95085 27.8763 9.67229 4.11032 -2.87979 3.04403
4140 1 3.176 25.5643 8.74848 -3.3461 -2.84509 -0.966528
4141 1 -2.10841 25.1823 5.73989 1.53421 3.80898 -2.8458
4142 1 -1.2242 27.7464 5.97993 -1.42534 2.22064 -1.15785
4143 1 1.47203 27.7784 4.89477 -4.38131 3.039 -0.400878
4144 1 2.70179 25.6212 6.09834 1.31096 0.735223 -1.56457
4145 1 -3.80387 30.4005 -5.00169 -1.85934 6.05173 -6.82687
4146 1 -2.53743 32.7792 -5.83566 -2.19534 -1.93362 -1.74671
4147 1 0.105349 32.5637 -4.92324 1.64927 0.328788 2.14605
4148 1 1.23543 30.2641 -6.19791 6.87676 -1.85244 0.995617
4149 1 -4.43481 30.0338 -9.42613 -3.2367 -5.03575 1.51395
4150 1 -2.9003 32.1931 -8.5814 -2.86068 -4.53353 0.718098
4151 1 -0.258401 32.24 -9.21693 1.42826 0.0667823 0.274407
4152 1 1.39167 30.0501 -9.09029 -1.85926 -0.388924 1.71085
4153 1 -3.03411 30.4194 2.57471 0.661906 3.99614 -1.78159
4154 1 -1.48059 32.6051 1.74104 3.33225 -3.58167 -2.17062
4155 1 1.22395 32.1277 2.27776 2.79363 -2.29287 1.33891
4156 1 2.29622 29.9733 0.899669 1.72439 0.956208 -0.788357
4157 1 -3.3225 30.1431 -2.07552 0.584507 -1.82185 -0.618261
4158 1 -1.93417 32.3555 -1.1591 4.69225 -1.03968 5.26155
4159 1 0.671522 32.3495 -2.21877 0.99367 4.53856 -2.40329
4160 1 1.86445 29.8079 -1.87921 -1.77252 1.58121 -3.61801
4161 1 -2.12325 29.6786 9.41582 0.0410903 -2.04045 3.76468
4162 1 -0.714922 32.1631 9.1361 -2.55561 1.52113 -0.584178
4163 1 1.89092 32.4211 9.39606 -1.39081 -2.90647 -3.20779
4164 1 3.28878 30.1485 9.01787 -4.58166 -2.85829 -0.458474
4165 1 -2.44196 29.9903 5.29967 0.945381 -2.31134 3.15074
4166 1 -1.01909 32.2098 6.26012 -1.59881 2.0283 -5.00255
4167 1 1.54609 32.2909 5.05994 -7.40175 5.71427 0.398369
4168 1 3.0656 30.1741 6.20735 -2.99421 -0.286478 0.134165
4169 1 -3.52517 34.9417 -4.49182 0.664455 1.85582 1.25339
4170 1 -2.44344 37.1493 -5.73737 1.58026 2.78332 1.54117
4171 1 0.212313 37.0124 -5.03468 -0.623462 1.12781 1.5416
4172 1 1.5778 34.6531 -5.8544 -2.69127 -0.252216 0.556931
4173 1 -4.30293 34.4969 -9.29537 -0.931133 -2.25876 -4.43835
4174 1 -2.78362 36.768 -8.60767 -0.921181 3.25889 1.25243
4175 1 -0.273922 36.71 -9.67047 3.16926 3.20775 -1.31901
4176 1 1.39844 34.6684 -8.71819 0.671405 2.85612 0.930705
4177 1 -2.85293 34.5962 2.92599 -0.757372 2.79803 1.91881
4178 1 -1.66315 36.9191 1.91091 -2.16165 -5.10373 -1.72072
4179 1 1.00952 36.8435 2.616 -0.628556 3.21292 -2.87615
4180 1 2.22813 34.6802 1.46216 -3.08994 0.839827 -1.77412
4181 1 -3.25699 34.7638 -1.67888 4.35729 0.399802 4.58848
4182 1 -1.84683 36.919 -0.816881 3.19063 2.62575 4.9175
4183 1 0.543038 36.8811 -2.27682 1.44698 0.697894 2.39001
4184 1 2.42169 34.5215 -1.33541 -4.73599 -1.45584 1.79933
4185 1 -2.18584 34.3146 9.86365 -1.36677 4.35843 3.46286
4186 1 -0.929061 36.7084 9.09257 -5.66943 -3.47974 1.76296
4187 1 1.68974 36.8353 9.44142 -0.334093 -2.46494 7.50702
4188 1 3.36582 34.7375 8.6273 2.10178 2.47493 2.72923
4189 1 -2.52632 34.4768 5.79112 1.71549 -1.72566 -3.60471
4190 1 -0.988801 36.6798 6.45341 1.41646 -3.83787 -0.71626
4191 1 1.51877 37.0089 5.39639 -0.603837 -0.190211 -0.527467
4192 1 2.77687 34.6695 6.02974 -0.962463 4.41347 -0.2945
4193 1 -3.43564 39.414 -4.49516 -2.26209 1.8135 -3.08403
4194 1 -2.07006 41.5653 -5.42105 4.44464 -0.664209 0.917922
4195 1 0.836827 41.1279 -5.18863 -2.12978 -3.47103 4.47446
4196 1 1.84342 38.9526 -6.23293 6.16616 -5.73233 2.37464
4197 1 -4.38874 39.1244 -8.72755 -3.36978 0.271822 -4.50761
4198 1 -2.85069 41.609 -8.01665 6.00277 2.10726 -2.36177
4199 1 -0.220409 41.438 -8.82691 -1.83947 -2.70675 -1.67548
4200 1 1.12499 38.9738 -9.07369 -6.3802 -4.15778 4.32477
4201 1 -2.53295 39.2755 2.90974 1.64644 -3.73549 2.01425
4202 1 -1.54984 41.8709 2.04181 -1.07727 0.470506 0.0518338
4203 1 1.30831 41.3889 2.72979 1.25494 5.35509 -2.74438
4204 1 2.19524 39.0739 1.63967 2.45535 1.81966 1.01203
4205 1 -2.99918 39.2942 -1.69265 -0.443146 3.836 0.325683
4206 1 -1.64396 41.6132 -0.92716 -2.53214 0.761015 -3.87661
4207 1 0.883734 41.4899 -2.37264 -2.6381 -0.212531 -0.832594
4208 1 1.86374 39.1737 -1.05947 0.541583 -1.78101 0.328482
4209 1 -1.95318 38.9158 10.2426 4.03368 -1.32992 1.4446
4210 1 -0.744523 41.3227 9.28334 -3.29155 -0.831764 -1.87067
4211 1 2.01154 41.7118 9.11816 1.0288 -0.596937 3.04043
4212 1 3.13124 39.1382 8.93725 1.99587 2.09646 1.28845
4213 1 -2.42731 39.0653 5.62827 0.417688 0.663077 -3.53451
4214 1 -1.15104 41.2895 6.56925 -4.87185 1.25827 -2.13894
4215 1 1.21676 41.3173 5.32595 2.91757 -0.452874 -7.62001
4216 1 2.93688 39.2861 5.89605 -0.321136 0.144192 2.3556
4217 1 -3.45274 43.734 -4.11779 -2.22201 0.343844 2.83272
4218 1 -2.50968 45.9625 -5.77193 1.75123 -2.64428 2.09299
4219 1 0.24682 46.0928 -5.13889 -0.33653 4.95801 -0.973184
4220 1 1.70627 43.5988 -6.20422 5.58052 4.06627 -1.70926
4221 1 -4.04111 43.8527 -8.71207 -2.55459 3.86292 1.45403
4222 1 -2.47324 46.1 -8.53221 -2.65167 0.211192 -5.91394
4223 1 0.00300956 45.9386 -9.86976 2.7952 0.0886807 2.90612
4224 1 1.44934 43.5604 -9.06343 6.36235 0.636196 1.39451
4225 1 -2.52544 44.1944 3.36229 -4.19727 -4.30862 -0.462934
4226 1 -1.13152 46.561 2.29918 -3.64323 0.684293 -0.0965449
4227 1 1.57253 45.9756 3.03327 3.76118 1.55772 -0.143266
4228 1 2.43816 43.7996 1.48325 0.143248 4.93463 1.0087
4229 1 -3.00048 43.9369 -1.38981 5.84216 -1.98088 4.20679
4230 1 -1.59824 46.2011 -0.841177 -3.13909 0.567788 3.27341
4231 1 0.916878 46.2259 -2.22094 -2.10904 2.12925 1.88394
4232 1 2.33119 43.9395 -1.38392 0.240932 3.81973 -4.03535
4233 1 -1.60225 43.4939 10.6079 -0.412092 0.128422 2.0914
4234 1 -0.452324 45.9115 10.1098 -2.60536 -2.24507 3.60235
4235 1 2.1036 45.3753 11.2735 7.43587 -0.768833 2.07154
4236 1 3.60251 43.8267 9.5376 -0.255753 -2.12563 -8.29829
4237 1 -2.17344 43.8604 6.08673 4.15452 2.4846 -1.7937
4238 1 -1.46575 46.1257 7.57463 -1.48074 -3.86828 1.50269
4239 1 1.38191 46.0206 5.80976 2.8496 -0.308996 2.8662
4240 1 2.48267 43.439 6.64527 -7.03156 -2.28372 -2.7921
4241 1 2.9862 27.3048 -4.72852 -0.739953 -0.941053 -6.47809
4242 1 5.63615 27.4048 -7.01319 -0.0823076 -1.17321 -2.38
4243 1 8.55092 27.3352 -6.08291 -1.57359 1.92238 0.0755961
4244 1 9.82918 24.6906 -6.35191 0.814684 1.78694 1.18362
4245 1 3.91173 25.2435 -9.89641 0.536263 7.58209 -6.22262
4246 1 5.75004 27.5635 -9.68935 0.50796 2.50131 2.99293
4247 1 8.54855 27.3877 -10.7158 -3.26802 -2.92426 4.47515
4248 1 10.191 25.8725 -9.05784 -2.12183 2.52752 -1.45836
4249 1 5.11074 25.5625 2.04236 0.817771 -1.77706 -4.06088
4250 1 6.2399 27.9331 0.709431 -0.0797296 -1.45054 -1.6879
4251 1 8.83673 27.9158 1.52412 -2.22205 -3.31119 -1.68857
4252 1 9.61993 25.5176 0.263802 1.81565 1.29799 0.105004
4253 1 3.53318 25.8341 -2.29959 3.05543 -0.994958 -4.37924
4254 1 5.72725 27.7692 -1.89428 -3.48274 3.42189 3.51734
4255 1 8.07863 27.7829 -3.22797 3.91459 1.74638 -2.3289
4256 1 9.80765 25.9041 -2.49362 3.24938 0.735623 1.09941
4257 1 5.83836 24.8687 7.98293 1.18061 -2.62392 -0.100498
4258 1 6.88997 27.4749 8.62191 -0.817685 3.23347 3.36751
4259 1 9.62937 27.5741 9.76062 1.16881 -3.09853 -0.949274
4260 1 11.1539 25.8537 7.92846 0.922149 -3.98044 7.01588
4261 1 5.33714 25.4217 5.04486 4.65955 -2.25415 -0.25521
4262 1 6.8277 27.6404 5.68778 -4.80622 5.78558 -1.21383
4263 1 9.45567 27.6486 4.37352 1.44984 -2.30293 -3.26154
4264 1 10.8188 25.4431 5.09963 6.00864 1.35318 0.674505
4265 1 4.161 29.791 -5.70049 1.65845 -2.63067 -2.42824
4266 1 5.59101 32.2757 -7.00455 1.896 4.18183 0.862384
4267 1 8.24058 32.2522 -6.10743 0.173001 1.43728 4.30346
4268 1 9.26191 29.8764 -7.12913 0.580197 -3.17638 0.19406
4269 1 4.01415 29.7725 -9.91145 -4.32975 -1.20353 0.49761
4270 1 5.32068 32.263 -9.83201 -1.8256 4.26521 -3.70518
4271 1 7.71681 32.5229 -11.0751 -4.64855 -1.2404 4.9847
4272 1 9.07117 30.1522 -10.141 -0.12159 -0.59435 0.8437
4273 1 5.0955 30.1568 1.87438 3.02628 0.89476 -0.997724
4274 1 6.45557 32.3164 0.820413 6.96683 0.391778 -1.59915
4275 1 9.22183 32.4039 1.56671 -5.49607 2.37085 -1.60406
4276 1 9.94814 30.0757 0.286296 -1.42663 -0.527364 1.56996
4277 1 4.50662 29.9295 -2.94585 6.80532 1.38621 1.28951
4278 1 6.06826 32.1971 -1.91519 -6.94738 -2.03209 -1.82344
4279 1 8.54704 32.4649 -3.41115 0.595013 0.741844 1.45236
4280 1 9.35131 30.0976 -2.32539 -0.488947 -1.17555 3.31042
4281 1 6.01763 30.1317 8.99388 -0.441552 2.88173 4.37725
4282 1 7.37618 32.3866 8.53064 -5.17756 3.80582 2.31151
4283 1 9.90097 31.9969 9.39006 -0.089579 -3.54457 3.14108
4284 1 11.1537 29.7522 8.54355 0.293697 0.700695 2.04355
4285 1 5.51949 29.9783 4.55085 2.01782 -0.460928 -3.73972
4286 1 6.53155 32.4217 5.66112 -1.59724 1.86965 1.87273
4287 1 9.49508 32.2546 4.34398 3.00443 -2.11079 2.639
4288 1 10.479 29.9525 5.67299 4.92209 4.53305 -7.52922
4289 1 4.27852 34.4846 -5.72333 -2.10389 1.98672 1.21495
4290 1 5.56614 36.8125 -6.53335 2.06678 -2.2378 2.22093
4291 1 8.2211 36.8414 -5.74864 0.938594 1.33199 -0.495025
4292 1 9.28855 34.737 -6.9032 6.61937 1.1878 -0.622321
4293 1 3.93603 34.7761 -10.0965 0.952655 -0.716448 2.75613
4294 1 5.45367 36.8643 -9.25096 5.02953 3.11747 1.45083
4295 1 7.82195 37.0702 -10.4732 2.76396 1.80394 -0.264926
4296 1 9.07226 34.6821 -9.69405 -2.13605 2.17632 -2.94679
4297 1 5.05203 34.702 1.78534 -0.0401523 -0.801236 3.98555
4298 1 6.1828 37.1021 0.921457 -10.5197 -0.125834 -3.23137
4299 1 8.85455 36.8365 1.54786 1.25662 -0.779708 3.61652
4300 1 10.4181 34.7674 0.449908 3.20525 3.18408 5.725
4301 1 4.72693 34.7054 -2.8146 -0.465646 0.197281 2.13434
4302 1 5.7787 37.0813 -1.80333 5.23474 -0.148554 -0.41551
4303 1 8.17324 36.7194 -2.91924 1.23322 0.774525 0.0693605
4304 1 9.77307 34.6246 -2.22244 1.80169 4.99911 -4.77723
4305 1 5.99238 34.6568 9.31942 -4.0144 -0.0332052 0.0951382
4306 1 7.45153 36.7522 8.53161 4.83796 5.07979 -5.00354
4307 1 10.1647 36.7225 9.21595 3.824 0.13298 -1.42773
4308 1 11.0769 34.2639 8.3413 2.81834 2.26931 -1.20572
4309 1 5.51961 34.7701 4.70958 0.823701 1.09149 0.0113903
4310 1 7.02942 36.7147 5.75311 1.69147 -1.84397 4.08524
4311 1 9.48506 36.5632 4.24722 2.66449 6.51354 -2.48923
4312 1 10.8397 34.3402 5.52445 0.265222 -0.870645 0.0116137
4313 1 4.46236 39.1338 -5.52095 -2.78297 1.85183 5.85452
4314 1 5.77295 41.3098 -6.67042 1.56966 -1.34281 0.612988
4315 1 8.54507 41.756 -5.95583 0.68562 3.12558 2.58496
4316 1 9.37757 39.2152 -6.58861 1.69714 0.672466 -1.46651
4317 1 3.80756 39.094 -10.0849 2.59726 -2.08486 -1.72362
4318 1 5.50523 41.122 -9.3964 1.88138 4.37313 1.23268
4319 1 8.08499 41.1017 -10.2125 -0.30939 2.102 3.09964
4320 1 9.46798 38.9581 -9.28387 2.00311 5.56883 5.59652
4321 1 5.12389 39.5568 2.07252 0.671329 2.33875 4.34042
4322 1 6.30557 41.5485 0.614699 -0.203857 -1.22528 2.05665
4323 1 8.8326 41.4508 1.69401 2.63882 2.98096 2.10551
4324 1 10.0032 39.0527 0.4874 0.20321 -0.573573 0.0391051
4325 1 4.28841 39.1717 -2.80732 2.75835 5.43805 5.54227
4326 1 5.76648 41.3986 -2.11558 -3.6339 1.74177 3.22802
4327 1 8.31662 41.0528 -3.02625 5.41267 2.0518 -5.43351
4328 1 9.98756 38.8852 -2.29709 0.877104 0.96742 -2.97124
4329 1 5.9188 38.8827 9.12366 -1.199 -0.25339 2.03326
4330 1 7.36313 41.0594 8.47451 -0.217454 -3.69195 -1.687
4331 1 10.3376 41.1788 9.20845 0.349108 2.25138 -0.023367
4332 1 11.1529 38.8923 7.82617 1.86397 2.70022 1.89177
4333 1 5.58047 39.1749 4.98431 -1.12195 3.15266 -2.71207
4334 1 7.03938 41.553 5.59087 -2.64912 3.78094 -1.17303
4335 1 9.59163 41.2407 4.51493 0.940163 -6.44234 -0.653134
4336 1 10.8349 38.9019 5.1018 0.912024 -0.324659 1.90078
4337 1 4.56164 43.5788 -5.61573 2.91136 -2.36091 -0.962485
4338 1 6.11625 45.2521 -7.22203 -1.04181 -0.2659 0.703513
4339 1 10.5041 46.169 -6.0382 -1.42273 -2.1317 1.81917
4340 1 8.78284 44.4936 -7.1628 1.87825 -2.91675 5.84378
4341 1 3.86876 43.2049 -10.1651 4.43044 2.47761 -0.494118
4342 1 5.18812 45.6207 -9.8812 -2.5529 1.0966 -2.59306
4343 1 7.68221 45.6641 -11.0107 8.59464 -1.79084 -2.8687
4344 1 9.2699 43.6839 -9.88024 -4.42101 -1.06101 0.521044
4345 1 5.15229 43.65 2.09483 0.509659 -0.506202 -1.61613
4346 1 6.59007 46.09 1.96948 3.47437 -0.879093 3.50733
4347 1 9.36883 46.4514 1.25796 1.98605 -4.02173 1.93438
4348 1 9.84703 43.6868 0.44375 -3.85007 -1.83343 -3.19647
4349 1 4.86953 44.0669 -2.81513 -0.432594 -0.781693 1.34442
4350 1 6.66283 46.1946 -2.81769 4.16643 4.37697 -0.454841
4351 1 9.54827 45.6741 -3.45424 3.27171 -0.127416 1.61212
4352 1 10.4085 43.1066 -2.12559 -0.431971 0.146161 -5.66032
4353 1 6.43903 43.3723 9.42417 -3.22341 2.54002 -4.79221
4354 1 7.92259 45.7297 8.61105 -2.00881 -2.31915 -0.0860334
4355 1 10.3703 45.3182 10.0139 -3.81411 -6.09493 2.08701
4356 1 11.6601 43.5748 8.53302 1.1538 -2.6923 0.849088
4357 1 5.09595 43.4266 5.20851 -1.94033 -0.919837 3.32656
4358 1 6.76599 45.7732 4.79399 -2.21262 -2.47204 -1.02122
4359 1 9.33812 45.8062 5.97905 0.177348 -2.5689 -2.83617
4360 1 10.5811 43.4589 5.95959 -0.951058 -2.05034 4.50293
