ITEM: TIMESTEP
2800
ITEM: NUMBER OF ATOMS
4360
ITEM: BOX BOUNDS pp pp pp
-2.4581648159188195e+01 2.3772484059188194e+01
-2.4760676464709569e+01 4.7277112064719603e+01
-2.4181165965932106e+01 2.4172964365932103e+01
ITEM: ATOMS id type x y z vx vy vz
1 1 -23.661 -20.2464 12.2752 -3.68264 0.0306177 -2.71898
2 1 -6.86532 15.2107 1.14644 2.96376 1.53747 2.62941
3 1 8.49695 -7.58446 -21.9399 5.48448 3.98321 -1.12074
4 1 1.62959 -2.43791 -7.5226 -0.628746 2.97744 0.336681
5 1 -20.2768 -20.3522 22.5306 -2.71298 0.349441 -2.33683
6 1 1.52025 15.9888 19.0687 1.47827 -0.909171 -1.03345
7 1 8.3509 21.1425 7.57199 1.9631 -3.97108 0.943359
8 1 -22.3947 -11.198 -15.3448 2.83389 -0.641724 4.44023
9 1 -14.773 3.54179 4.216 -0.94583 -4.58662 -0.902519
10 1 -1.6241 -6.05325 13.9154 -0.378806 -5.26993 -2.34374
11 1 4.39251 -11.0648 15.2993 -0.481438 0.653727 -1.52561
12 1 20.9968 -6.37136 -20.4896 -1.11229 -0.176675 -1.41443
13 1 -21.8619 -13.4085 15.9718 -5.39213 -2.27555 -4.31901
14 1 8.83681 2.35843 -7.88989 -2.82345 1.87161 0.413386
15 1 -3.43728 -1.23314 -14.4925 -1.68866 2.84271 0.501886
16 1 -20.3062 -0.653813 6.74532 3.0743 2.43662 -0.729865
17 1 17.0335 -8.83005 15.7899 1.77985 -2.8528 -1.19101
18 1 22.0134 24.4415 3.94796 1.96743 0.43508 -3.4352
19 1 -14.7481 23.5176 21.01 -2.47517 6.29097 4.30477
20 1 19.2418 4.15574 18.3065 -1.89411 7.7729 -1.15128
21 1 -23.6664 0.206178 11.7464 -0.654461 -1.3711 4.61022
22 1 -11.3041 -0.708126 -15.1089 -4.63692 -0.3258 0.0682849
23 1 -11.6252 -22.8435 20.8015 0.902976 4.045 3.88971
24 1 9.65672 20.2152 -4.38388 -1.57111 -0.790122 -4.78309
25 1 7.82214 22.9578 16.9841 -0.724782 -0.555358 -0.833114
26 1 -0.606802 15.4729 10.2282 -2.93742 -1.88962 2.52211
27 1 -18.5942 7.18136 -0.894615 -0.232606 -0.780133 1.64627
28 1 -20.74 3.88802 4.93949 -1.2119 2.97262 1.87086
29 1 -6.69669 -13.4396 -10.58 -1.18954 -1.60538 -2.61322
30 1 21.488 -0.208772 -23.0439 1.76932 0.571248 -3.02596
31 1 4.62249 -14.7506 -19.4499 1.89491 3.2593 1.0229
32 1 -10.0044 12.4899 -20.7038 -2.20921 -2.56417 2.70608
33 1 1.92038 0.0702512 -12.8722 7.25909 -4.27293 0.162508
34 1 -20.6622 -22.6732 14.3028 0.377872 -0.564725 -6.00445
35 1 19.5605 7.14576 12.9876 0.658358 2.66921 -0.799666
36 1 -13.4534 20.877 -16.8249 2.24469 2.05798 -1.73554
37 1 -10.568 -7.21252 -2.93329 -0.376378 9.15951 2.01375
38 1 19.7198 12.2382 9.18671 -0.355928 -0.466191 4.25785
39 1 -0.804734 9.62177 -22.6075 3.2437 -3.28827 -5.00262
40 1 1.42966 0.439078 -18.5772 -0.823152 4.80848 -0.792155
41 1 7.67128 -5.24479 -10.3489 -0.670854 -4.87371 -0.226859
42 1 -19.1022 -14.6215 1.48542 -0.558498 -0.127742 -3.81308
43 1 -13.0905 -4.60704 2.30602 5.55756 0.0555284 -1.69842
44 1 -2.55978 -17.9528 -8.74297 -1.1767 0.247566 -1.67039
45 1 -10.7652 12.7347 -3.66903 -4.82348 2.259 6.02126
46 1 -21.7717 -21.116 17.3628 5.53175 -5.62118 0.689816
47 1 -6.84692 4.55374 19.9155 -2.29545 2.12118 2.35503
48 1 7.7125 5.05582 -5.34431 -2.77526 1.59876 1.11594
49 1 23.3882 11.0709 4.83022 1.46558 -2.46742 1.22881
50 1 14.3584 -19.7173 12.9206 3.94987 -4.23774 -1.91749
51 1 -8.90638 -5.29502 18.1143 -6.00532 4.96367 3.20885
52 1 14.9508 3.76674 -14.3483 -0.665057 -2.32884 3.9345
53 1 -1.74959 21.2455 7.36615 0.122321 0.101259 3.61318
54 1 -16.2876 -12.5838 -11.6751 -1.71434 1.06968 1.47529
55 1 -5.04768 -1.68676 -17.1066 -1.20119 -1.04939 3.7359
56 1 -16.542 6.99563 3.24063 4.79339 -1.62499 -2.21642
57 1 -14.6816 -9.30114 -3.79786 -1.03362 -2.89626 2.51536
58 1 3.76764 -20.8824 -4.77786 1.1514 -5.85804 -1.52596
59 1 -20.4361 11.5355 20.6857 -2.57412 1.55589 -0.48821
60 1 0.976701 16.2143 -23.9236 1.48549 1.56739 -2.26637
61 1 -12.8255 -0.880204 0.33506 3.24154 5.01271 0.520027
62 1 -1.31785 -11.2057 17.3434 1.56756 1.14854 -3.99297
63 1 -1.31286 10.8901 -16.224 4.35636 -4.9145 -0.855056
64 1 -8.72256 -3.22206 -0.0929021 0.104313 1.35839 -2.27649
65 1 17.7202 -2.1439 8.3793 -5.03321 1.37453 2.63676
66 1 -10.3434 -18.6491 -12.3874 2.3142 -2.45054 -1.65577
67 1 -14.7281 23.708 -11.2466 0.588084 -2.2858 1.41829
68 1 -2.92717 13.8733 -21.0113 -4.24918 2.83092 -5.33155
69 1 -8.88242 13.3898 9.13614 0.732046 1.76649 -1.21944
70 1 -16.9575 15.3336 -18.3943 -3.65802 -2.10161 1.02909
71 1 -12.033 3.81329 1.23395 -0.775805 0.168645 1.37986
72 1 22.8861 15.2864 19.8042 0.335395 0.829962 3.22218
73 1 -13.2672 -16.9845 13.6787 2.34546 1.79512 3.98935
74 1 1.05559 10.3618 -13.8806 1.20555 -3.19363 3.08933
75 1 -19.655 0.887319 -13.4104 -2.80069 -1.02139 1.47669
76 1 -22.8783 -5.39523 1.06221 -1.4527 -0.648961 -1.26192
77 1 12.7005 -21.921 -0.6257 5.07904 -1.40404 7.0554
78 1 -17.8983 12.4934 -9.21628 0.991313 0.0896684 0.922055
79 1 -23.0263 -0.344744 -16.7923 0.447853 -3.93124 2.24917
80 1 -12.91 14.0021 -14.0118 -2.78393 0.108749 5.46472
81 1 0.589356 -10.8092 -14.2981 -0.187298 2.73452 2.89324
82 1 5.98939 -23.3385 4.68196 -0.529931 -5.91848 0.556262
83 1 -21.8493 12.5604 -0.672968 -8.25474 1.14483 -5.44819
84 1 21.6676 23.28 21.7671 0.104841 2.24657 -0.305819
85 1 6.06404 13.9922 -3.72886 3.8738 2.35923 2.37621
86 1 11.8963 8.00932 14.9473 4.29506 -1.47845 2.19802
87 1 0.991537 17.4621 -7.01301 0.737513 3.75681 -1.36244
88 1 -10.2367 22.1778 -20.0841 4.80906 3.84968 -2.24827
89 1 -10.9631 -2.88621 21.6243 4.40274 1.47261 1.65569
90 1 8.49882 -2.77525 7.29098 -3.94386 11.9577 0.794607
91 1 19.6568 19.5178 -18.9118 0.217144 2.2798 1.27939
92 1 15.1169 -23.1648 0.975146 0.180393 -5.6218 1.50511
93 1 -19.9092 -23.1656 17.0293 1.62613 2.05329 -6.90027
94 1 22.305 1.19419 -10.9731 -0.791385 5.62569 -0.364002
95 1 1.1449 -4.97459 -10.5487 -0.991173 -1.28433 -1.30998
96 1 22.2046 -16.2531 22.3444 -2.91454 2.28137 -3.01436
97 1 -8.01814 -14.1907 -20.8785 -2.62021 3.28606 3.47566
98 1 -2.96779 14.4908 11.8233 -3.86934 -1.54947 1.24634
99 1 15.9028 -22.7795 -4.73094 -1.42518 -0.432303 -1.36766
100 1 -23.9075 -14.9608 23.9853 0.11286 -0.064815 -1.91984
101 1 1.7287 -20.5829 -9.88587 3.07268 -2.64006 -1.5007
102 1 3.74475 2.96255 4.79045 0.647389 -1.40697 3.51421
103 1 19.391 24.7762 20.9673 0.498903 1.95013 -0.679906
104 1 -13.3814 -23.0753 -10.4272 5.39707 -1.02967 -3.1158
105 1 5.47434 20.9718 -17.7826 -2.32135 0.550422 2.88267
106 1 15.9759 3.06443 8.37126 1.62013 -0.133417 -2.41194
107 1 19.3324 -2.28762 18.8097 -1.56557 -0.751425 -1.11776
108 1 -10.0733 2.99384 -22.9622 1.29849 -0.539911 -3.45247
109 1 -12.4742 16.2334 -15.6041 3.61166 -0.286813 0.437512
110 1 10.5043 -13.9832 -7.26216 -0.589347 0.108994 -0.812608
111 1 21.1912 -5.94535 -11.1505 -3.6276 1.35914 -7.25834
112 1 -16.4529 0.164718 -22.6597 0.589645 -3.89389 1.21801
113 1 -3.31534 -7.83716 19.4205 5.8972 -0.330087 -1.67579
114 1 -21.4098 -18.5049 18.4997 2.11233 -0.494048 6.482
115 1 8.1673 11.089 5.28009 -5.73788 0.361277 1.98063
116 1 2.9928 -15.3792 -17.2437 -0.381916 -0.477367 -5.40856
117 1 20.2038 16.8205 -20.0064 3.15223 -0.109163 3.68201
118 1 6.58569 -17.4415 -10.5018 0.636046 2.36145 5.25997
119 1 15.0511 11.2459 -8.21222 -0.12086 -1.55132 -2.90649
120 1 4.34895 -1.62101 17.3706 1.76035 2.23438 -3.20499
121 1 -5.95178 -18.4065 22.2957 1.23592 -0.632111 -0.197263
122 1 -8.5317 5.9101 21.7549 3.10071 5.17928 -1.87127
123 1 11.1431 14.2184 8.38855 2.19844 -0.305755 -0.855949
124 1 21.5608 -20.4012 -13.4547 6.31676 1.45482 -0.219934
125 1 17.3532 9.50988 0.763 -0.986068 -5.86862 -1.38991
126 1 -10.9552 -2.30636 -5.55599 1.28672 1.40483 0.976144
127 1 9.38666 -0.125402 14.1052 -1.49773 -2.04204 -5.85512
128 1 -18.3833 -2.27325 -7.62342 -1.22761 0.361526 -2.36826
129 1 16.1661 -10.2833 3.46868 0.298731 8.00804 -1.11033
130 1 -10.3298 16.9749 -19.6663 -1.31969 -1.2312 3.81828
131 1 2.10067 -7.62314 -18.9816 5.3429 -4.74726 1.62205
132 1 -5.94435 -5.06275 -22.8636 0.182134 0.782465 2.48927
133 1 -17.4157 4.17035 18.7525 -2.14733 0.627891 3.35483
134 1 20.2847 -8.14657 -22.6396 -1.26737 -4.79312 0.985844
135 1 -12.8205 -5.05862 -22.2168 -2.23961 0.543171 4.90234
136 1 -1.20031 4.95982 -5.23322 -1.46191 -1.09786 -3.06605
137 1 -13.8475 6.79583 -14.1902 -1.47228 0.527764 -1.42775
138 1 12.6327 17.3512 5.81472 -3.87416 -3.84071 1.34264
139 1 -19.0531 -20.141 -16.4429 -2.51898 0.0639122 -0.716183
140 1 3.64504 -7.53583 20.6909 -0.765785 -0.237213 -0.75132
141 1 11.2779 -17.0916 3.73414 2.73619 2.1522 2.06782
142 1 9.94552 2.54054 22.9255 4.96192 -0.390882 -6.54661
143 1 -3.93892 -2.5111 -4.34876 -2.3002 6.20419 0.699397
144 1 -20.6818 -8.59117 -15.0777 2.49208 -0.0315564 -3.3256
145 1 14.9544 6.69508 22.55 0.185231 1.74186 5.74608
146 1 -10.9668 -10.1101 13.0238 0.959429 -0.483988 -1.62988
147 1 10.5241 20.3744 3.51949 4.55584 -0.872147 -2.23652
148 1 -18.1001 14.7658 11.7694 0.00857056 0.995193 -2.56114
149 1 -19.1624 -23.8425 -20.0541 1.80705 -1.62524 -1.29663
150 1 20.5749 10.6792 19.9718 1.2006 2.73146 1.41971
151 1 18.3502 1.56441 22.2335 0.18391 1.96593 1.96821
152 1 -5.6248 -3.82532 17.4628 6.07988 0.103049 -0.0506597
153 1 9.95904 -14.3077 -2.93887 -0.221914 -3.68724 -0.432803
154 1 -7.87186 18.948 -4.99836 1.83448 -0.394892 1.44732
155 1 23.3103 -21.8149 -19.1433 -1.86288 1.09223 -0.0637852
156 1 15.365 10.4323 18.9026 1.59066 -2.41384 0.804785
157 1 12.58 -13.9396 -14.2565 5.62232 1.26325 -4.66199
158 1 10.2644 7.66636 3.23795 -4.78172 3.84617 -0.691925
159 1 -22.1752 -12.8449 12.2275 -1.53646 2.09874 0.194436
160 1 -4.03682 -17.3146 -4.86933 2.0314 0.902925 -2.51149
161 1 18.1951 0.309028 -14.4448 -0.000449952 -0.376246 1.4933
162 1 -15.2252 -9.31785 20.697 3.17509 -3.7199 -4.55251
163 1 2.52438 0.734706 17.7896 6.56574 -1.378 0.144127
164 1 18.3292 9.89449 13.5245 4.55581 -3.39374 -1.77451
165 1 -19.8681 11.5515 17.8977 -4.99815 2.33304 -2.64825
166 1 9.85589 20.3873 -21.5928 0.371825 0.604016 3.11474
167 1 -13.5041 1.82546 -2.61172 0.50141 1.74276 0.310767
168 1 -24.1049 23.2395 -4.35617 -0.43841 2.06684 4.85907
169 1 5.08241 24.7228 -12.6769 -3.74453 0.246153 -3.50077
170 1 -6.82804 -15.8172 -13.5939 -1.53228 -3.46649 4.18338
171 1 -16.088 2.84147 15.9997 -1.27468 -4.73311 1.0546
172 1 -19.2928 20.2951 -18.7593 3.41778 2.1625 -6.15536
173 1 -23.4979 1.80544 21.5777 2.52605 2.8706 3.57687
174 1 -20.575 6.16076 -21.8568 -3.09931 -1.06116 -1.76172
175 1 9.98956 18.3996 5.36833 -2.89142 -0.0180057 1.26135
176 1 -3.60365 22.1946 -3.7456 -1.634 2.47129 -2.29141
177 1 -5.3768 -17.2921 13.1226 2.76123 2.52413 -6.03728
178 1 -18.0806 9.93771 6.09489 3.29453 -3.50779 0.433885
179 1 -6.57523 -8.17703 -13.3835 3.44047 -1.23271 -0.459479
180 1 -23.2022 20.3535 10.693 0.320572 7.30279 -0.496309
181 1 -3.78903 -5.75641 -20.6656 -0.766712 4.45941 2.10232
182 1 -23.1465 -2.68116 15.7284 0.585781 0.59596 0.104685
183 1 21.6566 12.7505 -3.60461 4.42571 -2.40583 -1.29359
184 1 4.1139 -23.0892 -22.0322 3.67744 -2.67713 1.77451
185 1 22.5024 21.6658 15.0769 4.99254 2.84356 1.04114
186 1 15.891 22.9131 -10.1256 0.446496 0.0700539 -1.84461
187 1 -11.7517 8.27209 -7.74684 -4.43355 3.00075 -0.407867
188 1 6.18063 -20.6343 -3.18378 3.10857 -0.438031 1.5881
189 1 -3.18704 -4.70857 0.57486 4.98779 -5.3145 -2.44182
190 1 -16.2948 8.68001 -11.9548 4.55859 3.48105 0.209801
191 1 3.22567 -4.86335 -22.0626 -1.30035 -1.92109 0.363077
192 1 9.29465 5.06522 -2.64339 0.345576 -3.90635 -5.39613
193 1 9.68792 1.01863 4.41072 -0.0889511 -0.414835 0.480336
194 1 0.862048 24.3518 -21.683 -2.35682 -1.5727 0.497881
195 1 6.84876 -0.280116 -7.88941 -1.84329 -1.42573 -2.7166
196 1 -16.0648 22.0976 6.25159 0.506996 -3.87252 0.577819
197 1 -24.1477 -4.55817 -23.9312 0.561031 1.00436 -2.64604
198 1 -10.6754 -20.0842 -18.2487 2.52626 8.90297 3.83156
199 1 -22.9452 -4.97796 -11.5728 -2.92195 -1.67164 5.46112
200 1 14.3001 6.49039 -15.1337 -1.93262 -3.36171 -0.0552842
201 1 5.49769 4.95927 -23.7668 -0.670048 2.56341 -8.52613
202 1 12.4978 14.6425 13.7422 -2.15171 0.4578 -2.56285
203 1 -23.602 18.5612 7.06506 3.94607 8.1258 1.39933
204 1 -5.06051 -15.3931 -11.379 -2.77738 -2.1433 -4.37522
205 1 16.7987 -5.48575 11.4098 2.14676 4.53201 0.477748
206 1 -1.971 -16.0189 -20.8021 0.214251 0.00637525 5.50491
207 1 -8.46121 6.42047 -23.7977 -0.643581 3.24647 -0.336893
208 1 1.6442 -5.19896 17.1463 -2.22877 1.09109 -3.37653
209 1 -7.69466 15.5314 -15.0895 2.7994 0.424813 5.69935
210 1 -19.0056 12.3738 -1.71789 0.34222 -0.671948 2.39687
211 1 16.6125 -0.155248 6.41271 -1.24074 4.50367 2.45339
212 1 -13.3493 24.7798 -4.84765 0.31643 -2.50134 -6.01822
213 1 -19.1993 -21.0974 -0.636073 3.17253 0.533331 4.07798
214 1 16.6873 -4.89581 -20.1152 -4.07158 2.14658 -4.21527
215 1 9.54835 20.8203 16.6055 -1.68902 3.14884 -3.00259
216 1 -18.6373 -23.8828 8.45209 4.10061 0.0451754 -1.24258
217 1 6.07298 22.6057 8.56165 0.234917 -0.133205 -4.33562
218 1 11.6602 3.63139 -3.84107 -1.21367 2.44738 1.30678
219 1 -5.98108 24.0294 21.1001 3.79046 -2.86059 0.260569
220 1 5.54526 18.3715 15.5424 -2.69376 0.769132 2.91994
221 1 -18.1156 1.09385 -0.768623 1.0816 0.0962751 0.387541
222 1 -12.3077 -8.6179 -0.658508 -0.959484 0.0301044 -4.17768
223 1 -22.914 -7.14668 -1.44211 1.06915 0.297182 6.02177
224 1 -12.7822 -2.8414 23.9576 1.33268 -0.532664 3.22409
225 1 3.34675 -11.9094 -7.54985 -1.64918 -1.14789 -3.83885
226 1 21.8689 13.5682 -14.8768 0.775417 -0.362196 -3.51929
227 1 17.2996 17.7666 3.6807 4.97122 -2.76459 -3.95676
228 1 -10.031 18.7485 0.621465 0.131376 1.603 3.19114
229 1 11.3424 11.0065 -9.8403 -1.6891 -3.27783 -1.50709
230 1 -8.32835 15.0564 18.9259 -3.05516 -0.720268 1.89278
231 1 23.1102 -2.5159 -22.1641 -1.18721 -0.993995 -0.612508
232 1 -3.40597 -12.5934 10.1241 -1.70865 -0.661292 0.60707
233 1 -11.7517 14.0794 11.9162 1.83089 -1.03379 3.18891
234 1 -5.98971 17.9509 7.177 4.21494 1.46828 2.19516
235 1 -22.6683 -1.56907 -8.40528 -0.113637 -2.64885 0.404843
236 1 17.0951 -9.24212 7.81041 4.91052 1.3445 -2.41538
237 1 -17.0163 20.1391 1.95899 -0.380091 -0.346653 2.83821
238 1 15.9005 -0.8453 23.316 3.80714 -1.72191 0.638694
239 1 -19.9011 19.761 17.8495 0.338709 1.87422 1.39993
240 1 11.1575 2.42192 16.0171 1.03385 0.867513 -0.732395
241 1 23.5266 -13.5546 10.98 1.76123 -3.72336 -1.58345
242 1 -8.44162 -4.10942 -11.956 4.15571 3.75417 -5.55858
243 1 -7.28237 -7.69274 9.58748 3.86913 -2.15905 -2.80717
244 1 -22.6555 10.0349 -23.8324 -2.00146 2.63789 -6.00431
245 1 -10.301 24.3266 -11.6116 1.16657 4.54384 -0.866559
246 1 8.34686 4.00347 20.9413 1.87015 -0.350505 -0.882584
247 1 22.7406 -4.22578 13.5707 -0.628153 -0.786205 0.660928
248 1 -17.8512 4.77938 -14.2512 -3.82729 -1.90081 -1.88844
249 1 -3.28232 -17.7428 11.3014 1.52364 2.8868 0.64043
250 1 0.336204 -1.23861 6.45905 -3.41805 1.9035 -5.37673
251 1 -22.6289 -1.79421 -21.6299 6.35775 -3.26795 -3.6728
252 1 19.6901 16.0493 -11.621 -3.39954 5.15489 -0.779745
253 1 -1.49202 -3.41459 -22.6174 -4.55211 6.08439 1.36653
254 1 6.94064 -13.222 -9.43825 -3.1847 5.43103 -1.38946
255 1 -23.6366 -22.9456 11.1049 3.35914 -2.50471 -1.69464
256 1 -12.3007 -5.30404 -9.66875 -0.103995 0.408751 -1.24618
257 1 -4.51389 5.39727 -17.2277 -2.66899 0.949768 -1.19864
258 1 -6.14222 -2.50121 -6.61281 -3.67423 -0.432876 -2.01238
259 1 17.5639 -18.1532 -17.8726 8.34437 -0.535157 0.433211
260 1 15.0395 7.84695 -3.20865 2.00704 -4.43916 4.18842
261 1 -0.887436 -24.3023 11.61 3.02797 4.39227 0.786544
262 1 17.3097 20.2514 10.2939 -1.35071 0.29336 0.690674
263 1 -21.436 7.5906 -7.53166 1.75759 2.72126 2.61761
264 1 21.5654 2.11069 18.382 -1.34377 -1.24692 -2.03822
265 1 14.4303 -17.3093 -6.66803 1.97267 2.95222 -3.74611
266 1 -24.2492 5.10902 -14.1137 0.439888 1.58838 -1.10135
267 1 -12.8049 20.6118 -10.6112 1.44253 -1.52009 1.88423
268 1 -22.6544 18.3747 -11.7938 -0.198553 -0.889768 -0.521997
269 1 -17.7871 -9.1973 -14.2616 4.47205 -3.57276 1.63489
270 1 -24.1829 -15.5181 18.6477 -0.338238 2.83069 -0.336994
271 1 2.29519 23.8215 -13.3025 1.46282 -2.73528 -1.38218
272 1 11.1056 -15.3268 11.1274 -0.679253 -3.39094 -2.19431
273 1 -17.1351 -9.63821 12.736 -1.05709 2.49957 -2.71881
274 1 12.4162 -11.7329 7.41399 0.114892 2.8921 -1.34208
275 1 12.6078 22.9428 -19.9849 -1.43515 0.328313 -0.980796
276 1 21.4783 7.2408 -7.26073 4.23444 -5.41446 4.30308
277 1 11.1384 -13.2338 -18.2501 3.87638 3.16665 4.00837
278 1 19.3794 9.65807 17.3652 0.120705 -2.66374 1.35371
279 1 -23.6418 -2.95149 -0.219595 3.55971 -3.13333 3.74424
280 1 -3.62498 -20.35 -11.4555 1.38586 0.451185 -3.44319
281 1 15.9801 21.3677 12.5771 -3.26911 -2.451 -1.38494
282 1 12.1993 12.2291 12.5333 -4.16961 2.21343 2.03433
283 1 -3.89331 -21.5209 -20.9374 1.32098 2.05668 2.30527
284 1 4.27183 14.1133 1.98802 -1.78834 0.103158 -1.75006
285 1 -15.6581 18.6177 14.4253 2.98742 -2.85332 -1.48548
286 1 -3.92616 17.7229 -1.61093 0.0252424 -0.0512577 0.550369
287 1 5.31154 -9.73003 -7.47297 -3.18945 2.18977 1.149
288 1 19.4397 24.0998 2.82861 3.27355 7.30924 -1.87585
289 1 -3.46421 -20.5975 10.7076 -6.0949 -0.231633 2.41419
290 1 -4.89467 -12.0907 -15.0391 1.64633 1.26974 3.73174
291 1 -10.4118 -17.1054 11 1.66272 -3.47083 -1.78564
292 1 15.6183 7.6887 2.42658 -0.159348 -0.682127 -3.33935
293 1 13.4561 4.25621 13.5116 -0.487787 -1.87199 1.26596
294 1 -9.08678 1.18416 -1.07508 -1.06045 0.588342 -0.515124
295 1 -0.0685405 7.79235 8.08021 1.38681 -0.790203 0.688321
296 1 1.44795 14.7687 -2.32823 3.10286 1.24492 2.3257
297 1 19.8045 -9.84328 -6.73876 -5.93509 5.30369 2.81626
298 1 14.6633 -20.2716 -21.0203 -5.18687 -0.0399864 -2.70156
299 1 5.30385 -21.6782 -12.8238 -4.42814 3.50839 4.00732
300 1 13.2246 -3.14704 17.8099 -5.06512 1.61439 2.10483
301 1 -6.66318 21.414 -21.8255 -3.74424 1.94086 -3.83653
302 1 0.129163 8.17585 -1.82578 3.10739 -4.67793 -1.48163
303 1 -20.5995 -21.0882 -7.44168 -0.635976 -3.96595 -2.92083
304 1 -20.5512 -16.1412 12.422 0.819613 -1.94396 -3.7833
305 1 3.78316 -20.4912 23.0908 1.03353 0.906573 3.23895
306 1 13.2815 18.9492 -10.8976 -3.30235 -0.0462533 -1.1749
307 1 10.8659 13.7559 22.4624 6.27913 2.21252 -4.97092
308 1 -17.7586 -23.5517 3.9227 -0.716056 -3.36857 -0.451584
309 1 5.0397 -19.463 20.695 0.838102 0.949321 1.19712
310 1 1.29644 12.377 12.4179 2.10319 1.37402 -2.35613
311 1 13.1657 -10.5578 0.0620467 1.86394 -6.52894 -1.65462
312 1 -4.44274 0.988133 -8.6122 -0.719962 -2.99193 4.14939
313 1 -18.1243 -15.7017 -8.64478 3.30336 0.633774 5.79298
314 1 -13.8559 4.80901 -9.62094 -5.92275 -0.0244926 -5.89599
315 1 -15.3048 -22.5927 4.55571 0.0718978 0.0756277 2.80556
316 1 23.0952 -6.61191 1.77741 -0.630519 -0.236735 -1.06584
317 1 -9.68752 -10.3794 -22.7236 -0.210597 -0.0862921 1.54209
318 1 18.8684 -18.8567 20.6397 2.77115 -1.99878 1.23128
319 1 -11.6989 2.54216 14.2553 -0.483659 -0.477219 2.97946
320 1 -2.72987 -1.84997 8.73257 -5.79829 0.0662669 1.36844
321 1 -20.2704 -12.9304 -15.0769 -2.93795 -4.34993 -0.653454
322 1 -11.1908 12.719 -0.696813 1.79142 0.760474 1.07023
323 1 -14.1714 0.0511273 2.86787 1.9179 -0.00867692 -4.03635
324 1 22.1793 4.66573 7.01222 -3.08298 -0.985138 -1.3995
325 1 0.261019 -22.0741 19.4617 1.10511 -5.23383 -1.01
326 1 -18.1231 5.45898 1.42863 1.5198 2.05723 -1.75458
327 1 -7.77789 -13.497 21.2845 4.12466 -3.62771 -0.00362215
328 1 14.4751 21.5667 16.2572 4.75256 1.62597 2.16819
329 1 -0.628296 -0.348815 -11.5947 -2.48725 -0.544318 -3.3741
330 1 -15.0059 -23.5757 22.4095 5.87224 -2.27768 -0.0679486
331 1 12.7441 7.60248 1.8117 -1.64365 -0.968393 -2.20232
332 1 9.89429 1.18439 -10.3944 1.68883 -4.91864 4.40954
333 1 8.69621 -10.199 -14.5735 2.66833 2.51313 -1.98747
334 1 2.21849 -21.6107 -2.39153 2.52126 -3.03828 4.78302
335 1 23.5198 -22.719 5.48865 5.09409 1.21498 -2.48349
336 1 18.2866 16.7594 -22.2732 -0.0973375 -1.0229 -2.6485
337 1 -17.1305 17.5684 0.6615 -5.22 5.01872 -0.606757
338 1 6.68544 -8.02033 18.3655 0.356507 -5.74038 -6.01444
339 1 -6.72292 -16.5149 -24.1782 -5.09153 2.79193 -3.72561
340 1 -15.8655 1.02421 -19.7601 1.88882 0.593671 1.92326
341 1 -12.1662 1.71264 -16.3679 1.40491 7.56087 -2.83967
342 1 -0.260544 -15.8417 -10.504 -5.02007 -1.33249 -2.71057
343 1 -3.85532 -12.4524 -6.96649 -2.18802 -0.106137 -6.19819
344 1 10.2657 -14.5474 -12.3135 1.80415 3.36451 6.88734
345 1 -12.6478 -6.0006 14.4522 2.51421 0.624146 0.777074
346 1 16.693 2.90365 5.51467 0.877763 -0.993905 0.726796
347 1 20.4111 -6.0288 7.86462 -1.1953 -3.5966 -2.24897
348 1 -13.1062 -2.63431 9.64676 1.62342 0.218817 -0.0442995
349 1 -7.57227 8.74999 21.8286 2.09033 -3.31407 -0.0914113
350 1 -23.7743 20.6109 23.3648 -2.58701 -0.749976 -1.24931
351 1 -18.2769 3.51797 11.6238 -2.68576 1.82964 0.289897
352 1 15.4367 -0.108742 0.15926 0.26448 3.51763 0.808574
353 1 16.6798 -21.1827 -14.8904 -3.97973 2.09668 -1.73507
354 1 8.82434 23.2413 -8.34562 0.349866 -7.96232 5.47167
355 1 -6.22669 -1.27129 7.11241 -0.24434 -5.14855 3.67666
356 1 -2.13419 -19.1785 -23.4002 5.06423 -0.351969 -5.0869
357 1 -6.62287 -16.2083 1.71603 -0.213776 3.73362 -0.38442
358 1 19.1515 -11.6384 12.6771 2.65568 -6.12041 -0.780554
359 1 -12.8207 -22.0453 -7.64472 -1.81413 0.597428 -2.74353
360 1 5.41277 16.0336 0.230347 1.37726 -4.47824 -1.93933
361 1 -20.3808 -21.3102 -4.33868 -4.02099 0.544614 -0.111886
362 1 -22.2678 12.0809 4.66586 -0.860723 2.20543 -1.77024
363 1 -18.1985 -17.7058 11.3078 -3.13112 -2.82313 -0.423983
364 1 -12.4304 3.74273 -4.70673 2.43736 -3.30281 -1.35122
365 1 -0.545549 -17.4702 18.7122 0.762969 -5.29991 5.61907
366 1 -20.0257 -0.273354 -9.08975 -0.217055 -5.75001 -1.265
367 1 6.97536 18.4442 -17.307 -3.30307 -1.60605 0.158875
368 1 2.31542 -5.54587 12.2429 -1.95997 -1.8109 0.617851
369 1 13.9868 7.50458 -12.3291 -0.641038 -5.12325 1.13495
370 1 5.12698 -14.931 -22.3835 0.0201635 -2.11132 -1.177
371 1 -10.8115 -24.603 17.1941 -4.25333 1.43257 1.84567
372 1 -7.9549 22.1941 6.88399 0.493845 -0.0965727 -3.3827
373 1 -16.8483 6.58759 23.1961 -5.58392 -0.52113 1.01244
374 1 -5.07561 19.6825 -10.7795 -1.25729 -0.139069 -0.183134
375 1 -21.9634 -5.74447 23.0594 -3.53763 5.01891 -5.90812
376 1 -3.63626 -13.5883 -17.3421 0.646608 0.609303 2.77974
377 1 14.2227 0.0943462 13.1169 2.39249 -3.20918 -3.87576
378 1 17.9113 -15.1109 -4.48947 1.92307 4.9697 -0.851843
379 1 -23.4849 24.5272 2.76888 -2.48261 -3.06027 0.100675
380 1 13.3922 16.4599 -19.9215 1.84348 -0.198325 0.830282
381 1 -24.3136 -12.4746 17.4628 3.00929 1.18795 0.330798
382 1 15.225 17.5986 -1.63157 5.93895 2.3844 3.44471
383 1 11.2179 -23.0793 8.48587 1.92398 1.94478 -3.2929
384 1 -10.9996 10.8514 -7.70346 -0.805186 3.90387 1.1238
385 1 -6.95464 0.834916 20.2003 0.982687 4.56287 -0.92096
386 1 19.5417 -3.89894 -20.5586 1.10621 0.0205666 -0.746262
387 1 6.33227 -21.1586 1.2972 -3.95635 4.9735 -2.266
388 1 -19.1919 -23.3105 22.7534 1.19771 0.836221 -2.87335
389 1 -14.2152 8.3289 6.99036 3.10605 0.773917 2.19061
390 1 12.0129 7.43115 7.43634 -2.01487 0.986601 -1.82224
391 1 15.4373 3.09303 19.703 -3.43438 0.227935 -1.34882
392 1 17.4093 -10.8265 17.9031 -1.39653 -0.401353 1.84425
393 1 -12.7141 -20.5994 -12.0093 0.962348 2.03693 3.80611
394 1 -10.2407 10.384 -5.05893 -6.41625 8.2174 2.20158
395 1 -9.07564 -23.8213 19.3851 -4.06853 -1.50015 0.35853
396 1 12.3183 -19.6985 1.13924 4.91003 -0.12306 7.94096
397 1 4.09026 -20.4703 18.3244 -0.0468726 1.25385 1.04623
398 1 -24.1198 -22.8076 -6.83675 -2.45044 -1.65427 0.104617
399 1 12.3883 15.5747 1.34643 -1.54586 0.750373 1.63441
400 1 -23.696 -17.3744 -3.03797 -0.340937 2.34571 -0.725667
401 1 21.3727 -18.1015 -5.88882 4.29233 0.460012 1.44146
402 1 -2.92442 6.76754 21.1575 -4.25434 0.676856 -2.31806
403 1 14.0598 1.15523 23.5756 2.78072 0.0452138 3.51585
404 1 -15.4791 -2.77526 2.85336 1.45906 -1.75885 -0.137396
405 1 6.20717 -23.364 -6.86569 1.76532 -3.83521 2.53863
406 1 -8.32015 -19.6491 21.5181 1.93572 3.90956 -2.37677
407 1 0.412315 -9.15656 16.2039 -0.781389 -0.618323 1.16788
408 1 -0.867672 -1.54374 -18.8509 1.99963 0.746406 -3.53234
409 1 1.77682 3.14915 -8.30752 -3.69583 7.0605 1.73147
410 1 -15.0834 12.4833 1.67725 -1.68377 3.96391 -2.41484
411 1 -3.48606 -3.18549 -8.18279 -1.18588 2.89128 0.439972
412 1 -18.2833 -6.29103 5.78964 2.72094 -0.360146 1.72876
413 1 -22.6399 24.7686 0.0368354 -0.284958 3.96499 0.450993
414 1 4.64472 18.1768 -15.5149 -1.664 -5.81743 2.02588
415 1 -19.1895 5.87286 -8.96889 2.19215 1.14191 4.40588
416 1 22.4704 1.9496 12.3343 -5.50877 -4.49614 4.75109
417 1 -15.6569 1.2938 12.7338 0.596974 -6.15901 4.52753
418 1 22.2226 20.2387 6.17966 3.06557 0.135254 -0.381931
419 1 22.8525 3.67257 22.2844 -1.25563 0.494293 -4.92589
420 1 -3.47997 -3.52154 14.5977 0.691864 0.279699 -0.557956
421 1 -15.6753 -23.3104 -14.3033 -1.7896 6.1592 1.63173
422 1 -3.59508 15.2649 22.9986 3.13348 4.51678 5.30856
423 1 -10.8717 3.2055 3.97149 1.74105 -3.38674 3.02179
424 1 3.59351 -5.48246 -1.61813 2.00116 -2.51228 6.31607
425 1 -20.5946 14.5828 18.051 -3.35229 0.365414 -1.27581
426 1 -15.6552 -2.64314 -8.68455 3.21273 1.77912 -1.44182
427 1 -15.1432 -21.8615 20.2631 -3.96857 4.58134 -0.589744
428 1 8.55574 11.3839 -5.88247 0.169689 2.75739 0.319114
429 1 -6.6273 8.98642 -13.787 1.05055 -2.45633 -2.56974
430 1 -21.9246 -2.31016 23.975 1.8563 -2.28048 -2.63222
431 1 12.9071 -8.24027 -15.145 0.965442 1.11362 4.61442
432 1 6.98136 -5.13447 12.4462 0.545914 -3.42644 4.40768
433 1 -19.2756 2.13643 -18.123 -1.38791 -3.70536 -6.14616
434 1 -13.6427 -3.35985 -11.4153 0.104417 -1.60753 -4.08576
435 1 3.84676 22.8825 6.46689 -5.07944 1.89861 0.688184
436 1 -13.5556 -12.8136 -12.8575 -1.4756 9.57674 1.87129
437 1 19.1061 18.6313 -10.5147 2.50365 2.89696 -0.714305
438 1 -18.747 4.55125 -4.52587 -2.39793 0.157449 -2.59114
439 1 -0.163659 23.1744 -1.94177 -0.223046 1.02866 0.0764916
440 1 -10.0163 13.4946 -14.991 0.551089 3.84378 -0.344033
441 1 19.3675 1.51506 -4.48655 -5.20668 1.50095 -5.39918
442 1 5.36872 3.80131 15.5271 -0.185588 -3.01212 2.44704
443 1 20.5522 24.5684 16.594 -3.41999 -1.29307 2.20914
444 1 -23.4361 7.26329 -18.5867 -0.600289 1.72249 1.81059
445 1 19.2244 -10.4784 -11.6282 2.09151 7.68003 0.785653
446 1 -23.8756 -14.4663 -8.27603 1.58765 -1.14029 4.06669
447 1 8.07006 19.0817 14.627 1.78518 0.580307 -1.31426
448 1 -18.0457 1.90957 14.0601 -0.83543 0.0937255 2.1686
449 1 12.9044 -4.03429 -2.0291 -3.22861 -4.409 3.58899
450 1 16.5611 -19.6015 6.75143 4.36416 -0.211434 -0.195329
451 1 22.9353 -13.2892 -19.6403 -4.47592 0.329917 1.99633
452 1 -23.9535 16.6132 -0.695121 -0.307283 -0.261266 -3.4226
453 1 -16.9639 14.2768 7.76416 -4.50657 -2.57301 -1.06395
454 1 -3.75393 1.47862 -15.5295 3.21625 -4.16707 0.914444
455 1 12.1454 -10.5205 14.3784 -0.6811 -2.27749 -0.56236
456 1 -4.21437 15.8013 20.3474 -0.551028 -1.65314 -0.241059
457 1 4.74799 19.8605 18.0946 1.25588 -3.38891 1.01232
458 1 22.0321 21.4137 19.628 -0.39968 -2.74779 -1.16837
459 1 -0.254966 6.51421 -13.1352 -4.66714 1.29136 -1.33298
460 1 2.81127 10.5874 -22.3706 2.4533 5.31997 0.744589
461 1 4.57596 0.494249 -22.2898 -0.34681 -0.340896 4.15299
462 1 -6.30067 -20.2144 19.1999 6.65408 -1.46044 0.569683
463 1 6.35061 15.9514 11.5481 5.06788 1.52214 -0.360388
464 1 -13.5438 -22.8501 6.89452 -1.08587 -1.53235 0.932394
465 1 -4.1031 -13.7385 3.8058 3.28139 -5.93567 -0.455825
466 1 12.6677 14.4156 -22.0618 0.11231 2.81719 2.61608
467 1 -5.31717 -8.32545 11.6979 -0.587552 -0.739714 0.94624
468 1 21.9412 15.5762 -9.9412 -1.14798 1.53171 -3.85534
469 1 -24.4835 -10.9907 12.9688 -0.83625 -5.97218 -2.36422
470 1 -20.9438 6.79961 -10.9471 1.65598 2.66487 -5.5189
471 1 22.2165 -9.28477 -8.79544 5.63282 -0.71135 4.61758
472 1 -13.6362 -4.25319 18.5874 1.72534 8.25014 5.22761
473 1 5.01176 13.4059 12.1444 2.83727 -1.67042 -5.45692
474 1 4.14545 -5.57439 -12.3289 -2.58935 -4.42331 0.161521
475 1 19.7858 10.5748 -19.5004 2.55461 -1.23187 2.33783
476 1 -12.4284 -5.14859 -3.53308 -4.29951 3.69164 0.659567
477 1 -11.0396 -10.1681 -15.8854 0.839819 0.279501 -6.53793
478 1 2.73629 2.36584 -23.4766 6.99428 -1.49718 -0.088201
479 1 16.1395 -16.9614 14.6611 2.26582 -2.90447 1.81751
480 1 2.33414 -9.84994 8.86947 4.00243 2.6406 -3.86401
481 1 -3.76444 8.76843 -19.03 -1.18345 4.93363 3.03611
482 1 -23.412 -3.00082 19.6723 3.89415 -4.30718 1.74107
483 1 3.30535 -17.6159 3.3356 -5.00765 -4.0711 0.684026
484 1 -22.1913 -14.9303 -13.5393 1.01558 4.32421 -3.5361
485 1 20.7225 -23.1317 -19.319 -7.06423 1.63986 -2.23993
486 1 16.4558 1.46104 -5.41735 0.21811 0.673684 -1.03924
487 1 3.28753 23.9491 17.7255 0.0374692 7.51164 -5.36814
488 1 1.79095 -15.7921 19.7658 -3.03839 0.427919 -1.44166
489 1 -12.2126 22.5841 -12.6208 -2.87118 -2.19865 -3.13139
490 1 16.4023 -18.1799 -12.209 -5.39903 0.297041 3.36026
491 1 -19.5142 -12.3873 10.5059 -1.34066 -1.27718 -1.35292
492 1 -14.5114 -17.1473 -12.3293 -0.206193 1.01704 -1.63842
493 1 13.8178 -0.366752 -16.1518 -5.17456 -5.45442 3.04332
494 1 7.19571 2.29877 5.52119 -0.0575834 -0.363188 4.32182
495 1 -2.22161 -11.2237 -2.66379 2.18553 -0.588127 -0.151898
496 1 4.08832 5.68199 -12.5971 3.32558 3.79837 2.10307
497 1 10.4498 15.6885 -23.7493 -0.368226 -2.4103 -1.23543
498 1 22.3417 2.46108 -23.6437 -2.44958 2.38179 1.92917
499 1 -23.2101 2.64907 -11.0094 -0.067435 -2.42371 -5.36247
500 1 -4.2771 -16.4185 8.63384 1.2727 2.78514 -3.20015
501 1 -13.9126 -13.1683 -7.49787 -4.17304 -1.92113 -0.941593
502 1 13.4359 -11.8783 18.3052 3.28197 -2.03931 1.88925
503 1 8.87651 0.000463558 -12.7566 -0.187574 -0.770004 -2.3271
504 1 -1.00367 5.46082 6.19182 -1.98003 -0.425372 0.2381
505 1 -2.43138 7.83432 -21.149 -1.2759 -0.498206 3.54279
506 1 -0.625299 -18.9319 -15.7343 -0.87405 1.00486 -0.0485784
507 1 10.9229 21.6075 -16.009 1.74288 -4.56006 4.68616
508 1 -3.22524 23.778 -11.2418 0.955524 0.825314 -2.62475
509 1 22.8016 14.2268 -18.5221 1.133 1.30861 -3.25851
510 1 7.24555 -17.9175 17.3021 4.03573 -1.2315 0.742362
511 1 8.03619 -13.7108 4.55653 -5.10543 0.287641 -0.464353
512 1 2.84313 -3.43133 18.8939 -1.9403 3.65622 -3.24379
513 1 -19.2922 -13.0128 17.4542 -4.68347 -0.372035 -2.44744
514 1 -14.1455 20.5689 21.3362 1.23305 1.47341 0.563367
515 1 -2.41535 5.78909 16.9888 5.7807 1.49612 -1.57333
516 1 9.53538 -23.4136 -1.74537 1.05693 -0.77176 -1.61075
517 1 -13.4764 -0.646625 -22.5506 -0.858823 -2.71842 -1.09929
518 1 23.1451 -21.6959 2.93423 -2.21651 -2.27807 2.6844
519 1 -20.5681 -12.5783 -10.4669 -0.374305 3.20545 -1.99569
520 1 -4.94271 -23.4926 -13.4489 -0.855682 1.35351 -1.48445
521 1 -10.201 23.1563 -6.74082 0.999657 3.85093 -8.22831
522 1 2.89826 -16.5212 6.32336 -1.40807 4.12215 2.23711
523 1 -8.88091 -15.7154 -8.57833 0.199605 0.826051 4.88925
524 1 0.22994 -2.61575 19.8506 0.326556 5.80576 1.10939
525 1 -8.1531 -0.174535 -3.55826 0.849543 -1.58148 -1.14909
526 1 -19.254 14.1607 -4.11949 -0.873083 -3.88359 6.33303
527 1 -3.28301 13.6629 -7.45979 -1.74051 0.323669 -0.786021
528 1 -14.9016 16.6719 -11.42 -0.485319 -1.66684 2.54551
529 1 -8.82661 -13.2567 6.2463 3.29972 -7.0157 0.0978075
530 1 -10.238 0.911845 9.90325 -2.08521 -5.37306 0.799114
531 1 21.6045 -6.71974 12.0685 -2.70206 -3.17945 2.43257
532 1 -8.95715 -2.82766 -3.27703 -3.41079 2.44468 -3.06697
533 1 -11.0997 -18.9675 13.1893 -6.10426 0.12821 3.70241
534 1 19.9956 7.53525 -10.404 -0.965254 3.86125 3.6008
535 1 4.97495 10.0222 9.82169 1.12379 4.45791 0.285871
536 1 -1.62118 -5.95287 3.70304 -1.6667 2.12279 -3.87031
537 1 8.27796 -6.61882 2.31257 2.02101 2.35703 -6.63153
538 1 -21.2362 -7.63541 12.4581 -0.651232 -3.39034 -1.61159
539 1 17.9451 11.38 -7.19649 4.27517 1.76548 3.85033
540 1 -12.9351 -11.447 2.4123 4.53532 0.22932 0.994466
541 1 -13.9134 0.73684 15.0324 3.41739 -1.65113 0.00351899
542 1 -23.9533 4.93354 -8.48158 2.33631 -3.74504 5.85933
543 1 21.3338 -18.7499 -15.782 -3.36213 -0.673071 3.54033
544 1 -5.28721 -19.0954 -19.7648 -0.124702 -2.01319 2.64675
545 1 22.1973 -15.1254 14.0208 -2.91296 5.23142 -2.52814
546 1 -7.05779 -16.1842 -16.6574 -0.92811 1.86135 -1.78685
547 1 16.2291 -15.7825 -21.768 -2.2755 1.85038 1.77224
548 1 10.0179 2.38049 18.8612 -1.64947 -3.75312 -2.76873
549 1 -21.3708 -4.46966 8.43864 -5.20989 -3.67519 2.67128
550 1 0.43194 -19.7934 -13.3597 -7.86726 -0.0265063 -1.17147
551 1 8.0116 8.5597 -17.2807 1.54436 -4.58068 -2.36522
552 1 2.13542 -19.1123 -1.19221 2.83342 -2.47683 3.77267
553 1 -13.3459 6.37979 -0.279644 -5.24872 -1.72413 -0.646319
554 1 2.48792 17.7698 -19.6898 1.02919 -3.27875 0.51559
555 1 -15.4208 -16.1402 -0.707523 0.400944 -0.485907 -5.33023
556 1 -12.0621 17.0182 -3.05936 -0.487866 -1.4945 2.88285
557 1 11.447 -24.0072 -9.92831 -1.83662 1.51372 0.177561
558 1 -3.51902 -12.8855 16.6065 0.139303 1.81578 -1.28221
559 1 -8.30143 -21.2614 7.06312 -5.35182 3.30234 -3.93194
560 1 23.3299 -22.3377 -4.37514 -1.33724 0.449793 -4.22268
561 1 7.41712 -22.2637 18.9328 -3.55297 -1.88736 -1.28451
562 1 6.69863 8.29154 -20.0856 2.40346 -1.95944 5.54827
563 1 7.07358 -18.7718 5.47202 -2.45941 -1.08658 2.90494
564 1 -8.29335 -19.7548 10.6182 0.169831 2.01275 -0.757844
565 1 12.38 -21.1585 16.0909 0.3627 0.60111 3.02667
566 1 18.8021 16.3296 15.0374 -1.635 0.956371 1.44164
567 1 -19.833 23.4267 -3.62127 -1.24355 0.283865 -0.521248
568 1 4.20064 -5.1255 7.19917 5.2354 1.58247 -1.14091
569 1 -6.14133 21.4965 -15.5023 -1.71738 0.708135 -0.237473
570 1 -23.4479 12.6559 18.0267 0.196786 0.835412 -1.94841
571 1 0.341122 -13.2308 20.2842 1.93871 -0.0715715 4.83597
572 1 10.9152 -23.2664 3.54679 1.64782 6.13691 -4.1668
573 1 18.4604 -5.22169 5.70313 -1.29073 1.85725 -4.37468
574 1 14.1364 -24.6622 -6.20124 0.949665 0.644944 -4.0896
575 1 -16.9319 6.19749 -2.96014 -6.91063 -2.21481 1.73276
576 1 19.4812 0.300916 17.7065 -2.10276 -0.229928 -1.42797
577 1 -6.82488 21.632 0.350831 1.76019 3.61252 -0.46002
578 1 -23.4907 22.0425 -18.931 1.31697 2.8007 -0.0718858
579 1 2.97855 -19.6708 -12.2992 4.89222 0.397803 -0.431009
580 1 -6.4471 5.78829 -19.4706 1.79753 0.30871 6.03103
581 1 -14.5205 -9.57657 14.0519 -2.17628 3.82977 0.333467
582 1 -2.49111 -13.5527 -19.9415 4.79113 -2.62681 -1.54482
583 1 -21.5438 24.1239 12.2715 -4.84516 -4.07678 1.65027
584 1 14.9285 5.77545 -7.44417 3.36783 -3.14894 -2.34559
585 1 -7.96223 12.3682 14.8189 1.29869 3.47167 1.8166
586 1 17.1265 23.5609 -20.3085 -0.269018 -0.304338 -2.56822
587 1 -18.5727 -23.983 -9.93395 1.10507 2.83037 -0.157379
588 1 -18.6484 22.9633 5.80165 2.16073 0.885909 -2.31519
589 1 -2.48639 4.32181 -0.729138 2.6482 0.722069 1.06042
590 1 -4.54714 18.3313 21.6363 -3.73272 3.67923 6.2323
591 1 19.0907 -19.0123 11.3549 1.96239 7.06441 -0.283078
592 1 -14.8595 -12.838 9.79538 -2.56498 5.06982 -0.291343
593 1 -11.9337 -20.3562 17.0925 1.51602 3.99814 -0.131454
594 1 -20.601 -0.733894 3.95493 -1.27146 0.241278 -1.68614
595 1 9.20167 -17.5191 23.9251 1.09804 1.31976 -1.25644
596 1 -12.661 -20.0578 6.55947 2.06293 2.68954 -4.28421
597 1 -23.4941 -23.7043 -10.4507 -3.64223 -2.71467 1.99306
598 1 16.7124 -13.1844 5.58941 2.51139 0.259012 -2.8854
599 1 9.39636 -14.9112 13.7727 -0.758046 2.57491 -1.24583
600 1 -21.8978 23.614 15.1101 -2.77015 -4.56591 -1.3777
601 1 3.44041 -3.90775 21.7998 1.62223 -1.48273 6.84873
602 1 -8.02349 3.11454 22.113 -1.98085 0.1717 -0.473715
603 1 -5.8608 6.17305 -4.7855 -1.18609 0.802243 2.10431
604 1 0.0191263 24.0339 24.0634 -0.84314 2.7927 -4.57105
605 1 -22.2522 -0.460747 20.1643 -1.56229 2.64263 5.9193
606 1 3.43471 -2.42651 -23.8865 0.405156 0.521942 3.15204
607 1 -0.750723 -1.89681 17.2198 -1.79814 -2.33277 2.98991
608 1 3.49537 7.54185 -10.3634 4.02271 -2.56762 -1.29459
609 1 10.7674 -18.7356 19.6718 0.242113 1.09924 2.74202
610 1 13.9814 -3.84287 15.2642 7.11237 0.433537 -4.43969
611 1 -4.85461 -9.74625 -6.62633 -3.3463 -2.88478 -3.03437
612 1 -4.58037 13.4898 -14.3543 -0.588549 3.10734 -6.27502
613 1 11.2489 9.56396 -20.2794 2.31272 1.44016 -0.78224
614 1 -17.2206 -10.441 -4.73819 0.938066 2.7877 -0.462545
615 1 12.3382 -1.65366 20.3849 3.03537 -0.474646 -1.02549
616 1 17.0141 -0.871402 20.6257 3.75953 -4.83712 -0.531316
617 1 -10.5321 23.6956 -17.728 -3.40179 1.48269 0.836797
618 1 13.028 6.14559 10.0027 -0.75646 1.12074 1.97742
619 1 15.2362 1.77266 10.9529 0.615493 -5.19084 -1.05818
620 1 20.5125 -13.7332 -8.45739 -4.74371 -4.44847 3.4335
621 1 -7.45628 12.6656 -13.9056 -2.88561 -4.3935 -5.61563
622 1 -20.9061 -11.0284 0.94133 4.6765 0.713333 -1.60006
623 1 22.2563 -14.2574 5.00234 0.684929 -1.37049 -1.80442
624 1 -7.3318 1.29657 -19.7094 3.58511 -0.847079 1.87263
625 1 -2.78203 -9.05952 -4.74426 4.56199 -1.87518 -5.56314
626 1 -2.42649 3.45579 -18.2843 1.21272 -1.61383 1.60405
627 1 19.1716 18.0603 12.7427 -2.04344 -7.17588 -5.49048
628 1 -22.551 -16.7127 1.35563 2.12591 -3.21768 -1.41983
629 1 -6.17144 9.00411 -7.82113 3.34101 -1.36355 0.30692
630 1 -22.5107 22.9768 9.92901 -1.85095 0.494746 -1.59285
631 1 -4.81093 -18.5092 17.1435 1.61264 -1.49447 -2.23965
632 1 -13.9195 -19.979 3.95799 -3.04056 0.818026 4.00244
633 1 6.38972 10.7331 23.965 1.43818 2.53996 3.25632
634 1 -10.6439 -1.67834 16.3825 -3.21236 7.53906 2.52165
635 1 8.34019 12.0958 -2.93778 -0.630342 -1.7549 -0.295117
636 1 -24.2768 2.157 -17.4837 1.56945 0.94693 2.86903
637 1 -11.1896 -22.6662 -23.4398 -5.14302 0.313773 1.43917
638 1 12.4931 17.5799 -3.00323 -4.33452 -4.14224 3.51419
639 1 -10.4574 -18.3652 -23.1285 -1.3997 -2.78588 6.0871
640 1 0.587316 -0.379138 3.64385 -4.6134 -2.7739 3.9976
641 1 -14.3839 17.5282 6.54582 -0.986857 -0.761014 2.04054
642 1 -8.80382 -3.52576 3.05753 2.86676 -4.63917 3.2628
643 1 10.3268 -18.8772 7.7959 -2.90294 1.58078 1.33597
644 1 -6.17253 11.2023 -4.62349 -1.17119 -0.878292 -1.16615
645 1 -9.53183 -6.92082 -19.0082 -2.72269 -2.89735 -3.81556
646 1 15.0425 24.2064 15.2632 -2.21135 1.77051 -0.0605259
647 1 2.82421 3.37375 -4.49018 5.00982 1.84363 2.07036
648 1 19.3739 -15.5329 -24.0404 1.12854 0.32669 2.66025
649 1 11.4267 -14.8708 18.1044 -1.07984 -0.51798 0.399701
650 1 -8.37454 -2.50342 18.1375 -3.29996 4.80531 -2.22365
651 1 -22.5135 2.93627 -15.4017 0.792695 -1.60788 6.30657
652 1 -8.29041 -4.53275 -18.531 -2.2512 4.60074 -3.9506
653 1 -21.5216 -23.3325 -12.8921 2.05327 4.20646 1.42548
654 1 -10.1843 0.782547 -20.5558 -3.53381 0.946951 3.68642
655 1 -3.05372 -10.6526 -13.4658 1.64013 -2.18132 -1.64866
656 1 0.975168 23.2992 -10.8345 -5.97427 3.43805 1.07375
657 1 -0.972598 -4.30468 -13.8762 -0.636779 0.213196 -0.262825
658 1 20.6324 14.7044 13.5458 3.45926 -6.75339 -2.04767
659 1 4.35415 0.734285 20.3649 -1.9232 -1.87655 1.36048
660 1 9.86296 4.32329 7.76804 -3.05449 2.27722 -1.41538
661 1 -17.009 -7.19588 -18.2376 -3.2402 5.35811 -1.68681
662 1 2.20663 -5.66422 9.30602 2.49016 -2.31151 1.99221
663 1 -12.3311 -19.2109 -8.61549 -3.02708 -2.92209 1.93412
664 1 -14.918 -19.2156 12.952 6.21045 0.414147 1.78041
665 1 -0.50932 -7.27317 19.5253 3.03226 1.19799 -3.94552
666 1 -8.17316 -6.82123 -11.2506 -2.22663 -3.412 4.23177
667 1 -22.3544 -18.2817 22.9833 -1.00878 -3.00882 0.995497
668 1 -9.55502 13.4345 16.7881 8.05472 -0.442846 -1.09287
669 1 6.92234 -16.2721 12.8878 0.358277 -0.42275 2.10778
670 1 1.24871 -14.5087 -1.77442 1.86215 4.30382 0.650645
671 1 21.1187 15.6358 3.60616 0.69434 1.41371 -1.80051
672 1 23.3921 4.81075 -11.1652 -3.61101 -0.929983 -3.92116
673 1 0.106069 17.1107 -21.376 -1.31918 0.886541 -4.36131
674 1 -7.8524 -0.63946 -21.9901 -1.25823 1.74016 -2.54418
675 1 -23.3937 -10.4593 -8.28992 -0.824407 4.44452 6.89275
676 1 7.49176 2.7782 17.2587 -0.580313 -2.64913 1.80864
677 1 -23.0166 -10.9033 -11.0371 -1.38114 3.53771 -1.26515
678 1 -20.171 -6.96235 1.4777 1.18712 -0.235719 1.2167
679 1 -20.9362 2.39335 -9.10786 4.82639 -0.576522 2.7543
680 1 9.72444 20.2981 -8.98907 -2.83643 0.503255 -1.71184
681 1 -0.491098 -0.426555 -8.78785 -1.97999 1.45674 -4.07692
682 1 -3.47237 15.4799 -9.67761 -3.40867 -2.90908 -0.668612
683 1 0.83614 10.774 -18.0921 0.187958 3.50838 2.16124
684 1 11.9211 -21.2687 -10.1949 -4.79815 2.05165 -2.47414
685 1 20.0987 1.81183 9.24856 2.06549 1.30565 -2.00837
686 1 -16.5043 -0.359594 16.1494 -1.42115 7.78056 2.99425
687 1 -15.5098 7.32529 9.44093 5.8448 -0.45374 -2.9828
688 1 -11.6797 -9.49321 -12.2503 2.92209 2.92113 4.30728
689 1 -1.26411 -1.35198 -4.44528 2.30515 -1.81472 1.99727
690 1 -0.0147182 23.95 -5.08665 1.71769 -1.46729 3.69234
691 1 -0.792424 6.41474 14.7587 -4.05409 0.836128 2.42766
692 1 -9.78163 -7.31287 3.06974 1.88615 -0.763854 -1.01801
693 1 -7.27616 22.5168 3.12073 -0.687812 1.53692 0.304532
694 1 9.9917 -18.4698 1.81116 2.65593 5.37452 -0.942614
695 1 7.83627 -11.0549 -7.40346 0.386756 3.84355 1.84908
696 1 -6.05442 -21.4858 9.11316 -0.303818 -3.31028 -4.17756
697 1 -21.418 16.9242 -19.8343 1.04861 -2.42171 -0.411107
698 1 21.8579 -11.6576 -5.78247 2.98071 -2.68911 -2.05562
699 1 -15.1855 -11.3284 16.5498 0.52978 1.09825 -6.44298
700 1 1.13814 6.71197 -23.7109 1.96785 -3.02982 -1.35082
701 1 17.4991 0.766676 9.0687 -7.90733 -2.50035 -7.00245
702 1 -16.4417 -1.94149 13.8509 -0.663036 -3.68329 2.39062
703 1 6.3844 24.8847 -22.2532 2.96959 1.8779 1.52048
704 1 -8.98583 -11.8763 11.8554 -0.334383 0.870781 -2.09985
705 1 7.10396 22.0458 -15.4595 4.32538 -1.57706 -2.2123
706 1 5.98336 3.24745 19.5751 3.53126 -1.00022 7.07169
707 1 -17.9431 0.870819 23.048 -2.56937 7.50564 0.198929
708 1 11.5712 -5.88152 -17.877 -1.50857 -0.924035 0.149141
709 1 -9.78423 -4.05885 -9.54147 -0.199537 -2.43249 -2.42128
710 1 -2.56072 -8.7425 13.1303 1.39469 -2.28543 3.08003
711 1 -12.9146 -6.43416 -15.6381 0.123104 -1.4303 -1.80961
712 1 4.94717 -9.26825 12.9341 -3.72433 1.19436 -1.59386
713 1 2.71471 4.66789 1.3686 -1.70627 -0.198306 -1.31594
714 1 19.766 -7.82222 -12.6108 4.76844 2.92862 1.10855
715 1 3.38577 17.8839 8.77045 2.48236 2.58023 3.96412
716 1 -0.759848 -21.4732 10.164 -1.27816 -0.988102 0.331361
717 1 -11.9579 -4.76303 -13.445 -2.21664 -1.06859 4.31179
718 1 -12.2172 -6.16093 4.45936 -2.97096 0.954146 2.07093
719 1 13.2757 -7.12211 10.414 1.63889 -2.44046 -5.2976
720 1 5.30607 -3.38777 -19.6198 1.55708 -1.20032 -4.86537
721 1 -7.97642 -10.1144 -15.3279 0.0464807 -7.86521 -6.08159
722 1 8.14404 -21.2294 -13.1638 0.490147 2.61567 2.9032
723 1 -23.0762 12.9313 -6.17719 -4.61287 -2.40979 -5.27021
724 1 -8.0803 23.378 -8.80747 1.05816 1.11736 -0.266262
725 1 2.38104 18.8184 23.6814 5.59628 -2.52788 3.34592
726 1 -5.36286 -6.29781 23.0706 -1.34821 -1.43366 1.72206
727 1 5.69366 -4.16309 -14.4081 2.04627 2.26663 2.13766
728 1 -12.8348 15.4192 -8.24952 1.78936 0.688757 0.0956624
729 1 -14.0287 15.1877 15.7718 1.28868 2.31701 -2.10935
730 1 16.1416 -20.7043 -18.7062 -2.62605 -3.80912 2.98969
731 1 -12.4409 11.9905 -23.3005 -2.16543 0.103766 3.0199
732 1 11.5339 -24.0379 -6.88881 8.76996 -4.93821 4.76663
733 1 -14.3318 -17.7288 5.67659 1.98938 -1.82871 2.19554
734 1 -19.0509 24.9088 20.0755 0.65638 2.01777 -2.12097
735 1 16.4646 8.67071 9.56199 0.869081 0.423685 0.442796
736 1 5.12297 19.7655 -7.83074 0.245894 2.13462 -7.13229
737 1 20.4543 -15.1467 6.92839 3.19824 4.39541 2.33527
738 1 -8.83094 5.04788 16.3829 0.620346 -0.283449 0.954272
739 1 -18.2199 -20.7409 3.08198 -2.86742 0.815786 -5.06604
740 1 17.0672 12.1339 20.6434 0.88819 0.288499 -0.528656
741 1 -16.4649 -21.0695 -9.96645 5.43784 2.05481 4.20846
742 1 -7.12888 -23.6753 23.6499 -2.91079 0.120787 3.58605
743 1 -23.5998 21.3529 1.01458 -0.789388 0.629358 -1.0731
744 1 9.60329 -11.7718 -12.149 1.79788 1.0219 -0.809514
745 1 -21.8104 3.67694 19.9932 0.27171 -1.3009 -3.28047
746 1 -17.1557 -7.58233 23.2183 1.76922 -5.91914 2.50232
747 1 11.6722 -10.2048 2.19768 5.28516 -3.08948 1.91866
748 1 -13.0299 -20.3786 21.9556 -1.42092 6.13588 -0.605287
749 1 0.172958 12.0492 7.28022 0.458024 1.8752 -6.83981
750 1 17.2893 -6.41525 -12.347 3.88823 -2.25061 -5.18661
751 1 -20.1553 10.5973 -13.5406 -1.06525 2.66852 4.98179
752 1 23.2039 -19.8836 6.46684 -1.53111 5.17246 -2.48793
753 1 -18.2148 -16.7109 22.044 1.96627 0.383789 1.76974
754 1 -14.4915 23.2256 15.2505 1.88124 -0.314797 -1.76995
755 1 9.14228 11.6482 -20.8937 -1.68207 -1.71086 1.53526
756 1 -5.92011 -6.06021 -2.77289 -2.51331 -2.36804 -2.14953
757 1 -17.1235 13.141 -6.4443 0.193653 -2.8564 -1.33868
758 1 -15.1757 -17.5229 20.2542 -4.76337 -4.94905 -1.06254
759 1 0.542703 12.871 -12.2779 -6.73133 -2.24806 1.87264
760 1 1.49559 5.00126 13.7446 -6.51985 0.338767 -0.366033
761 1 -9.47517 -14.4228 -6.00478 -3.08351 2.83151 -0.235696
762 1 5.08144 17.8251 22.8518 -1.28334 -5.77032 -0.0141316
763 1 15.8673 5.60426 9.54746 1.8136 1.89718 0.923135
764 1 19.6562 6.1042 7.6868 -0.565421 -2.25931 -0.0554256
765 1 21.2788 13.7617 10.9457 -3.35478 0.933268 -5.24629
766 1 -9.62388 18.8395 -16.7126 2.71459 -0.830964 0.0349241
767 1 -2.88233 -13.2723 -0.29886 5.27124 0.523125 -1.52955
768 1 -8.54485 9.47052 8.26941 0.0903463 2.10254 0.182752
769 1 14.2254 26.284 19.06 1.67937 -0.340783 -1.52369
770 1 -5.88426 22.0868 23.9146 -1.59063 1.77743 -0.902141
771 1 8.40722 -16.0339 10.1423 1.09065 0.38669 0.452512
772 1 7.24184 7.11919 6.64752 0.450989 0.64925 -0.734414
773 1 11.4999 -19.468 12.4987 -2.18965 1.50283 2.21485
774 1 16.2923 18.7871 13.3625 -2.45236 -5.09552 -0.802319
775 1 22.2435 -21.1359 -10.8224 -3.61083 0.943469 2.7959
776 1 8.85742 -0.266347 22.5175 1.38016 -3.10894 1.39238
777 1 22.2753 -11.0582 -11.1436 -3.13395 -0.287791 3.43938
778 1 1.92123 -17.4335 -15.8284 0.448901 -3.17511 -4.2311
779 1 4.93481 3.87647 -8.74189 -0.314807 -3.26338 -2.60885
780 1 -5.05212 -11.9287 -20.4401 -1.59881 -1.54189 -4.74235
781 1 -20.5471 1.97991 8.05851 -3.38633 2.08622 -2.74133
782 1 20.6178 -8.17976 -15.2747 -1.86566 -1.79183 -0.380391
783 1 5.7407 -15.2724 22.2155 3.08744 -3.49917 -3.48658
784 1 12.6652 13.2093 -3.73289 -2.29693 -1.03053 1.37874
785 1 -3.10766 20.5825 20.7725 -1.37651 2.37164 -4.85214
786 1 -21.9903 21.6745 20.8987 0.46124 -2.56525 4.86562
787 1 9.22744 14.4841 -11.8231 3.11291 4.34348 1.56689
788 1 -19.8464 6.86809 8.06171 -1.51079 -0.784691 6.06919
789 1 -14.0509 19.291 -0.189931 1.55479 -2.44985 -1.42951
790 1 3.80401 1.38694 15.0878 1.80647 3.03496 -0.550602
791 1 -4.05925 21.712 14.0217 5.07731 2.19339 -3.09585
792 1 -22.3298 14.8421 -8.52664 3.93217 2.05292 -4.34286
793 1 -23.9463 -10.8335 1.08957 5.16058 2.8069 -0.716332
794 1 5.36767 17.3221 -22.6227 2.82261 3.54102 -0.223487
795 1 19.2807 -7.08978 21.1254 -0.591191 1.12116 -0.828703
796 1 -11.3112 -14.886 -14.5915 1.11026 -2.57243 4.64583
797 1 -19.699 -13.4613 13.4613 -1.22153 0.369354 3.58146
798 1 -16.2192 2.23292 -8.77042 -0.43262 0.853724 -1.2243
799 1 -11.7144 19.1352 -1.51588 -2.53156 -0.797558 -0.84504
800 1 -17.6775 -10.3737 17.376 -2.14554 -10.9187 0.15185
801 1 21.3006 14.8156 -1.77105 -1.27405 -4.29512 -1.45523
802 1 -20.1737 -18.194 14.4107 0.00185456 -3.32237 3.17075
803 1 18.2044 -10.1473 -9.07167 -0.291601 -3.0859 0.808782
804 1 9.31318 -21.203 -8.43593 -2.60863 3.52846 -0.852623
805 1 10.1419 25.3554 23.0878 -0.688407 4.83802 -0.174416
806 1 -1.55978 -13.0188 12.2478 -4.49946 -1.26887 -4.13715
807 1 15.9658 22.1323 -22.4922 -2.19166 2.95266 0.358366
808 1 -1.42014 -18.3841 -11.5211 -5.2184 -5.78839 3.12105
809 1 -5.44218 21.8939 -18.2063 0.234643 0.158065 1.23077
810 1 -20.3671 -16.9155 -5.41852 2.76379 -5.34653 -1.1452
811 1 -15.8688 -8.13146 -6.25551 -2.5962 -0.430317 -1.36687
812 1 4.3677 -11.8623 -10.3282 1.76213 -3.45984 3.29086
813 1 -13.2585 24.6501 -18.1874 -0.581378 2.34321 -0.458294
814 1 -21.0611 -2.20821 -1.16258 -0.582355 1.28067 -0.317702
815 1 -21.47 11.2623 -17.2213 1.93011 -3.24952 -2.09949
816 1 17.9747 -16.9404 17.8763 -6.22492 -8.93459 -5.73033
817 1 7.05167 -12.0388 16.0158 3.35755 -1.23447 -2.59687
818 1 -10.858 6.93074 20.4044 -2.34265 0.548658 -0.335698
819 1 9.02194 12.7013 18.5621 -4.12983 0.328248 1.80016
820 1 3.2146 14.6912 8.53558 -6.66272 -8.96227 0.112824
821 1 -23.2321 -23.3511 -22.9776 4.25463 0.526612 0.741177
822 1 20.5975 -14.361 16.3348 8.2208 -5.13518 1.13331
823 1 6.53805 -11.0394 3.59347 0.332683 3.08076 2.23505
824 1 3.94423 -19.6675 -8.17558 -0.84522 1.10707 4.43176
825 1 -24.3648 4.57093 4.8161 0.454066 -2.65215 -0.263731
826 1 -13.7649 8.02563 -5.46715 -0.834702 5.6951 0.806465
827 1 -3.18291 0.519163 4.81965 1.74473 -1.91964 3.00508
828 1 -8.27222 -18.9611 13.2633 3.61777 -0.911089 -5.22801
829 1 18.8571 14.6785 20.1559 5.42107 -2.23754 2.31643
830 1 -9.5814 -11.0711 21.2359 -0.0404461 -3.29828 -2.61662
831 1 2.51388 -14.9267 -23.6385 -2.32649 1.09265 2.04512
832 1 -6.03943 -4.57282 10.8847 -2.3554 -0.813668 -1.38037
833 1 -14.1766 -4.83595 -7.54482 2.72496 -1.27309 -4.30066
834 1 -0.365556 11.3333 -2.01965 4.30545 1.9789 1.17945
835 1 2.93063 7.18917 -21.5671 2.61958 -0.771473 0.565581
836 1 5.04631 -12.5605 22.3341 -2.53182 -2.71097 -0.720555
837 1 -18.742 -18.6218 -7.24185 -2.59537 -0.135138 -0.520197
838 1 -23.984 -19.1494 2.41219 0.0242655 -1.98188 -1.95098
839 1 -20.3163 20.3992 -11.7929 3.2967 -5.60562 -3.17636
840 1 4.21272 -16.5191 12.0026 0.777239 -2.83021 -0.871435
841 1 19.969 4.44121 10.0659 -2.70803 2.57841 -0.447413
842 1 -8.29404 -22.4771 -2.86069 -0.396865 2.49582 -3.76919
843 1 18.8833 -5.14246 19.0897 2.02374 -1.94679 2.29651
844 1 18.5063 -17.8934 -22.406 -1.72218 -0.166304 -1.50785
845 1 19.0877 6.49706 -1.7993 -2.43565 -1.13501 1.42084
846 1 8.63965 7.52335 -12.1651 -2.91016 -2.17093 -3.21611
847 1 -13.2844 47.1238 -14.0795 -3.72992 -4.94841 -5.56516
848 1 -5.45432 16.2759 -13.3133 -1.33954 -2.27558 2.48508
849 1 22.6437 -13.7566 -11.9597 -5.90492 -0.476163 0.105449
850 1 17.0425 -19.8314 -23.8151 -0.83658 1.90011 0.884227
851 1 -23.8771 15.9861 -13.38 -2.90268 1.11986 -6.54451
852 1 11.6016 -0.590765 -2.31859 2.63909 2.14503 3.79405
853 1 13.1773 10.0085 -13.6276 0.467923 2.74157 1.71745
854 1 -23.2416 -13.499 4.56813 -2.51758 2.46302 1.39324
855 1 -17.2539 21.7059 -20.1095 7.47954 -1.0909 -0.902467
856 1 -20.7186 -3.51098 -7.55461 -0.288281 -2.56679 0.328614
857 1 -23.7309 -6.19484 9.36295 0.709867 1.8444 -1.9927
858 1 16.7032 -11.6134 14.4439 5.72646 -0.277613 1.41261
859 1 -14.1122 -8.89888 1.68776 6.31963 1.40316 4.30515
860 1 12.6134 -11.294 -15.2524 -1.96053 5.42942 0.874694
861 1 -23.0995 19.0923 -14.6881 1.33128 0.888742 -0.439039
862 1 0.637136 14.9734 -10.3396 -0.164428 0.417157 -3.29264
863 1 17.9804 -15.7917 5.53522 2.18988 -0.433186 2.85439
864 1 -14.635 4.16465 19.043 1.37028 -0.370377 -1.39001
865 1 -0.799201 -21.1582 13.1876 1.18729 2.15459 -3.45696
866 1 13.7836 -2.79713 22.606 0.66812 4.02364 -1.03994
867 1 -3.92284 10.705 21.4511 -4.73761 3.50569 2.69723
868 1 1.33342 17.0354 -4.20874 0.540408 0.143978 5.27152
869 1 0.0091765 18.378 3.89676 0.606531 -0.964026 1.30337
870 1 15.0385 20.7968 18.957 -2.55164 -5.19394 -1.67361
871 1 5.06696 8.54335 -17.4879 -0.0995578 0.578592 -0.425873
872 1 -2.8017 -8.13279 -21.5667 -0.563401 0.686088 -2.06004
873 1 -4.42714 -0.545077 -22.7317 -0.14904 1.64543 1.01909
874 1 13.0298 1.25335 1.08255 -4.88797 -3.72711 -2.87992
875 1 20.8053 16.3619 10.3802 1.58902 -5.09698 -2.92966
876 1 14.1247 -15.0095 -8.72229 -1.17862 2.15257 1.91128
877 1 1.48316 -19.5454 18.7943 1.49462 -2.12682 -2.6856
878 1 5.58072 13.292 -23.0341 -0.0897408 -2.87193 2.22126
879 1 15.1863 5.3806 -17.4485 1.91559 -0.115556 0.285656
880 1 3.64828 14.8644 20.5217 -3.04978 3.52024 6.57711
881 1 -2.09947 -4.65435 20.4067 2.1515 0.723381 -3.9253
882 1 -12.1845 -2.33984 -2.87698 -3.25977 -0.756096 -0.137347
883 1 16.8964 18.2414 -8.61293 4.34069 -0.470937 -3.71478
884 1 18.5376 -18.8384 -14.9594 4.99141 0.223615 -3.42539
885 1 -6.32369 -20.3322 -3.22687 -2.79255 -0.645611 6.20433
886 1 -4.77605 23.4211 4.02432 1.05845 -4.61569 -5.28237
887 1 10.0323 -23.018 18.2711 -1.50895 2.31256 1.40827
888 1 -9.18479 10.4866 -17.3241 -1.94472 -4.47845 -0.870429
889 1 -16.0429 -5.21417 15.8784 0.143453 -2.16101 6.16407
890 1 11.63 -16.9017 13.6877 -1.20409 -1.60013 -1.73181
891 1 -24.071 -2.77003 5.07093 -0.0502835 2.03341 -5.89896
892 1 4.43381 -9.4438 -4.72505 -1.42908 -0.232736 -0.164125
893 1 21.2042 -4.7543 0.702934 0.136759 0.255031 -1.00061
894 1 -1.03417 10.9847 21.2341 2.06766 0.272661 1.97156
895 1 1.94254 -23.1708 5.92023 -1.0276 -8.79545 -2.30486
896 1 9.74677 -2.9487 20.05 -5.58688 4.20937 1.79683
897 1 -13.0127 -23.5624 9.70085 -2.19112 4.90651 -5.22647
898 1 17.4833 1.20164 -23.4525 -1.75095 -1.41458 -2.1685
899 1 14.3887 -19.0572 15.6322 1.38246 3.76256 0.802201
900 1 -14.0272 -15.2668 -14.4888 -2.71186 -1.08849 1.60768
901 1 3.64922 -20.3254 9.25528 -6.27614 -0.268162 4.07556
902 1 -6.5348 16.5803 -1.31156 -3.4011 0.856584 -3.58421
903 1 -5.71374 23.821 -20.3247 -4.77713 0.998976 -1.55452
904 1 -10.851 -7.46438 -7.26459 -4.37529 -1.02449 -0.892018
905 1 22.4047 -8.3391 23.5321 1.49467 -2.50532 -0.939042
906 1 -6.71419 -22.9459 18.3968 1.13011 1.46642 -2.54333
907 1 -13.5749 3.62114 -12.1803 -4.09186 0.296892 -8.09997
908 1 -8.29341 -15.9844 12.9269 -2.99304 3.28468 -3.01247
909 1 16.3104 -20.2021 10.8455 -1.226 -3.36306 -0.245004
910 1 -9.97208 5.10548 -4.11184 -1.56818 1.54485 0.669782
911 1 -2.61848 12.56 23.4318 -4.24944 -0.313692 1.42104
912 1 -16.6875 20.2879 -9.29965 -3.48788 -0.717096 3.27099
913 1 -3.86101 23.6885 16.1892 -2.94947 -1.71986 -2.9552
914 1 -22.8167 16.1716 10.2863 3.11588 2.44366 -2.66008
915 1 15.6856 -7.75319 -14.3249 -4.35021 -1.38076 0.626264
916 1 -16.61 -15.0528 20.3503 -0.104612 -1.50044 1.22368
917 1 22.6527 3.72023 -21.0897 0.0609203 0.374339 -3.25808
918 1 -5.66339 7.22657 2.04305 -0.943683 1.67819 -7.66615
919 1 -10.4615 16.5068 11.1162 7.14172 0.58588 -5.60227
920 1 -0.128486 14.7333 -19.8157 -1.65419 -2.3558 2.8714
921 1 9.78457 -9.53357 -20.0137 -5.24739 -4.70531 2.48726
922 1 -11.7793 3.51326 -20.6083 3.40282 -2.84709 -2.59944
923 1 3.17592 -11.4742 0.686041 2.60448 5.17895 1.92186
924 1 -6.03618 15.6168 5.19668 -2.49929 2.46979 2.90326
925 1 0.829656 12.6084 -4.24046 -2.44704 -3.09433 -0.85741
926 1 0.873068 -15.0132 7.76932 -0.953408 0.681682 4.35862
927 1 5.19103 12.6992 18.9247 -3.02626 -0.159745 -4.15984
928 1 7.44651 -18.7489 10.4684 0.690793 5.22354 3.26938
929 1 -7.92505 -14.2729 -3.49427 0.196343 1.96116 -2.6358
930 1 -18.7956 -20.7144 -13.6158 -0.419577 2.86221 0.41777
931 1 18.2927 -1.64203 -7.7013 0.907871 0.171148 -3.89843
932 1 -19.3742 16.4397 15.1033 -1.68525 0.896453 5.32971
933 1 -18.6269 -21.3218 -23.5569 -3.01893 1.25463 -0.673708
934 1 -2.952 16.849 -21.4879 0.50683 0.722993 -0.429795
935 1 23.2749 -12.7521 -2.73082 -3.18564 0.0838105 1.39647
936 1 8.10668 12.6725 12.7587 -4.88746 1.66277 -3.55182
937 1 1.15688 13.0079 21.4411 -2.73262 3.35589 -0.846539
938 1 19.7393 8.57284 6.09323 2.274 -4.0373 3.74683
939 1 -7.59792 -13.031 -16.2539 0.042349 4.11112 -1.02169
940 1 21.8808 0.892135 -8.22808 -5.45647 -4.9659 -0.560942
941 1 -21.1032 23.2715 7.39137 2.82497 -0.167561 -1.84382
942 1 -6.28869 -16.4404 -20.233 0.490682 -3.93446 -1.91013
943 1 18.8046 -3.83534 2.0615 1.73569 2.23786 1.85682
944 1 -15.4384 -3.7629 23.6309 2.80744 -5.03689 -3.65493
945 1 4.88377 -23.3039 17.9363 -1.66467 4.30044 0.00482072
946 1 -14.591 -8.1821 7.17116 4.69406 -2.547 -0.155245
947 1 -9.75526 17.6991 18.7662 3.38792 1.10436 1.75974
948 1 -21.3358 4.62629 -7.34951 -1.03586 2.29791 -1.47971
949 1 -4.08884 13.0626 19.8726 -0.555498 -4.97308 -1.96256
950 1 -21.5317 6.43748 12.2726 2.60174 -2.97047 -4.31465
951 1 -9.34158 -24.4205 -14.227 1.77014 -0.30997 -1.83344
952 1 11.7917 -14.1149 -9.82682 -0.0120271 -1.23214 5.0823
953 1 15.9489 -2.39511 2.28813 -1.51074 -0.900887 2.304
954 1 15.4933 8.5793 -9.28394 -5.04639 -0.611186 5.51847
955 1 -11.4435 19.6432 -18.7327 -2.73225 -0.451128 -3.93924
956 1 -12.6515 -8.39936 -9.52078 -3.21842 -3.34976 -3.78063
957 1 -5.71027 -2.00648 15.2562 -0.638411 1.22883 2.08645
958 1 1.71833 12.2392 18.7218 -5.99822 0.709593 -0.629338
959 1 -14.4011 -16.8941 -22.7893 -4.06913 -6.63286 -3.18921
960 1 -2.04725 -22.2761 4.98151 -3.23758 -0.111617 -4.6984
961 1 -5.44326 12.9183 0.179987 0.102947 -0.688264 2.41189
962 1 -5.27015 5.25073 -7.52447 -1.99639 -1.78306 -1.85978
963 1 -16.2054 25.2918 -13.2659 1.22955 1.0504 -1.41465
964 1 11.659 -16.4832 -22.8663 1.17505 0.0756222 -4.04783
965 1 -13.0547 12.0992 5.95316 -0.921985 -1.473 2.6595
966 1 -18.5006 -7.28648 12.6369 -4.38479 0.517739 2.46245
967 1 19.9408 -5.31226 -15.6249 5.14279 3.563 -3.70852
968 1 -2.83233 23.565 -15.0471 0.324416 -3.61016 1.11741
969 1 16.0932 -22.6379 3.51879 5.11097 2.45967 -5.77148
970 1 -3.7616 -23.5513 -8.42573 4.20436 0.171467 6.04607
971 1 14.6043 -5.39832 21.8109 -4.79226 -0.902277 -0.583223
972 1 -9.08568 -19.9769 -0.213681 2.64677 0.465969 0.580662
973 1 -11.4297 -4.64568 16.7983 3.53427 0.909359 0.295438
974 1 -0.977762 22.628 -12.7561 -2.51331 3.49085 1.44094
975 1 -12.4195 -10.5659 5.01322 -3.40521 1.36549 2.01513
976 1 -19.7238 -6.80718 8.25933 0.948587 5.2638 -1.91072
977 1 4.16617 -22.9819 13.5379 0.113743 3.40878 -1.12115
978 1 3.27734 14.0657 23.5465 0.379606 -3.75453 -1.21595
979 1 6.16942 24.4015 -19.3229 -4.27564 -0.00271952 0.39036
980 1 6.14196 20.7822 10.7893 1.76407 -0.0915247 -3.17094
981 1 5.61998 -3.09643 -5.48018 -6.34119 -1.09837 -2.87289
982 1 -5.08019 -7.24267 4.77617 -3.69741 -2.07258 -1.6307
983 1 -21.3724 7.49746 17.4742 -0.857057 -1.21306 2.23926
984 1 -14.4956 17.3429 -4.48007 4.60929 2.50312 0.699089
985 1 -17.3069 18.9879 11.9643 2.00284 1.54569 -3.43067
986 1 -1.01499 5.01635 10.962 0.983366 1.39778 -3.41484
987 1 -24.1755 -16.598 11.1455 -2.45352 -3.04777 -3.04704
988 1 -10.1448 -24.0112 9.54973 4.74027 0.104834 -3.51556
989 1 6.22256 2.51438 -6.6589 -0.557215 -1.73202 2.126
990 1 11.9285 -6.43461 13.7983 -4.72476 -0.451872 2.35887
991 1 -7.75643 -8.13688 6.47509 4.95458 -3.93998 1.13357
992 1 -21.6987 9.56572 2.75107 2.53224 0.513772 4.01013
993 1 -21.6991 0.646037 23.4907 4.19174 2.62718 4.22415
994 1 21.2522 -16.5991 18.0441 -1.67281 -0.331301 -1.65624
995 1 8.44299 1.70154 0.133635 -3.35753 -2.35445 -0.457844
996 1 18.9542 13.2713 -16.132 -1.95919 2.25352 -0.866248
997 1 -23.1095 24.592 -23.5054 -4.01984 -2.30658 -3.36017
998 1 -2.46331 10.3494 10.9194 7.10012 -1.34798 0.983486
999 1 -22.175 10.9371 7.3452 -2.1258 2.45778 -5.96346
1000 1 16.9485 15.9815 -10.3751 5.33478 -2.68006 0.0619993
1001 1 -21.2832 -4.36323 -4.93562 4.43691 -1.0297 1.72032
1002 1 -13.4862 -16.0529 3.52523 -5.80974 2.68778 -0.462509
1003 1 10.7527 -12.5709 9.86705 1.48312 1.95732 2.09196
1004 1 23.4163 24.0817 8.9455 -1.43883 6.21072 -0.449246
1005 1 -14.3351 17.4872 2.0579 0.252741 -6.24371 -2.04474
1006 1 -22.6723 9.97368 18.0378 -2.36153 3.71971 -0.287034
1007 1 12.7309 -0.229308 18.1516 -2.54174 0.403183 1.29163
1008 1 3.73854 -3.27994 15.0562 1.44365 0.0385659 2.22178
1009 1 10.1146 -15.1794 5.60015 -1.73101 -5.09497 2.91828
1010 1 -11.3646 3.25473 -9.41956 -0.727829 1.47424 1.74051
1011 1 -19.2485 0.388369 1.68389 1.89091 -0.628584 1.64304
1012 1 -0.346086 2.1069 -1.32066 -5.86944 1.89348 -1.27646
1013 1 2.38989 -14.7945 3.9277 -0.142948 -2.6395 -3.45558
1014 1 -21.9132 -22.6821 1.88471 -0.437108 -2.32013 1.31888
1015 1 -0.966554 5.38125 -22.0488 4.23917 -1.03742 0.0162675
1016 1 -22.9367 2.90572 6.56655 -3.01445 -4.52709 4.28781
1017 1 -8.84232 4.10227 12.2171 2.36311 -3.16386 -2.69588
1018 1 -21.2108 -21.4602 5.2592 -5.09799 4.91458 -2.05299
1019 1 7.62847 17.0975 1.77221 0.635292 8.07798 3.10905
1020 1 -19.9593 -24.103 11.1938 4.48592 -0.635807 -1.27327
1021 1 20.1636 -19.3756 -3.9153 -0.947592 -1.94336 -0.0754166
1022 1 -7.56194 -22.7257 -11.1304 6.1373 -4.19718 -0.562101
1023 1 11.1326 -0.968345 5.80862 3.57103 -8.05205 0.601925
1024 1 -3.90144 8.45418 23.1136 2.59972 0.253884 -2.65844
1025 1 6.14789 5.27325 -19.5987 3.50887 -2.2205 1.49185
1026 1 3.29591 13.7625 -10.3478 -4.44115 4.42081 -0.624709
1027 1 -23.2021 -6.09716 13.79 -4.58437 -1.1717 0.222047
1028 1 -7.02638 -11.6736 -12.8467 -2.65915 -0.745643 -3.66668
1029 1 12.0166 12.6003 1.31524 2.4439 4.13337 -1.1813
1030 1 -17.1223 -16.9669 -23.6729 2.40094 1.93446 -5.25542
1031 1 -3.83047 -12.9542 -3.99188 1.38878 -0.064066 -0.0194307
1032 1 10.3872 8.37883 17.7826 -0.576196 4.94695 0.0664338
1033 1 -5.61989 -19.0694 2.46392 -3.04531 -3.21246 6.3501
1034 1 -14.3715 10.8832 -11.9515 4.47388 1.08847 1.02009
1035 1 12.4398 20.4139 -3.52509 -0.831889 -2.04716 5.61446
1036 1 3.53699 -12.1028 18.2994 -1.0799 -3.58925 0.0218848
1037 1 -13.5861 -16.4464 17.9501 -1.3846 2.79578 -2.44255
1038 1 -2.20959 7.49781 10.3421 2.10583 -0.217573 2.01965
1039 1 23.1191 20.4582 -10.911 -0.360543 -2.44991 -0.433479
1040 1 9.88723 -0.678983 -23.1207 3.53793 -1.70951 4.50317
1041 1 -1.59353 9.29236 -13.584 -5.18309 -4.9295 2.78152
1042 1 14.3082 -4.83513 -23.7864 -1.33002 0.637605 -2.72685
1043 1 15.9441 10.2767 -5.37566 -2.81277 -0.386325 1.82467
1044 1 -5.40233 22.4925 -9.8245 2.77644 2.30282 -3.73604
1045 1 -6.05399 -1.91792 22.2715 5.815 -1.56934 -0.466496
1046 1 15.7343 15.7617 -16.1978 3.89603 6.03836 2.52771
1047 1 -17.4591 1.35722 20.1481 9.47127 -2.74599 0.654633
1048 1 -0.215096 0.918887 17.8989 4.59772 1.01544 -1.73019
1049 1 23.6163 -1.12331 -12.3571 0.073179 -1.6517 -0.242109
1050 1 17.6551 21.718 18.8688 -1.2609 1.6011 -0.352478
1051 1 0.894219 -1.49632 10.952 -2.98186 3.34648 6.89126
1052 1 -20.4001 -2.9735 -20.151 1.75848 -0.905671 3.67909
1053 1 3.31644 6.59507 -18.8356 2.2217 -2.4265 -6.21356
1054 1 -14.9393 22.6013 0.36203 -1.9645 -4.97765 0.546795
1055 1 -9.221 17.3985 15.9143 -7.38799 -4.1973 1.38763
1056 1 -8.59162 17.5604 5.43557 -3.19 -2.48331 -3.26529
1057 1 -9.92343 -16.6833 -16.4418 -0.188305 -3.65609 1.52175
1058 1 -0.620845 -3.52565 -8.67166 -1.13011 7.9711 -0.0552936
1059 1 4.46526 -22.1605 -15.5439 -2.79935 -2.51233 0.4939
1060 1 -17.9056 -11.6957 7.38418 1.90905 -1.94865 -0.0268399
1061 1 7.1025 8.23534 -14.5069 -2.35287 -2.22697 2.43172
1062 1 -8.46844 -1.44386 8.97117 -1.33088 0.0103633 1.17136
1063 1 1.25056 18.9822 11.8753 0.382958 -3.62735 -6.1782
1064 1 14.8652 -16.1212 7.70082 -5.14627 0.911783 0.630582
1065 1 15.6095 20.1264 -17.4375 -1.86704 4.90082 1.7784
1066 1 15.6911 -1.71208 -22.4025 1.23649 0.2442 -4.79607
1067 1 -22.2993 7.08284 9.56611 0.928679 1.94774 0.62425
1068 1 -3.06972 19.4016 0.812772 0.904821 1.96909 -1.85978
1069 1 23.6368 15.8134 -21.1204 -5.90684 -1.61399 -3.28173
1070 1 -7.89507 6.89151 9.43993 -0.401152 1.09206 -0.407183
1071 1 -18.6341 24.0598 -12.2783 2.94856 0.713543 0.405273
1072 1 13.0692 8.78192 -17.9722 2.28527 1.31498 -1.46486
1073 1 -0.0525214 -23.0342 -11.025 -0.184952 1.49891 -3.33798
1074 1 -11.4573 11.4468 -16.3221 3.87654 -1.58663 -1.55171
1075 1 -2.23843 11.1999 14.5867 4.22772 2.66742 0.562318
1076 1 20.6697 4.80999 -24.072 7.25364 -5.37093 -1.78997
1077 1 16.1305 -8.38853 -8.81115 -0.184684 1.02966 -0.68802
1078 1 10.5678 -6.9469 11.4349 1.49797 1.1732 4.77424
1079 1 -17.0686 -0.755514 11.3366 -0.747503 3.19039 -9.3235
1080 1 -19.7158 -9.93353 -9.78508 -0.971241 -1.89754 2.761
1081 1 8.47283 -7.95427 16.1012 3.34487 -2.28269 -0.106143
1082 1 -17.0176 -19.8274 -5.49634 -0.397989 -2.65173 0.710292
1083 1 -0.530275 21.0153 -18.9622 -1.20328 4.79089 -2.81
1084 1 -2.13588 -15.0642 -5.15782 0.877415 4.41702 2.34821
1085 1 -10.2764 -17.0292 -4.36627 0.473372 4.2186 0.819755
1086 1 -12.1578 8.76566 -3.44183 0.639703 -1.05358 -0.554752
1087 1 9.40822 0.120101 -17.27 -1.05952 1.59136 -0.383794
1088 1 -23.0696 23.1257 5.11978 4.9433 -2.95054 0.551678
1089 1 -15.8767 8.45877 15.1397 -4.15559 4.48271 1.31743
1090 1 -21.2545 -20.7448 -12.2957 1.63929 -2.64369 2.92428
1091 1 -15.1302 10.4393 5.44191 -2.28085 -1.27329 1.12735
1092 1 -18.3945 -19.674 -2.96875 0.94678 -0.315492 -0.478415
1093 1 -23.8131 6.60539 6.93723 0.537469 -1.43262 -2.5813
1094 1 -23.77 20.8225 -21.9296 1.60334 1.47696 4.19895
1095 1 -7.65388 23.1928 -11.8665 4.31934 0.429521 3.56616
1096 1 10.1257 21.0807 -11.9704 -0.712575 1.3241 2.14206
1097 1 19.2209 23.6881 14.4489 -3.97478 -2.43899 -2.881
1098 1 -13.1147 -1.88802 19.7424 3.10954 3.13638 1.60408
1099 1 16.2267 11.4769 16.6016 -1.1676 3.46302 0.71714
1100 1 9.67146 -9.07152 20.46 -0.0454748 -4.55242 4.09692
1101 1 5.94604 -14.3196 10.8819 -2.40323 3.38002 3.89715
1102 1 14.2376 -12.2928 15.4695 0.84123 6.07695 2.88568
1103 1 22.6249 8.43377 15.7686 3.51478 0.278867 -3.68311
1104 1 23.6754 -2.04783 9.97215 -4.51652 0.978007 -5.40575
1105 1 19.7883 1.74736 -0.628324 -2.10465 5.75525 -0.248003
1106 1 -17.3476 -18.0266 5.72525 3.01785 -1.53662 0.517526
1107 1 1.96481 -14.9276 0.941095 -0.608538 -1.54874 -1.11111
1108 1 15.1237 12.7534 -22.7406 1.73081 -2.0342 1.3328
1109 1 -17.8998 -11.4714 4.46677 -7.47356 -1.48458 1.08655
1110 1 -10.1526 22.796 8.68704 2.21241 -0.0992561 0.61061
1111 1 13.0272 -8.78142 6.75315 -2.49525 2.18583 0.927036
1112 1 -2.57898 -15.5177 17.6088 -2.61696 1.83104 -1.77922
1113 1 -20.0235 20.1645 22.7547 -0.634011 -1.98257 -0.419305
1114 1 -19.0589 -4.23327 11.9845 -1.7929 -0.0731586 6.60949
1115 1 22.9242 22.9994 -22.8038 -3.86846 -2.83232 0.217765
1116 1 -16.2739 1.47588 6.832 0.984367 -2.22849 -1.07583
1117 1 -4.58488 14.1744 7.21734 -3.14374 -4.85798 -0.524076
1118 1 21.2751 -1.30572 -13.7841 2.54305 -4.70276 -1.0501
1119 1 7.98394 -9.90369 5.88769 1.05761 1.91531 -2.89268
1120 1 -5.67042 -16.0563 -2.50515 -0.742393 -0.561804 0.53557
1121 1 13.5413 -2.54374 -18.3987 -0.890173 -0.359699 -2.53171
1122 1 -8.13139 22.622 -1.97961 2.46824 -1.72723 -0.351423
1123 1 14.8936 -6.16048 -2.6405 -4.1483 -1.66913 -0.284579
1124 1 -2.9253 13.4871 -16.5587 0.274672 -3.36883 -2.26341
1125 1 -21.4435 6.65973 5.23533 6.14875 -2.54331 -2.77044
1126 1 -0.764333 -11.1678 -11.6355 5.14743 1.68416 -7.06873
1127 1 15.0617 20.4089 -8.95556 -0.891863 -4.00112 -0.00551057
1128 1 1.18247 12.89 -0.0440829 -3.43686 0.824692 -2.02959
1129 1 1.84509 -9.12334 -23.8317 -1.03329 0.900848 -3.90373
1130 1 -0.863047 14.51 -14.5508 -1.72187 2.88764 2.6807
1131 1 18.0582 -8.29331 -3.66212 1.02294 4.56316 -2.93305
1132 1 21.7402 -4.92967 18.9011 1.63658 -3.97767 -2.95204
1133 1 11.4532 14.5776 18.5317 1.10778 3.42326 1.58939
1134 1 11.1279 -18.817 16.8814 -1.05539 -4.26422 1.90105
1135 1 5.05986 -1.4075 22.2687 -4.36934 -2.45792 3.66159
1136 1 -20.9665 -20.4186 -21.741 1.29297 1.86807 3.94469
1137 1 5.17196 3.40554 2.42805 5.97749 1.62028 -0.509098
1138 1 -22.4554 -23.9971 4.59478 -3.90876 -6.71572 -4.08553
1139 1 -4.48257 8.98503 3.92789 3.12655 -1.29465 -2.47394
1140 1 14.9617 -8.46661 -17.5608 0.0967297 -1.18487 2.17151
1141 1 -18.9175 7.49999 12.2363 1.37373 -3.82693 -3.815
1142 1 8.35701 14.2607 4.65193 -3.37516 -3.35376 1.44807
1143 1 1.29395 -6.25797 -12.95 -0.914967 -2.49211 -3.33669
1144 1 16.9311 3.34939 -12.5283 6.8014 -0.165002 -5.97248
1145 1 2.34531 20.9122 21.6103 0.583415 -1.48134 -3.97482
1146 1 10.6726 15.9527 20.9338 1.69933 -7.28693 -0.768957
1147 1 -5.78135 11.2232 2.31358 4.4822 0.382451 0.940711
1148 1 -11.3113 8.3871 12.0366 -0.31741 7.65955 0.120678
1149 1 1.87532 -15.4558 10.4619 -1.01191 0.468041 -3.67294
1150 1 -13.0345 13.7981 9.20684 0.927953 -0.950359 -1.29063
1151 1 22.6571 -23.2757 19.667 3.00102 -6.59924 -0.0180071
1152 1 -14.1887 15.4456 18.6994 -0.399091 0.262372 0.676773
1153 1 -3.8026 -22.0353 -0.0552225 -1.36935 -0.312439 -1.98256
1154 1 -1.28315 12.4511 -22.4723 -2.79274 -1.39053 1.23188
1155 1 5.16197 -19.1551 15.9809 -3.43335 2.80248 -0.961989
1156 1 -18.4352 -12.4255 23.2861 2.44568 -1.79933 2.96764
1157 1 3.25307 2.93418 -10.7091 -6.80076 -4.4154 -1.60411
1158 1 -18.8349 0.0149264 18.0165 -2.37226 -1.54612 -0.0972961
1159 1 18.5653 -4.30616 13.6266 -1.28893 1.3249 -5.54037
1160 1 -8.98744 5.07802 -8.39978 4.29677 1.91427 -1.11946
1161 1 -8.24369 -23.2056 -19.9074 -1.35992 1.33228 -1.18346
1162 1 10.087 10.4395 3.33444 -2.37428 0.583179 -3.30411
1163 1 -18.2172 -22.3551 12.7925 -4.12528 -2.85667 0.63412
1164 1 -18.688 -14.3304 8.24681 -0.682068 -1.5228 -2.49414
1165 1 18.3878 23.0613 -0.801038 0.936783 5.95983 -0.0123925
1166 1 -15.2425 23.9154 18.0719 -0.923415 -2.69676 -4.65542
1167 1 -0.569914 13.9868 18.0613 -2.25198 -6.61545 -0.891548
1168 1 10.5044 -10.2416 -1.31587 -0.102575 -5.10919 0.688146
1169 1 13.6682 -7.47609 17.5607 1.21457 -4.32041 4.2805
1170 1 3.13986 12.3261 10.2322 0.0346774 0.314044 -2.3106
1171 1 22.1575 -1.5388 -6.93701 -1.84319 0.597708 0.0269928
1172 1 -20.6624 -16.7233 -15.3024 2.76751 -11.0073 1.87306
1173 1 7.69601 -19.551 19.7377 -5.76692 -0.696044 -0.739238
1174 1 -24.4137 -20.3067 -15.4401 -3.08763 -0.712536 3.22014
1175 1 -10.4417 14.0091 20.7871 -1.30175 1.02836 5.35777
1176 1 -0.643098 -10.835 13.8728 -2.56966 1.53406 -0.242944
1177 1 10.0187 3.56884 -18.2067 3.73122 -2.24781 1.01173
1178 1 -4.9958 6.99628 8.2553 -2.12858 3.29817 0.549681
1179 1 8.51896 -8.62806 -9.10788 0.0327865 -3.28324 -0.932806
1180 1 -9.94549 46.529 -11.6273 1.38504 0.832887 -6.05273
1181 1 10.4027 18.4075 -11.0514 1.03589 -2.45212 -0.0731697
1182 1 19.8406 7.94601 0.728591 1.55808 -2.46827 3.35228
1183 1 2.84034 -5.78074 -16.8646 3.84164 -1.39755 -1.08947
1184 1 7.52729 19.4115 23.3578 -0.379641 0.259429 5.27235
1185 1 14.0772 8.24279 -23.3385 -0.940484 -0.493827 -2.5296
1186 1 7.23819 -9.31283 1.45439 3.17929 1.95012 -1.34586
1187 1 -12.7673 18.0012 -7.01931 3.24984 3.39657 -1.79427
1188 1 2.26225 2.08256 -0.0777002 3.99206 -2.68973 -5.18412
1189 1 15.2656 14.8625 4.67397 -1.75739 -3.15981 -0.187492
1190 1 15.9578 -2.29293 -19.5686 -3.132 -0.548515 -0.531382
1191 1 -2.47988 -3.41097 -20.06 -2.56327 -2.85603 3.54885
1192 1 -16.1707 -0.152846 -10.5104 -2.5451 3.18492 -4.03771
1193 1 7.66858 -2.59678 15.8333 0.422925 -3.04587 2.96229
1194 1 8.63328 16.6311 -8.07553 -1.06053 1.06298 -3.39104
1195 1 14.2013 -12.9744 -17.235 0.504421 0.70452 0.16949
1196 1 5.10162 16.0087 -13.3033 1.99934 1.08638 -4.83834
1197 1 -19.8147 17.4949 21.5445 4.37748 -2.05182 -3.95684
1198 1 19.9432 -22.1832 10.909 -0.233515 0.88543 -1.40355
1199 1 -13.6398 7.27984 -11.0348 -0.17209 0.995415 1.64669
1200 1 13.6755 -9.69486 9.4555 -1.454 -1.77323 -2.34037
1201 1 22.9017 -18.9014 17.6646 -1.68867 0.559965 4.84628
1202 1 -16.2086 -0.72213 -5.19074 0.953181 6.50237 -2.41156
1203 1 -16.2089 -12.9374 -16.6954 5.61385 0.210448 -0.626614
1204 1 -3.06841 21.4333 2.9282 0.569454 -3.37093 -0.203913
1205 1 -4.59576 -15.0481 11.2911 0.229768 -1.44323 -0.256376
1206 1 22.1888 -20.3944 -22.4671 -1.6176 -3.3546 -3.38863
1207 1 15.0298 -4.94253 -15.0581 -1.96643 -2.24603 0.667351
1208 1 22.6522 -7.93535 8.1537 -5.12496 -2.02398 3.18807
1209 1 5.75141 -6.45465 -23.1734 -0.881136 -2.53008 -0.795099
1210 1 -1.88204 17.9967 -6.54925 -0.308118 3.73639 3.00486
1211 1 -17.2452 -10.8628 10.2258 3.93879 3.69169 -2.26955
1212 1 20.6017 4.80018 -10.27 3.16062 0.598153 -1.46483
1213 1 19.8214 -16.2624 20.6349 1.19547 -3.68488 2.41654
1214 1 11.5855 2.17229 -1.34894 3.09676 3.35921 -5.74941
1215 1 4.9082 9.5942 -9.02224 -3.43194 -1.66717 0.202213
1216 1 15.1985 -7.97676 -11.2992 -4.68563 3.83357 1.98857
1217 1 16.1857 -14.3399 2.92313 0.5998 0.460125 -1.34379
1218 1 17.3663 -4.47766 -10.4125 2.71802 0.035932 1.16629
1219 1 12.8784 10.8357 10.0424 -1.3468 0.822328 0.748327
1220 1 -19.1902 23.6305 15.0542 -3.99266 -1.72526 -1.10153
1221 1 0.497718 19.867 -21.3118 -2.13254 4.29861 0.805673
1222 1 20.0931 20.5743 11.3826 4.53794 -2.60413 2.94331
1223 1 -23.6104 11.4873 12.2932 -1.98395 -1.85902 -0.85984
1224 1 14.5957 -6.19238 13.0842 -0.159745 4.33319 -2.74391
1225 1 -1.06988 -20.6645 21.8095 -2.27734 2.47427 4.17908
1226 1 -21.4258 13.7951 1.81378 5.36301 3.39627 0.36851
1227 1 -0.323933 -8.20115 -0.598983 1.28976 0.709174 7.49257
1228 1 -23.3767 -20.7486 -10.3951 -0.362894 -1.42129 2.45076
1229 1 18.6744 -16.6849 -0.820741 1.42478 2.07189 1.44566
1230 1 -14.4955 -19.0528 -10.2336 -3.14483 -2.35022 3.12882
1231 1 -18.882 -7.24244 -9.35356 0.343654 2.7318 -4.16347
1232 1 -20.8369 16.9669 -22.5806 1.38897 2.46871 -2.30575
1233 1 -2.92861 3.16022 -21.0061 1.96296 1.86785 0.811613
1234 1 15.682 13.3153 7.09482 5.64309 0.546864 -1.87959
1235 1 13.0248 18.4857 1.33775 -3.88171 2.03869 -1.3579
1236 1 -7.21305 -22.4108 14.3246 1.676 -0.306949 -4.05221
1237 1 -18.3016 21.0986 16.0011 2.8553 3.66865 -3.863
1238 1 8.13838 -2.86251 -13.4169 1.34882 0.81492 -2.64079
1239 1 -0.673859 -23.5702 6.97302 3.80921 6.17513 -5.20794
1240 1 -5.35327 -23.8428 3.20384 -4.16287 1.01118 0.244358
1241 1 12.3934 12.7664 -17.5904 -1.46985 0.807036 0.858924
1242 1 7.56221 -18.2642 -13.2346 -2.1513 -5.364 2.32602
1243 1 9.55824 16.7845 -21.228 0.703756 1.25327 1.01873
1244 1 -17.9354 1.58224 9.51776 4.75559 1.1376 -1.7999
1245 1 -21.0072 12.4455 -23.1466 5.49683 -2.61398 -0.527484
1246 1 -6.92121 -16.1838 4.96025 3.16981 2.41529 -4.63205
1247 1 -3.07107 1.22106 -11.2312 1.77872 1.94009 -0.870333
1248 1 9.94707 5.75627 19.0064 1.78039 -2.17123 -1.09871
1249 1 6.95262 15.3967 -21.5395 0.525416 0.746163 2.00026
1250 1 6.18018 3.01067 22.6081 -2.99528 -1.60543 -4.71355
1251 1 20.7493 0.136884 22.438 -0.439795 -0.139215 -2.41616
1252 1 18.0301 -18.3266 1.35325 -1.15719 4.62798 0.017352
1253 1 14.4592 25.1248 -2.92611 -2.10834 1.73327 -5.33202
1254 1 -20.9716 -19.7815 3.00479 -0.368179 -3.11217 -5.93068
1255 1 -4.92611 -12.6505 7.46872 -4.15836 3.10059 -1.44799
1256 1 5.78754 -19.1597 -19.362 -0.325469 -4.0416 3.92154
1257 1 -4.61238 47.129 -11.0726 0.605413 -1.71068 -0.782838
1258 1 -16.1557 8.34408 20.8986 2.02747 2.92227 -5.20368
1259 1 19.8853 -10.1146 7.31875 2.0704 -0.801547 -1.56771
1260 1 3.53648 -7.419 -14.5801 2.05458 3.56294 -0.571728
1261 1 14.0632 -10.4908 -11.3619 4.55529 -1.92532 -2.5167
1262 1 12.0345 -13.1606 -4.90944 -0.528489 -4.21289 -1.69518
1263 1 -14.2993 -6.88109 -1.88163 3.75396 -0.874927 2.0968
1264 1 -22.0894 -11.9037 -3.24944 3.16371 -4.24291 -0.481189
1265 1 -8.17896 13.1081 -10.9619 1.55752 -1.52817 -0.210064
1266 1 15.0579 -7.71114 2.62943 -7.34941 -2.84695 -3.4487
1267 1 22.6223 -16.8413 3.49754 4.04657 1.76033 -0.866597
1268 1 -21.5242 -12.4574 -18.4905 -1.85859 1.05872 2.57604
1269 1 10.4515 -6.45267 20.1518 0.221507 0.430322 -1.26168
1270 1 -23.4294 17.1499 12.8863 2.67569 6.93627 2.28249
1271 1 -0.23899 3.90354 17.8266 -1.0031 0.574961 -5.69065
1272 1 -19.2238 9.31165 16.1553 -2.475 -3.50517 1.38285
1273 1 19.3719 4.32741 21.9061 3.33993 -0.484875 4.22215
1274 1 23.4971 18.6608 -20.594 0.657013 -1.78197 4.5191
1275 1 3.1942 3.70877 9.23483 -1.8434 -0.741541 4.23402
1276 1 -0.661947 -9.53118 -19.996 0.938903 -2.36915 -2.84804
1277 1 -10.7133 20.9616 -5.21099 -0.0148708 4.84492 -0.162666
1278 1 16.3626 -7.03837 -22.1283 1.64867 1.8898 2.40338
1279 1 -17.4943 16.928 -12.6885 1.40406 -1.43897 3.26199
1280 1 0.754764 -3.33552 -5.16542 -2.32409 -4.46961 -2.54905
1281 1 14.2306 -9.15939 21.9783 -2.06843 1.23334 -0.806546
1282 1 9.61891 -18.472 -2.16841 0.704826 2.5942 -1.91966
1283 1 5.72035 -20.0867 -10.4091 -2.23963 0.929734 -2.072
1284 1 5.35954 -13.7052 2.80135 1.07614 1.73377 0.0654165
1285 1 -11.7655 22.1016 14.5284 -0.44667 -0.14889 -1.87039
1286 1 -8.0934 4.80469 -14.6968 -2.359 0.767868 1.14856
1287 1 9.3071 -16.3026 19.0177 -1.08086 -2.79387 -6.27319
1288 1 2.60018 -3.22878 -16.2759 2.28979 5.42688 3.0011
1289 1 22.8111 -12.2741 -8.67985 0.0804534 -0.479919 -3.7538
1290 1 1.85559 5.45186 7.07339 -1.72787 1.26264 -8.11289
1291 1 -19.049 15.1581 1.32027 -2.44809 -0.371706 -2.00035
1292 1 -3.56988 19.5265 -3.81279 -3.85962 -3.28865 -2.2598
1293 1 -6.25273 -3.16246 -2.56406 1.32038 4.72192 2.41977
1294 1 14.1849 -12.733 -6.99421 1.12132 4.0902 4.63895
1295 1 13.484 5.58423 -2.57088 1.92156 0.898529 -1.30961
1296 1 -5.40841 -10.0763 6.058 -2.88956 -2.27301 0.433152
1297 1 15.5662 15.2829 16.1107 -1.02496 1.39734 -1.38237
1298 1 0.950277 -6.30457 -2.42795 -0.883941 -1.55533 -4.13299
1299 1 -9.28677 -11.5801 -6.18069 -5.06723 -4.29988 -0.684525
1300 1 2.77155 -1.62952 -2.91613 -2.62136 0.953562 -1.37085
1301 1 10.6996 15.7686 -9.89286 4.76069 -3.07562 -0.701162
1302 1 -4.17126 -3.21081 -24.1574 3.93016 -1.61614 3.45189
1303 1 -6.0808 -8.49414 -17.1812 2.87639 -1.72799 -3.00458
1304 1 2.80158 0.651427 -4.71863 -1.91901 2.38079 0.904955
1305 1 -4.54273 3.02053 9.9272 -1.72103 1.08609 3.37874
1306 1 7.06274 -22.2113 -1.0416 1.8664 5.08582 0.838236
1307 1 -15.9039 46.897 -2.54723 4.03729 3.62718 -3.33099
1308 1 -19.6883 -3.49357 6.43468 -1.82662 2.42709 2.7452
1309 1 -1.30462 -10.3487 -6.85747 1.11943 3.24951 -2.75175
1310 1 -2.9315 -17.3105 -2.04866 2.58195 -1.97022 1.06407
1311 1 -2.85427 17.801 -13.6657 2.26512 4.18482 0.377109
1312 1 -16.9526 -8.70719 4.57229 5.02443 -2.25864 3.54155
1313 1 17.6913 19.1883 23.3193 -0.0263399 0.0304857 0.262719
1314 1 -17.4408 11.1671 -18.1914 1.33765 -5.93686 -0.303069
1315 1 -19.35 -12.107 -20.9948 -0.266462 -2.83965 -0.210547
1316 1 21.5552 -10.8126 -15.4316 -0.309251 0.932006 -0.928318
1317 1 -11.9011 9.48212 -11.9471 -2.54111 7.61346 -2.87592
1318 1 -24.4879 20.8266 -1.52041 -7.81777 1.45673 0.49456
1319 1 14.0451 23.3429 -0.63223 -0.572959 -5.39489 1.51167
1320 1 20.6299 -6.87202 -8.4863 -0.603695 0.287747 -4.41166
1321 1 7.68708 -20.9986 -5.55836 0.222693 0.240211 0.831797
1322 1 -0.333074 -12.7989 -5.71606 3.27612 -2.96381 3.81872
1323 1 14.0285 -10.6672 12.0772 7.09017 -0.885834 -1.67921
1324 1 -12.3536 -17.8383 -19.1625 -3.30386 -2.39156 -2.29063
1325 1 -1.79011 14.0711 6.782 1.36555 6.20295 0.37957
1326 1 -19.2549 -18.9745 -20.0849 0.407047 -2.25382 0.290189
1327 1 -9.57401 21.2691 -22.7427 -2.719 -0.273388 1.1668
1328 1 10.8433 12.6551 5.88012 -2.97304 -3.1005 -2.97802
1329 1 21.6125 -14.3452 -4.49998 -3.26995 7.65701 4.07154
1330 1 -10.4249 14.994 -7.22222 1.22096 3.17674 -0.128014
1331 1 -19.6215 2.33717 -2.84438 -0.815549 0.532686 0.0828221
1332 1 12.679 -21.8358 22.232 -0.0719315 -3.98849 0.159334
1333 1 1.77185 10.3616 5.20876 -1.54485 1.20542 -0.275686
1334 1 11.2823 -9.92274 -8.05767 2.32935 3.49926 3.35442
1335 1 -15.1755 24.748 -15.881 -4.36043 -2.95932 3.94455
1336 1 2.12467 19.7947 -7.41828 -0.206533 -0.185483 0.54586
1337 1 7.86976 -20.1733 8.00318 -4.91014 -1.61886 -2.74565
1338 1 0.670335 5.57163 -0.66037 4.62549 6.92372 1.1905
1339 1 1.55475 -19.5021 21.6767 -2.52529 5.65023 -2.11917
1340 1 -19.2638 17.2191 10.7591 1.71222 -2.30649 2.54627
1341 1 2.14155 10.2445 13.9504 2.37478 -7.22613 0.0476928
1342 1 1.87695 -23.5731 -15.5493 -0.867916 1.69783 -0.497353
1343 1 -11.149 -10.5014 -7.80708 4.98696 2.47786 -2.75932
1344 1 18.8201 -8.72683 3.15821 2.44182 -1.41038 -0.141565
1345 1 -23.3962 2.86765 -20.1889 1.46801 2.06603 0.60547
1346 1 16.7497 -3.51671 -13.1221 -2.25126 1.15655 -0.108396
1347 1 -16.5087 -12.4925 -20.2351 1.54772 -3.19075 -3.6182
1348 1 2.59809 12.2826 -15.2242 -5.34653 0.121169 -3.60773
1349 1 3.47585 -12.9253 10.2797 3.76269 -6.158 0.0731261
1350 1 -16.0364 0.459404 -2.51955 -3.89111 -0.673266 -0.479441
1351 1 15.4226 -14.8822 16.567 2.75192 -0.421761 3.03625
1352 1 5.80741 23.4019 21.1306 -1.81671 -7.61018 -0.0218833
1353 1 6.90913 21.2814 -0.466809 -0.846955 0.541101 -1.11022
1354 1 -1.55296 -4.97053 -17.5872 1.62631 -2.35001 -1.38909
1355 1 -8.42517 21.8632 17.6411 1.81669 1.03356 -2.56727
1356 1 -19.5415 -13.9061 -3.22688 -2.13084 5.26756 0.864241
1357 1 -18.8343 -7.14038 -12.2421 1.28108 -0.0609311 -3.35691
1358 1 -10.359 23.5662 22.0221 4.03084 -1.43839 1.34627
1359 1 -22.1114 -22.6974 22.6728 -0.658603 -3.17783 -3.67988
1360 1 19.7558 -12.8319 8.28295 -1.98408 -1.64023 1.23417
1361 1 -7.58167 -22.0693 4.43085 5.47524 -0.628497 1.52503
1362 1 20.7706 19.9185 8.55706 0.481685 3.60698 1.0912
1363 1 -15.4119 -10.0644 -21.4644 1.80861 2.1103 -2.80007
1364 1 13.8111 -13.1559 -11.8221 -4.5947 3.49425 3.22955
1365 1 9.42961 -5.13939 -21.0555 0.474026 2.15308 -2.20305
1366 1 20.3548 -14.7463 0.520998 3.00837 1.91233 -0.23251
1367 1 -9.15896 -11.9979 14.8784 -0.857104 1.23796 -2.53699
1368 1 -17.4614 17.3227 -2.24103 -1.07317 -0.422379 3.05162
1369 1 22.9026 2.05918 -5.5888 3.4191 -2.64196 -3.86295
1370 1 2.09581 -13.0786 22.5527 -3.13925 0.52827 -1.37173
1371 1 -19.7487 9.6138 -1.35866 -0.219767 0.941053 3.48475
1372 1 -10.5189 10.7707 5.41647 2.31462 -2.66132 2.62962
1373 1 -13.4193 -8.95012 11.2553 1.38782 -3.18998 5.02226
1374 1 -17.8746 24.63 17.3482 -3.46209 -4.85453 1.56264
1375 1 17.3599 -6.13017 3.01789 0.790029 -4.49054 -0.462057
1376 1 4.93885 9.73057 -6.20834 -2.70243 -2.51504 0.533347
1377 1 -12.3653 21.6574 -23.9236 -0.894879 -1.51045 1.27114
1378 1 9.34619 -11.619 1.08212 2.08142 -2.95924 -0.81536
1379 1 -17.6936 -17.7689 2.61425 -2.83391 6.03377 -0.896711
1380 1 15.351 23.1076 -12.9806 -6.32573 0.203361 -1.92146
1381 1 17.8596 17.3639 10.2391 -0.159391 -1.52676 0.20161
1382 1 17.2573 -13.3228 9.93473 2.266 0.0847434 -0.702285
1383 1 -7.05815 -23.2512 -15.3284 6.24171 -0.83321 2.18004
1384 1 2.58143 20.8399 -13.1601 3.10084 -0.262775 -3.76149
1385 1 -15.7711 24.238 12.8041 2.3226 -1.82299 -0.660572
1386 1 -12.8605 8.68113 1.61155 8.64879 4.5128 -4.90241
1387 1 -19.1832 -2.41963 1.04726 1.0351 3.97789 -3.11079
1388 1 15.9495 -3.18534 17.5675 -3.63693 0.798428 3.88143
1389 1 20.9676 -6.24847 -1.58145 1.10665 3.0454 0.00267503
1390 1 6.71602 -1.04082 11.7133 4.64856 -3.2634 -1.98126
1391 1 -11.3276 20.671 21.7775 -0.011801 2.82028 2.0163
1392 1 22.3229 3.77437 2.52606 1.10019 3.96152 -0.301388
1393 1 -0.677257 -5.95691 1.1331 -0.960521 0.0836944 1.32912
1394 1 3.37634 7.14086 -0.340661 -0.400415 -1.11914 3.18928
1395 1 -0.0653812 10.164 -7.91823 0.0557353 -1.39729 2.22654
1396 1 -17.453 -8.81157 7.43164 3.30115 -0.481487 3.56862
1397 1 6.175 23.9545 -7.99321 1.94233 -2.75476 2.54917
1398 1 2.24112 22.1889 -5.63681 3.92895 -2.45874 -0.210903
1399 1 -1.75492 -23.3395 -1.79211 -0.243724 1.53555 -4.86221
1400 1 -12.5036 14.7338 -23.3748 -0.0223491 -0.0723374 -2.24461
1401 1 22.5855 -22.4497 22.4634 0.376285 -3.62502 -2.63168
1402 1 -18.3914 -5.27355 -16.7164 1.13678 0.317382 -1.08386
1403 1 14.1191 -22.3129 14.1088 -2.94623 0.0181006 1.64342
1404 1 20.8716 -9.38513 9.89476 -0.321196 5.39308 2.76979
1405 1 19.5019 20.7223 -21.5182 -0.0357195 -1.67861 0.254807
1406 1 -9.15403 2.56885 -12.8897 -2.90844 -4.61774 -6.98788
1407 1 23.0889 9.8522 -0.281752 2.2323 2.36176 2.88409
1408 1 -5.09437 -5.44156 -13.7025 -2.44294 1.15477 -1.21045
1409 1 -2.76834 4.30879 23.326 1.94327 -3.53941 1.56208
1410 1 -1.30811 -17.1891 -18.1565 -5.11243 1.57005 -2.38107
1411 1 18.3106 3.96675 -22.8044 4.28476 0.536879 4.39959
1412 1 -20.6981 9.5687 -9.6969 1.98823 8.33336 1.84922
1413 1 -15.5462 3.41421 -21.5307 -2.4037 1.84425 -4.35296
1414 1 6.73103 22.8304 5.57519 -0.562922 -3.54194 2.32996
1415 1 -6.10304 -23.7479 0.547352 -0.575105 0.617602 -0.0683554
1416 1 -22.0066 -8.33757 9.91103 1.79363 2.61621 1.19766
1417 1 10.7765 5.5326 13.9466 -0.905529 -0.597756 5.18189
1418 1 14.4145 -7.88319 -0.135642 -1.22436 -2.70254 4.09636
1419 1 9.512 23.4716 -1.60345 4.72782 3.94524 -1.40002
1420 1 -13.2253 18.4451 -22.7706 3.52592 -5.1357 1.59427
1421 1 -24.4215 -9.69878 6.31814 -2.86419 -5.92014 4.38369
1422 1 -11.9093 -20.6854 -15.7796 7.35916 3.2856 2.3155
1423 1 8.1424 22.369 -18.3082 1.7322 3.37983 2.70921
1424 1 21.428 11.2137 -8.1618 -0.616433 5.65028 -2.95793
1425 1 -2.23599 5.14057 -11.3814 -0.284642 -1.32446 -1.31831
1426 1 8.23242 -19.9226 3.07114 -1.89397 1.84845 1.91201
1427 1 19.6926 -14.3706 -2.43621 0.795014 -0.213253 4.85464
1428 1 -4.4908 -18.0589 20.0487 -2.98836 -2.88678 0.575362
1429 1 -20.0585 -16.2611 6.7772 -6.25545 3.40679 -3.38561
1430 1 1.2207 14.4618 6.42056 3.85956 0.343993 0.775789
1431 1 -8.25146 0.145806 -9.19754 -2.08816 -2.08988 6.4141
1432 1 -12.9023 8.73004 23.264 0.027906 -0.254415 -1.76922
1433 1 -18.5065 -11.8856 -18.2352 -10.1033 -3.72423 5.32506
1434 1 -23.7412 5.70327 22.5163 -0.695545 -1.8237 2.25494
1435 1 20.1159 21.428 -4.43647 -2.84829 0.0222932 0.894753
1436 1 -16.6157 -4.92395 -14.5648 -3.69313 -2.04384 -6.33113
1437 1 3.32251 15.3683 -22.1606 -0.876366 -0.507989 4.43742
1438 1 -0.556304 -0.178499 -14.6811 0.331924 3.17026 -0.251047
1439 1 -19.0573 7.97353 -12.6546 4.34325 -2.16423 5.75552
1440 1 -22.1894 13.6165 -3.51524 1.07728 2.98045 -1.07093
1441 1 -17.3565 -15.3771 17.5092 -1.55779 3.69617 -1.67766
1442 1 -19.6808 -9.41567 -5.24718 -3.11629 -5.07085 -3.91274
1443 1 17.896 -13.3983 16.6335 -1.4942 3.085 1.66071
1444 1 12.3247 20.3708 -23.4042 4.10422 -4.6889 -1.70321
1445 1 12.4281 -19.0135 9.8571 -3.84972 1.63635 -5.45163
1446 1 4.06392 -8.86924 -9.80651 2.93732 1.03892 -0.603797
1447 1 22.6084 -5.0697 -16.7014 -2.34932 -0.116221 4.98822
1448 1 -17.2611 2.6736 4.71111 6.44857 1.13667 -4.57148
1449 1 11.019 -2.73018 -0.328279 3.03238 -0.998196 2.11607
1450 1 -7.31008 -4.63412 -8.37692 3.31914 5.30317 2.86327
1451 1 8.72481 23.4461 -11.2794 0.980251 -1.47435 -4.55776
1452 1 -6.14327 -23.2881 -17.8798 3.61142 7.08435 3.15096
1453 1 -1.43576 -21.6538 -6.19964 -1.35252 -0.0489992 -0.222019
1454 1 7.09147 -12.9294 -0.231173 -2.81161 -2.73938 1.63065
1455 1 -15.1343 -17.8214 -5.38078 -0.416004 1.65981 -1.293
1456 1 -15.5105 14.8679 10.3214 -3.86436 -3.6888 -2.13709
1457 1 -19.5181 1.22537 -20.8298 -1.80014 -2.98485 1.01733
1458 1 -20.463 13.2635 7.82661 0.361758 -2.51562 -0.844529
1459 1 -12.275 -13.5574 -3.98099 0.350618 -2.08287 -3.15402
1460 1 -15.9009 5.4969 -12.1819 1.35231 2.1281 -0.338597
1461 1 -14.0859 15.1935 22.7909 4.89955 1.18853 -1.2546
1462 1 -7.10459 -17.6823 8.87981 -3.40428 -1.10849 0.380159
1463 1 6.38294 0.674131 14.0134 3.34111 0.970639 -0.270539
1464 1 4.42327 -20.0671 4.58748 2.83096 2.60688 1.71271
1465 1 -20.2151 19.9519 -14.5534 5.35275 -2.47 -0.93503
1466 1 -16.9517 -6.16782 -2.47065 1.19068 9.28992 5.04725
1467 1 -24.4416 -16.2944 -14.4008 -3.82021 2.63253 -0.641671
1468 1 18.4023 24.658 18.4793 3.07482 -3.15106 -3.7724
1469 1 19.4298 13.8919 5.23844 0.308199 1.98219 0.748979
1470 1 -2.47191 -12.6153 5.93558 1.62934 0.0542789 0.511542
1471 1 -5.77876 -5.00262 -10.932 -0.803534 -3.19191 5.55953
1472 1 23.2803 3.67224 16.4704 3.67868 -0.116136 4.26643
1473 1 14.643 -18.0763 -14.5732 3.62649 1.75146 -4.15525
1474 1 -0.6929 21.1246 -23.7187 1.47542 1.47771 1.22792
1475 1 -22.209 46.4085 -3.77483 0.191789 0.0144286 0.427515
1476 1 -22.6048 13.9784 -20.0375 0.892769 4.17554 1.97729
1477 1 19.9386 -0.990428 -0.883096 0.115323 -1.65387 2.07496
1478 1 -0.534928 4.04821 3.74604 -3.34815 -7.80327 -3.57567
1479 1 9.14349 -7.12394 6.52716 -1.80229 -0.0800563 -0.447435
1480 1 1.31199 14.7583 -6.07221 0.291133 0.776369 -2.41851
1481 1 -7.61958 15.1586 -3.53945 -3.24777 -3.21005 6.43573
1482 1 5.0611 22.3891 -22.8941 2.67568 -0.152775 -2.3113
1483 1 10.2248 -22.211 -19.693 -5.68776 -1.43273 -0.387363
1484 1 -6.42036 8.73251 6.46046 5.21672 -1.13257 -2.45901
1485 1 11.2759 -9.23121 -23.8133 0.978285 3.62209 2.08201
1486 1 -18.8129 -6.41565 15.4353 1.04972 1.42407 4.91658
1487 1 -5.76373 3.45624 -15.9311 -2.95494 1.73771 -1.8099
1488 1 -18.1672 -14.9892 11.1798 -4.4803 0.426845 1.03749
1489 1 -22.574 16.6079 -3.05523 -0.758616 3.50892 -2.12873
1490 1 -22.7102 4.79797 -2.95674 -1.81946 -1.24503 -7.4115
1491 1 12.3515 7.56399 -4.6226 3.70109 1.97629 2.15139
1492 1 -11.7718 11.1226 11.0175 -0.178874 -2.73151 -1.98732
1493 1 -4.14787 -6.55001 -17.9164 1.63492 0.157813 -0.782121
1494 1 -10.451 5.29841 -18.8538 1.83409 -0.930668 -1.75103
1495 1 -20.9377 -9.39666 19.7166 0.0116172 1.02491 -1.20404
1496 1 -4.00566 10.5653 -9.56574 -2.67847 -2.44977 3.60147
1497 1 13.4365 -9.26902 -19.9503 2.36137 6.25907 0.541295
1498 1 -13.805 5.8363 10.9997 -3.56326 -1.71114 -1.60567
1499 1 14.3657 3.88396 22.384 -1.69994 -4.53631 0.648253
1500 1 -19.1664 19.1478 14.119 2.45168 2.32625 3.33028
1501 1 8.71793 17.5496 -15.2236 -3.46898 -5.87279 -6.82024
1502 1 -22.7423 -6.84778 -5.35861 -1.74596 2.77579 -1.6421
1503 1 9.13706 24.8296 -22.6567 -4.07341 -5.6623 -3.41501
1504 1 -3.4366 -24.1551 -5.54817 -0.597923 1.39555 1.88523
1505 1 18.0629 -22.1236 -20.1367 -1.00142 -1.87492 -1.80802
1506 1 15.6231 14.7563 -0.588211 -1.15026 -1.10458 -2.7234
1507 1 -20.1766 20.3266 -6.68961 1.93172 1.01484 1.10723
1508 1 20.6334 -11.7032 -2.26573 5.20197 -2.05158 -3.23351
1509 1 12.3284 21.4608 -8.45727 1.30451 2.09807 -2.40807
1510 1 -15.1031 -12.1294 -1.04921 -0.156809 -2.99041 3.19874
1511 1 -24.054 -4.81138 17.3741 1.1855 -1.30611 2.88574
1512 1 -12.9719 -15.1081 -1.78082 3.33368 3.53403 -3.98273
1513 1 -21.4769 1.45562 18.1796 2.07054 -4.38744 1.83589
1514 1 -14.9677 -5.72876 -4.81671 -0.915961 4.61418 -0.162925
1515 1 -8.85995 -22.2906 21.8383 1.24195 -2.0836 -6.18399
1516 1 -8.57169 23.2129 -24.1108 -0.328837 -0.0996153 0.611172
1517 1 23.1876 -16.5038 -9.55596 0.753633 -0.475652 1.26307
1518 1 -4.85984 10.8964 -23.3183 1.15488 -0.1996 3.6267
1519 1 -11.5599 -18.8413 0.157515 1.339 -0.920133 1.8098
1520 1 10.309 3.32805 -12.5858 1.38968 -2.05335 1.33951
1521 1 -9.04216 -7.93061 17.1838 2.77525 2.61159 -3.86962
1522 1 -13.3186 -2.3784 -14.2136 0.832022 -1.10815 4.9875
1523 1 -6.90629 6.15483 12.0195 5.27105 -4.50794 -4.64025
1524 1 1.91371 -19.4641 6.2176 3.9241 -0.301885 6.02241
1525 1 -11.0024 -6.38231 0.454991 3.17936 -3.69081 -5.6236
1526 1 22.7075 23.3396 1.11681 -0.456771 -0.158521 1.50313
1527 1 2.13544 0.326912 -7.6743 0.341285 0.3448 1.98441
1528 1 10.4864 14.9751 15.8924 -1.07767 5.88618 -0.108825
1529 1 -6.87164 -0.39948 11.2539 2.46266 4.31582 0.976178
1530 1 17.0751 16.8205 6.36232 -2.96765 2.76746 -0.490145
1531 1 5.89984 -8.11984 9.44147 2.70775 -0.528426 0.134444
1532 1 17.3443 -4.55073 -17.1508 4.06592 -0.580009 3.74237
1533 1 12.9865 21.3602 12.8367 -0.146407 -0.363323 -1.30029
1534 1 -16.9974 -5.84154 10.7321 -2.56776 0.0999621 1.07963
1535 1 3.33831 -6.10974 14.9132 -4.09035 2.4696 -2.63022
1536 1 -6.64778 0.167527 23.9526 0.310873 -2.12119 2.71499
1537 1 -3.40472 23.5919 -17.7892 -6.08222 3.62927 0.650122
1538 1 6.66921 16.6449 18.8606 -3.29589 -5.50996 3.95707
1539 1 2.28161 7.49534 -14.2841 -0.994421 -8.06159 -1.9737
1540 1 -21.3213 5.7971 23.9247 4.85714 -2.65259 -2.31267
1541 1 6.1381 -15.8509 -8.22828 -3.48403 4.17688 -3.88821
1542 1 -21.1754 -4.58343 18.223 0.6586 0.284972 5.48876
1543 1 3.94035 -0.914796 13.0877 -4.2976 -2.13404 5.28632
1544 1 -3.16201 20.0639 -18.406 -3.07443 4.06682 -3.68731
1545 1 -6.82275 -13.629 13.534 -6.86655 -5.08015 -1.35794
1546 1 -14.4269 -13.4824 20.8084 -1.69801 4.85574 0.677066
1547 1 14.3084 -0.0898749 -2.47467 6.29603 3.24784 -1.62939
1548 1 16.0595 46.3717 -8.1656 0.474327 -0.204642 0.350904
1549 1 -0.124642 -2.71193 -16.1966 0.464158 -0.907414 0.475398
1550 1 -3.89799 -7.1856 -10.3871 1.56919 -0.158157 1.07177
1551 1 9.53014 -2.2093 -7.28472 -0.71555 0.734153 -2.06281
1552 1 16.8927 10.2071 -18.5542 3.50182 -0.973233 -0.395264
1553 1 -10.8167 18.6259 -11.3409 -1.96015 3.31578 1.39011
1554 1 -5.66941 -7.89559 -22.0716 -3.2199 0.414932 7.2991
1555 1 -21.0464 -4.8623 -2.06201 0.351495 -1.74688 -2.4507
1556 1 20.2398 -19.8629 -9.14873 -0.0565786 5.31481 -1.04453
1557 1 8.42144 -21.975 -17.7459 -0.210777 -7.45307 -2.58994
1558 1 8.30896 -17.3134 0.085569 -1.18808 -0.210892 0.119586
1559 1 -23.9259 19.0044 2.65089 -4.33159 -2.8064 2.27817
1560 1 -19.4369 -18.7205 20.5001 0.250826 1.97852 -3.40814
1561 1 20.0573 19.2203 -6.51131 3.58694 1.56324 -0.672526
1562 1 -1.31324 -4.84512 -1.58916 -1.7738 -1.06933 0.0616455
1563 1 -2.83226 -5.92021 10.7336 -4.56403 0.319496 1.12876
1564 1 8.23174 13.9617 -7.33565 -1.13103 -3.0716 6.54151
1565 1 -6.25206 15.3982 -10.8221 0.607528 -6.15817 5.74163
1566 1 2.80484 -7.6218 7.12053 -2.45828 3.35726 -2.7112
1567 1 2.07733 -9.81355 -20.8708 -1.44522 0.0685407 0.293911
1568 1 18.4057 20.8216 -12.1952 1.51492 1.05058 -0.198985
1569 1 9.10756 12.8881 2.25995 2.44847 0.127375 1.13167
1570 1 -22.6517 0.783794 -13.1889 -6.86716 6.07454 -0.61012
1571 1 -3.73378 -10.5272 0.72092 4.21425 -1.4496 4.24243
1572 1 -1.28308 -15.5813 10.8015 4.30236 8.25356 -0.111149
1573 1 -11.2259 -11.8681 18.925 2.14157 -3.47461 2.38858
1574 1 19.8832 -17.6068 3.60141 -3.30708 -0.446658 -1.00226
1575 1 -18.4983 14.9328 3.98555 1.13204 3.51437 3.86849
1576 1 13.4672 20.3839 -19.0542 0.999412 -1.3292 -4.17923
1577 1 15.9488 -23.9648 6.00335 -3.89306 0.330797 4.44131
1578 1 17.1104 0.668177 -11.7627 -0.911119 -5.5724 -5.05038
1579 1 -5.99285 13.2163 -6.83119 -1.1228 0.0545684 -0.328763
1580 1 -15.2535 -24.7042 -5.18758 5.12884 2.65461 0.192715
1581 1 -8.8134 -5.32282 10.5577 5.10185 2.95526 2.8301
1582 1 -14.645 4.49314 -1.91269 -3.9821 0.407517 -0.477785
1583 1 10.2942 -1.06586 -4.64711 -0.0731338 -1.41379 -0.0833853
1584 1 -7.12858 -3.85747 13.6044 0.912276 1.46418 -1.54859
1585 1 -9.17138 -14.0817 -23.5883 6.5854 5.49965 -3.18076
1586 1 -17.1693 46.6065 1.92472 -1.86466 -2.69021 -3.23361
1587 1 19.5118 -2.75885 -10.0481 -3.55592 -1.87543 -1.11487
1588 1 3.31808 19.3888 -21.9867 -0.292517 0.707416 -6.10841
1589 1 -11.8316 -23.0651 -2.25233 0.450587 0.788743 0.967754
1590 1 21.1926 8.11872 -15.6223 -2.60228 -3.38036 3.19501
1591 1 14.97 13.1157 2.02754 -1.79569 5.99727 -0.795427
1592 1 16.686 9.03172 15.6315 -2.01024 4.10023 3.77557
1593 1 1.17276 24.0134 -17.7587 0.341493 3.45962 -2.71074
1594 1 9.72549 4.26543 0.117542 0.324363 2.18409 -4.85654
1595 1 7.2749 16.0246 -5.44783 1.02143 -3.24363 -0.389764
1596 1 -4.84787 -1.85343 -20.0989 3.02525 1.48115 -3.66893
1597 1 18.6034 -23.4276 6.82582 -2.65129 -4.18667 0.191344
1598 1 5.66518 10.3706 2.85219 5.91794 1.1505 3.36203
1599 1 -21.8095 -4.86773 11.4445 1.25689 1.07703 -4.20856
1600 1 17.8258 -15.1139 -17.6574 -3.5269 2.89624 -3.52565
1601 1 6.60129 16.1873 -18.7674 0.366173 1.58744 5.35157
1602 1 -22.2538 -12.017 -21.2367 0.97263 -5.15857 1.50421
1603 1 6.22351 -9.58605 -13.3346 1.64756 -1.81283 -5.01719
1604 1 20.4271 -15.7924 -15.8895 0.473708 -4.33718 1.20857
1605 1 -0.926588 -3.09923 -11.4486 -1.50462 3.24996 5.81677
1606 1 -22.6333 20.2564 4.88569 0.0155268 6.65107 2.47492
1607 1 12.3827 -22.0215 -15.3652 1.85705 1.90942 -4.46264
1608 1 -23.95 4.48976 9.02916 -0.638259 -3.71495 -2.9329
1609 1 -23.0074 18.6912 -18.3427 -0.652182 -3.37609 3.90902
1610 1 -10.7254 21.0497 -14.7196 0.0948427 -1.48589 3.68354
1611 1 4.44345 11.8051 -2.63909 0.591312 0.858678 -3.22583
1612 1 -23.1684 -15.4018 13.9962 -0.81752 2.73511 2.17527
1613 1 -1.26384 -16.6956 1.69085 -3.01749 0.358832 1.34894
1614 1 -16.3807 -13.8775 0.982749 0.246255 4.06469 0.682129
1615 1 -2.44622 -14.2113 -10.4823 -3.67992 2.89979 -3.88425
1616 1 16.8075 -12.5617 -18.8909 -1.08092 1.56383 -2.06481
1617 1 -15.7241 -15.1867 -10.5812 2.3796 1.61681 1.91435
1618 1 10.596 17.6385 15.0485 -0.707096 -2.15252 -1.72855
1619 1 15.0419 15.5422 21.1542 1.44273 -3.07166 0.685781
1620 1 13.9388 -10.4662 -8.55139 -3.76861 -2.13955 -2.18335
1621 1 -20.9239 3.64721 12.5322 0.332082 -1.19882 1.32831
1622 1 -15.5955 20.7508 16.1991 0.734638 0.488617 -3.54983
1623 1 -11.8066 -15.6391 15.7352 0.291463 1.07706 -2.99543
1624 1 5.67877 20.3652 -20.664 -1.76893 -0.512623 -5.70648
1625 1 11.0617 13.3775 -8.21153 1.65419 1.68161 -2.79515
1626 1 15.7037 -0.225719 18.0028 -3.828 -4.94529 -0.519621
1627 1 19.1337 -6.36763 23.8182 -1.05543 -2.40562 1.12628
1628 1 17.3222 1.8899 0.75679 -3.62223 -1.41172 6.0204
1629 1 -5.56101 -24.1182 15.7399 -4.88772 -3.27559 1.91036
1630 1 12.6404 -7.06067 23.1031 -1.39746 4.89279 -0.0963836
1631 1 -22.5226 -20.6737 7.49467 0.548113 -0.346683 2.1934
1632 1 -6.72121 8.74885 -23.7259 -0.315588 0.724796 5.49985
1633 1 17.1124 19.3438 -22.2656 1.93261 -1.98582 2.504
1634 1 -20.1181 -9.50876 -22.5975 -2.34135 4.33167 3.517
1635 1 7.63568 -15.1062 -11.6005 -1.03499 0.331572 3.94529
1636 1 18.3753 -9.23411 11.0987 -1.00872 0.483146 7.40644
1637 1 -0.796242 19.3319 -4.30049 0.00567497 1.9044 1.2627
1638 1 14.5752 -5.5765 -18.067 -1.29839 -2.0937 2.18332
1639 1 13.1285 12.0341 19.2266 2.39449 -2.4368 3.35383
1640 1 -16.0237 -23.7605 -11.4104 -5.70501 2.98125 -5.03463
1641 1 19.8643 -11.7682 19.4708 1.58603 2.05909 1.59314
1642 1 -1.18525 22.142 4.85413 -2.25226 -1.02513 4.19856
1643 1 -7.49578 21.8606 -6.11751 2.2333 -2.786 -1.06473
1644 1 -19.9118 -1.4696 11.5495 0.411359 -1.22869 1.23461
1645 1 -5.33977 -7.12516 -7.81501 -3.22686 0.639875 4.43699
1646 1 -21.6405 -6.79297 -18.6677 -1.35239 0.448571 -4.0915
1647 1 16.5132 11.8307 -15.8779 -0.569122 3.33215 1.44509
1648 1 -19.8005 -14.9047 23.2822 -0.516985 -1.65445 1.44578
1649 1 -16.3938 -6.75937 -10.6592 1.95418 -0.537714 3.83128
1650 1 10.5456 -2.18499 -12.0116 -1.82024 -0.192223 -0.718204
1651 1 13.9473 -17.6185 -0.189533 1.90309 1.03194 -2.99066
1652 1 9.19925 6.13605 -18.9449 -1.52373 3.51295 2.75009
1653 1 12.8663 -21.6528 4.94898 -0.844858 1.87485 2.72137
1654 1 5.022 -17.4948 9.42212 -1.86826 -5.78404 -0.286086
1655 1 -1.09281 13.5206 13.584 -3.03719 -0.011675 -2.26648
1656 1 -5.37454 12.1744 16.7637 -1.45116 -0.948681 -3.8399
1657 1 16.6082 7.80625 -13.3716 1.16525 -1.37611 0.0314808
1658 1 -18.222 19.0093 6.36218 -4.80974 -1.42984 -1.17602
1659 1 -5.15441 -23.5569 7.66293 -1.01785 1.75603 4.22419
1660 1 4.92271 -10.6237 -21.0118 -0.675877 -1.51498 0.262599
1661 1 23.54 -0.658867 16.828 -2.73124 -2.59765 6.55956
1662 1 -8.28536 -20.3305 -7.37883 -1.04237 -3.77374 -6.28055
1663 1 -14.7019 -1.91266 -1.55654 -0.838539 0.373395 2.11593
1664 1 3.52057 -10.3051 -14.0662 4.39292 -0.118631 0.441199
1665 1 -6.62373 6.65765 17.767 8.77246 -3.63285 -4.74245
1666 1 17.7508 -7.4031 -16.3226 -3.44954 0.571194 0.34885
1667 1 -14.1267 -0.232747 8.12396 -0.799018 -1.16058 3.44782
1668 1 -9.85871 18.1255 8.00416 -1.35139 -2.60015 -1.74878
1669 1 14.3461 47.1081 -12.9139 -1.0503 2.78087 -1.8743
1670 1 4.10031 15.7438 -2.23595 -3.77229 2.56145 -1.65011
1671 1 -13.4713 8.87334 20.3256 -0.164818 -2.46129 4.45691
1672 1 2.80818 11.2515 23.2522 -2.48837 0.0605908 -5.18698
1673 1 1.29174 -17.7874 1.13043 0.93688 3.92588 0.440684
1674 1 4.07582 -3.48576 -8.21137 -0.594067 -5.90161 5.15125
1675 1 -0.0925294 9.46484 15.5919 -5.96675 -0.368173 1.76788
1676 1 -20.3876 0.689419 -4.88924 2.4708 0.494117 1.8108
1677 1 22.1471 -18.4558 11.5766 1.82214 -0.747413 -2.4239
1678 1 3.76467 23.0718 -18.678 0.16734 -0.499192 3.12232
1679 1 -10.4741 22.2157 19.4629 2.26487 1.39655 -1.09312
1680 1 23.5451 -19.1997 -20.2189 1.8449 -1.91006 -3.57667
1681 1 -17.4423 -8.52089 -22.363 0.307491 1.62238 -0.209092
1682 1 7.61342 9.09611 -0.482358 -0.470128 0.870881 1.08415
1683 1 14.1685 25.7614 -16.3381 -0.694417 2.18512 1.44012
1684 1 5.88926 15.6799 16.5453 -2.40516 5.88439 -1.865
1685 1 -21.9751 16.5367 23.2013 -2.53099 -5.88997 -1.8
1686 1 11.8252 -10.7593 22.0457 -2.69688 5.75964 0.274121
1687 1 22.2283 -17.6337 -12.51 2.54566 2.27194 -9.17412
1688 1 -18.0931 -3.14166 -12.8115 6.58308 1.57891 -0.940706
1689 1 2.56526 -24.0552 -1.20572 2.01061 -2.17663 -5.29514
1690 1 -5.58906 -22.2483 11.8928 -3.51499 4.13174 2.11067
1691 1 -16.5993 -14.0594 5.43372 2.32585 -1.27951 -0.333288
1692 1 -0.404703 21.3341 -6.5703 1.80137 -0.0148957 7.64728
1693 1 17.9689 8.22872 20.7918 1.19357 -3.78553 2.70308
1694 1 -14.5881 2.45352 -14.79 -4.2852 0.697517 0.432187
1695 1 18.075 47.146 -9.93382 0.235775 5.13272 -2.44967
1696 1 11.0627 -2.75943 2.42682 -2.88546 -2.40757 2.13659
1697 1 -10.6571 -23.0353 6.93666 2.64425 6.12329 3.9054
1698 1 -8.75899 11.1189 -1.51259 5.22233 -2.94308 -1.93019
1699 1 13.9623 2.28414 15.4585 -0.641237 -5.70607 -2.55321
1700 1 13.0795 -1.91405 -13.7947 0.862119 0.377872 2.00478
1701 1 12.1169 24.485 -4.89757 -0.321256 -3.07256 2.04141
1702 1 1.36527 -19.636 12.2714 5.96781 0.769675 3.71569
1703 1 2.4115 2.73968 -13.8896 0.104208 0.924635 0.501812
1704 1 -8.63355 -12.3981 3.34376 0.585492 0.487223 -3.00124
1705 1 -0.990622 24.9266 19.6697 0.79196 -2.16215 -1.79594
1706 1 4.94772 11.6417 -17.2024 -3.38457 0.483128 -1.02443
1707 1 -11.3114 -8.33497 15.4204 -2.55973 1.24614 -1.73859
1708 1 -6.0752 22.02 11.5811 0.717794 -1.24685 -3.44256
1709 1 19.117 19.7215 -2.48624 1.99718 -1.85986 2.73164
1710 1 -6.17719 -20.6816 -12.662 -1.46168 2.35472 2.34665
1711 1 -3.0648 3.75726 2.06279 3.73267 0.887044 -1.1042
1712 1 11.2094 13.5306 -19.8708 -3.92591 2.90023 1.16662
1713 1 22.016 17.2447 12.9195 0.392813 3.40967 -0.69723
1714 1 6.1762 0.00702946 -10.7877 2.33698 6.07862 -0.0723246
1715 1 12.1721 25.0973 17.3498 3.95759 -2.59074 1.40198
1716 1 16.9529 -23.4688 21.981 1.68039 -0.482449 0.769968
1717 1 9.34989 -14.7474 -0.0900355 0.826019 -4.21311 0.253681
1718 1 9.86063 -19.368 -11.446 -1.80855 1.28764 2.42099
1719 1 22.4012 7.69783 2.53385 0.563512 2.3117 1.30878
1720 1 -2.62539 -23.4745 9.02745 0.351575 -3.61214 5.3103
1721 1 5.37012 2.20154 10.255 4.56336 -3.28308 -2.44334
1722 1 18.8624 -23.2167 16.441 -2.90834 0.072869 1.28522
1723 1 -22.5485 16.7163 1.75356 1.44681 3.50759 1.91001
1724 1 -18.2746 -24.6436 -1.08711 1.86142 -3.45671 -0.41646
1725 1 -16.1213 7.87332 -17.3536 0.989633 -2.20135 2.60665
1726 1 17.8943 22.0443 23.7604 0.974145 -2.23081 -1.4246
1727 1 22.8696 -3.23963 -19.2059 1.56901 -2.62966 -2.59939
1728 1 -24.4384 -5.7904 -19.738 3.49297 3.13969 -0.353803
1729 1 -13.5375 7.20453 13.4745 3.97344 0.165975 1.13909
1730 1 -2.2727 -9.65515 23.56 2.19196 0.645 1.22497
1731 1 21.6945 4.68632 -4.51029 2.16131 -0.976247 2.7616
1732 1 15.0753 -13.3368 7.90816 0.939301 -0.225155 2.60346
1733 1 -10.0297 -17.1722 8.18162 -1.06076 -4.13924 -0.662735
1734 1 -7.26747 25.0602 -22.3751 -0.0392848 -5.21443 -1.37369
1735 1 1.1412 21.1488 -16.763 2.58932 -1.80397 0.686464
1736 1 17.7756 5.20104 11.8265 -2.05458 -0.736473 -3.7035
1737 1 -18.2307 0.628522 -6.78561 3.23967 1.24708 1.2022
1738 1 1.49649 13.2066 -21.7074 -2.12761 -7.74963 -3.54378
1739 1 -6.02548 -19.6798 14.7151 1.06454 -1.84793 -3.85711
1740 1 3.15102 20.2908 15.6796 -2.51368 -0.335895 -1.36072
1741 1 11.1979 12.0739 -23.5455 0.714123 4.10066 0.48013
1742 1 0.972052 -7.26183 22.236 6.27004 -0.91304 -0.0858799
1743 1 18.1622 -16.0804 10.5652 3.66231 -0.16637 -0.953203
1744 1 15.6828 20.995 -6.23192 0.0427924 -1.31159 -3.40351
1745 1 5.79997 12.4765 -6.28525 -0.845479 -5.05842 3.0008
1746 1 18.0887 23.8465 -12.1485 1.77833 3.14552 -0.101547
1747 1 3.45283 -15.6635 -7.08247 -5.91866 -3.01111 3.48735
1748 1 14.9952 -0.949065 -5.13339 -0.732586 -2.16451 -0.62444
1749 1 20.7541 10.6067 15.0204 -4.96506 1.02188 2.36488
1750 1 16.7957 24.025 13.1017 3.11287 -1.50037 1.41085
1751 1 0.983762 -7.69077 13.8101 1.69039 0.0479946 1.66835
1752 1 22.4858 20.0805 -18.1258 2.63713 0.744154 0.110215
1753 1 -23.2117 -14.9221 -21.2319 -3.20574 -0.385217 -2.88225
1754 1 19.8472 11.1413 -22.5381 -0.826155 4.68572 -8.75759
1755 1 -10.4801 -1.47272 -8.46442 -3.645 -3.98873 4.76136
1756 1 -16.288 3.95764 8.33893 -2.84739 2.8725 -1.02304
1757 1 17.7657 -12.6909 -8.38423 2.83562 0.375634 3.54537
1758 1 21.4607 -23.963 7.22422 -2.77966 -1.66547 -1.4971
1759 1 21.9469 11.3993 12.4946 -3.45658 -2.93077 3.76087
1760 1 -17.9625 -14.2544 -22.598 4.68328 -0.667338 0.32079
1761 1 22.6384 -16.4494 -21.4149 -1.6088 1.24117 -2.60919
1762 1 5.07335 18.6446 4.94943 -2.49604 3.86021 -7.27625
1763 1 -2.29755 4.217 13.4587 2.59287 3.27289 -6.49095
1764 1 -14.5731 18.9699 -13.2321 -4.89548 0.359974 7.96887
1765 1 3.54701 -18.2339 -5.4628 -1.7602 1.47247 1.98069
1766 1 -19.2928 2.61227 16.7551 -2.41833 -0.968524 -0.771909
1767 1 9.74111 24.1817 18.644 0.661046 -0.266219 1.72948
1768 1 12.059 -3.91728 7.73977 4.43702 3.93742 -2.00055
1769 1 -23.628 16.6946 15.6735 4.32889 -3.90314 2.4208
1770 1 -9.59537 -5.3928 20.7084 1.20095 -1.65988 1.44933
1771 1 0.203816 22.7322 9.31003 -1.87823 -2.57889 1.02493
1772 1 14.2872 -20.7855 2.5951 4.57157 -3.36027 -1.09271
1773 1 18.2966 14.4096 8.02175 -2.47575 0.983125 -2.36227
1774 1 14.4699 -21.7616 18.2152 -0.553479 1.31808 1.12997
1775 1 7.23875 13.8 -9.91839 -0.00738206 -5.084 0.265705
1776 1 10.7015 13.324 -1.4895 -1.18741 -1.10783 2.55395
1777 1 -22.7702 -10.4521 16.4198 -2.4337 -0.154236 -1.74129
1778 1 -15.6195 -7.27373 -13.3558 6.83549 4.71419 0.138439
1779 1 6.38428 2.93656 -3.6698 1.50136 1.03527 -1.09777
1780 1 5.64308 6.93106 -5.88274 -3.94698 -3.21469 2.47272
1781 1 7.68434 18.8849 -22.1536 1.85073 -3.34239 0.580163
1782 1 -23.0909 -13.9092 -11.0442 -2.6076 -1.70953 -0.390505
1783 1 17.0251 7.93903 -6.78139 -0.564471 1.35321 -1.98417
1784 1 -8.2769 15.1562 13.9034 -0.517112 1.22721 0.444743
1785 1 -6.95125 6.78767 -9.30719 -1.71708 -1.83995 2.04187
1786 1 -7.29327 0.0663604 -6.36295 0.0990444 2.32732 0.0637087
1787 1 5.21795 20.4592 -13.6335 0.312369 1.49831 3.17174
1788 1 -15.4693 -16.747 15.8083 2.42402 -2.30574 2.63805
1789 1 -23.7268 -1.92864 -5.77563 -0.613192 -3.94223 1.51273
1790 1 7.44737 4.19988 -13.6943 -0.786876 -1.46829 -0.62523
1791 1 0.161718 -6.50174 -15.5445 0.988793 -0.386659 -4.42151
1792 1 -15.622 5.80237 6.04381 0.501841 -3.28152 -3.16206
1793 1 16.4757 7.74087 -21.6213 -0.610259 -0.662188 4.41423
1794 1 16.4506 2.24018 -18.8644 2.52146 -2.64306 -1.73959
1795 1 15.0611 -1.59174 -11.9327 0.297098 2.81956 -0.932112
1796 1 -22.6966 -10.5698 -24.0551 -4.21702 1.50597 -1.33208
1797 1 1.70927 16.0712 15.6085 4.90471 -1.48449 0.626729
1798 1 18.5759 -7.28909 -19.1114 0.127858 1.23322 1.25898
1799 1 -12.2663 9.11182 -14.647 2.45677 -0.515141 3.27152
1800 1 -1.33896 0.426787 10.4082 2.79437 2.66324 -0.602014
1801 1 -12.6441 -21.1781 -4.60234 -3.97995 0.836574 0.880217
1802 1 -18.9065 -18.1245 -10.2971 4.44646 -5.29547 -0.534499
1803 1 -15.203 14.2524 -9.46232 -0.820657 4.01102 -4.17633
1804 1 -2.68805 -21.7971 -13.7849 0.605202 0.0266611 3.62933
1805 1 9.6087 5.37202 -7.51214 0.0900842 2.33897 -2.56044
1806 1 10.3956 -3.28613 17.0627 1.50008 -3.8652 -1.27543
1807 1 -19.0812 -9.81705 23.103 2.31135 2.18038 -0.331461
1808 1 20.141 -9.6304 17.5472 0.740071 3.54686 0.880703
1809 1 10.5574 19.4705 0.0945341 -0.0213094 -6.39984 -3.82843
1810 1 10.6586 -21.7217 -5.67641 0.503778 4.03057 -3.90037
1811 1 -2.03203 4.07592 20.2036 2.11541 -1.34762 -1.20867
1812 1 -10.3229 -3.67125 -21.7385 1.9845 -1.76155 -1.6942
1813 1 -16.6552 8.95177 17.8529 2.50624 6.13556 -0.80774
1814 1 11.1486 4.10575 -9.81271 -3.46458 -1.1318 -2.75565
1815 1 12.9759 -2.32872 -22.8858 -3.22494 -3.28726 1.45702
1816 1 0.0907033 17.6471 -9.77358 5.16554 -4.78211 -2.56162
1817 1 -2.16641 17.4331 -17.1252 -4.19099 3.43297 -3.24973
1818 1 -21.8013 -8.50286 6.75603 -8.58466 -2.79202 -2.78784
1819 1 -14.225 -11.3371 19.2419 -3.78864 -0.0304999 -1.52306
1820 1 16.4461 12.3422 -11.9353 -1.52691 5.38846 2.92047
1821 1 21.5942 22.6746 12.7833 1.92783 -0.348067 -0.33312
1822 1 15.3699 -2.94406 -2.71309 -2.76952 -0.239994 -2.33796
1823 1 8.00039 46.247 11.2926 7.73195 0.642875 2.81299
1824 1 -15.9104 -19.1533 10.089 0.649454 -1.42546 1.87976
1825 1 8.89079 -10.2486 -5.1035 -3.20334 2.09307 4.28474
1826 1 20.2564 11.0359 4.73328 -1.26415 -2.41608 1.01408
1827 1 15.2368 -21.7266 -2.24105 -1.85179 -0.225702 1.34792
1828 1 -13.1415 -21.6228 -21.3929 2.9411 2.92995 1.68198
1829 1 5.26079 16.0027 6.92784 -5.30513 -0.196685 1.38617
1830 1 -16.7047 2.92661 -17.8057 2.77136 -0.831924 1.02294
1831 1 13.4059 -15.65 -4.33282 -3.08894 1.66136 -2.0212
1832 1 -23.6596 -12.5186 22.5297 -2.86715 -3.28046 2.7564
1833 1 -11.1831 2.05957 19.3411 -5.35749 -1.14536 4.71676
1834 1 6.25342 -8.15724 -20.364 3.27405 -5.21475 -1.07858
1835 1 5.6526 22.4305 18.4191 -0.75643 0.638477 -1.50193
1836 1 -10.1418 46.9967 -18.7867 -1.33851 -0.782514 3.38727
1837 1 14.6975 -20.5468 8.50076 -0.408875 0.425689 -3.71958
1838 1 20.2466 21.7843 1.29871 -1.16046 6.03913 0.807686
1839 1 20.0035 22.8471 5.50546 0.556451 -0.843873 -1.88312
1840 1 -21.1834 -13.5463 -0.613134 0.114291 -1.64124 -1.58866
1841 1 9.19399 -23.4227 -11.7986 0.945749 -8.30514 1.63473
1842 1 15.2609 -18.1282 2.34992 -5.35441 0.705103 1.10981
1843 1 9.33079 -1.70649 -19.6395 -5.69838 1.10161 0.832332
1844 1 -7.23549 -1.75525 4.34814 -1.14993 6.5181 -1.07343
1845 1 21.0516 18.1996 -22.4218 3.16067 -0.312154 -3.87677
1846 1 11.7668 -19.1436 5.40151 2.50912 2.49841 5.06406
1847 1 18.2069 -14.3117 19.3924 -2.43395 -7.70669 -2.56711
1848 1 4.85721 6.89221 -15.1726 -1.84251 -5.1439 -0.454456
1849 1 11.8368 -23.7431 -13.0829 -0.56259 5.94362 0.175826
1850 1 16.4796 -21.429 -7.12669 -3.10525 -0.546649 3.8544
1851 1 -7.56502 3.41033 -0.572419 0.588665 1.37856 -1.79029
1852 1 1.47115 2.69045 -20.265 2.78698 1.64514 -5.59947
1853 1 2.39477 -12.5493 7.55773 -3.98202 -2.04786 1.03426
1854 1 5.03304 47.2225 11.5661 2.56153 1.90741 -0.866648
1855 1 0.0826814 24.4255 -15.0696 -3.17991 1.16926 0.995721
1856 1 9.28802 -4.23672 -18.187 0.546131 0.486446 2.21355
1857 1 0.535129 -20.2375 2.68018 1.14693 2.1719 3.56877
1858 1 1.99082 -14.7794 -12.0745 -0.744452 1.45646 3.62558
1859 1 5.77776 -14.8483 -15.9545 1.99365 1.69106 1.81393
1860 1 7.7013 0.950443 9.7694 2.11051 -0.43942 -2.77992
1861 1 -15.7708 -22.7556 -17.365 2.55492 1.70958 -2.22335
1862 1 -13.3338 -1.0951 -9.34683 -2.13339 0.118831 3.6584
1863 1 -3.26183 -15.3781 -7.90625 4.04039 2.39033 -3.5241
1864 1 -6.82595 12.5245 19.1406 2.20649 0.15414 -5.30337
1865 1 -10.2662 -4.27578 5.51249 -0.733874 4.65456 -2.16987
1866 1 7.9289 21.4828 12.9054 -4.18407 -0.240153 1.45303
1867 1 6.93926 -7.80774 -1.34636 -0.55197 0.217561 -0.364826
1868 1 -8.61209 2.73282 18.5108 -5.11205 -1.7479 -1.70358
1869 1 -1.30508 24.7705 16.8234 3.45042 -1.53891 -0.187076
1870 1 -19.501 11.1907 13.8442 0.400932 -1.03521 -1.49504
1871 1 18.779 -11.1793 4.93914 0.155783 -0.574024 -2.53228
1872 1 -1.73751 -8.65604 -9.13557 -3.53437 3.78591 -0.61213
1873 1 -10.6904 15.5562 8.53109 -6.70214 -3.01805 -1.26042
1874 1 -10.5753 -15.8217 -20.0862 1.6158 -0.89316 -1.55408
1875 1 23.7219 -7.45229 -10.7249 -2.40119 3.13696 0.0191574
1876 1 -22.9934 9.53291 -20.4263 -2.81134 -1.97241 -2.55492
1877 1 -17.5148 -4.79622 8.14039 0.63245 0.824483 -0.403542
1878 1 23.6858 23.8367 -1.63011 1.68605 4.1677 3.94657
1879 1 -20.5702 -18.2019 -17.6414 3.22373 2.29135 -0.252406
1880 1 -1.056 23.7962 -19.639 -0.630327 -2.46895 5.88054
1881 1 12.0577 5.17911 20.9581 -1.3561 -3.43968 -6.03775
1882 1 -9.49497 7.63645 17.8586 1.27995 2.1615 -1.86568
1883 1 -6.39165 -14.3922 -7.75974 -1.97522 0.396651 1.98177
1884 1 17.0518 14.5899 10.6746 -2.56895 -2.93266 -2.37257
1885 1 -7.37266 18.5815 22.3098 -7.65695 -3.42185 5.34319
1886 1 18.6065 22.1437 8.34642 0.46123 2.74812 -1.81447
1887 1 18.1695 -5.62441 16.3757 0.730101 -1.4248 0.227402
1888 1 -9.58967 -19.1097 -15.1249 1.5465 3.19822 -0.198055
1889 1 -13.7492 1.34422 10.564 2.0211 -3.05936 2.503
1890 1 21.7433 8.13913 23.74 -0.84466 2.4681 -0.348843
1891 1 -11.7337 -15.7158 -22.9697 2.58528 -1.2093 2.08195
1892 1 -1.2968 -12.4696 -15.676 0.494021 3.85423 -4.09786
1893 1 2.51782 0.139854 22.8578 1.68433 2.77938 -5.21568
1894 1 0.585728 -18.1715 -5.28624 -2.82 0.559702 -6.92588
1895 1 -21.652 -6.71559 16.1757 3.72546 2.77085 -1.52917
1896 1 16.2647 22.9444 1.33429 -2.34287 -3.43697 0.0978932
1897 1 -12.5979 45.4725 -8.4964 -1.90287 0.482765 5.98662
1898 1 -21.8105 19.4837 13.1683 1.02294 1.27809 -0.296224
1899 1 -5.21439 18.881 -5.88008 -1.47866 0.0250016 -0.918945
1900 1 -11.8372 -0.355059 4.52002 -2.64243 2.87817 1.55389
1901 1 -11.693 -14.5168 -17.5533 2.80389 0.226906 2.83373
1902 1 19.8535 0.282985 -20.6485 -0.580572 2.23608 0.117089
1903 1 0.279806 -15.4845 -14.3185 2.86245 4.33945 -0.146991
1904 1 -7.8309 -20.8877 16.731 4.01776 -3.25993 0.483565
1905 1 -14.4286 8.44605 -8.51759 1.2496 -4.34637 4.73864
1906 1 -21.9991 -24.7046 12.7601 -0.307853 3.61013 1.06032
1907 1 -21.6179 -10.212 13.6301 -7.42169 4.10637 -0.0657097
1908 1 -14.8459 -6.14596 0.67856 -7.36667 -1.74451 -3.34093
1909 1 9.93486 -9.7258 10.4138 0.0685778 4.75661 -1.53052
1910 1 -7.27951 -10.0297 16.0396 -0.177815 -0.589831 -3.03131
1911 1 19.8914 -2.65967 -5.56966 -1.94594 1.89825 1.19631
1912 1 -16.7168 3.51862 -0.19686 1.64319 0.892873 -0.304451
1913 1 1.5749 19.1708 -0.73927 -2.79451 -6.846 1.40856
1914 1 19.9108 7.25012 3.72721 -0.284275 1.32669 -6.24524
1915 1 20.0704 -23.066 -16.3237 -2.89411 -4.02489 -0.888572
1916 1 -4.77644 16.351 2.60488 -2.19274 -4.14995 1.39443
1917 1 -23.1156 24.1081 17.616 -0.894547 3.18581 1.681
1918 1 -18.0964 -1.00826 -20.3159 -5.47848 0.476 -2.76242
1919 1 -22.9995 10.0862 -14.8619 1.04435 -2.80055 3.13685
1920 1 23.0309 -15.7895 0.615541 2.20551 2.47144 -1.32764
1921 1 18.9763 12.589 -4.69157 2.47956 -0.585962 -2.7326
1922 1 7.1874 14.3334 20.3325 -1.60379 3.00912 2.32738
1923 1 13.4777 0.39665 -10.5126 1.04618 3.13464 1.46225
1924 1 23.0642 -18.5175 -0.340941 1.29031 -1.59076 0.384239
1925 1 20.0888 -22.3693 18.9625 -2.18172 0.76597 -2.1996
1926 1 14.1042 -4.15422 -7.16044 -1.45404 4.96557 7.35145
1927 1 -8.5121 -22.4827 -22.6061 -0.48665 -5.4459 -1.27766
1928 1 22.2744 -4.28879 5.9061 -1.061 2.23034 0.127247
1929 1 8.20646 19.9365 1.69687 -2.19477 2.25087 -1.79598
1930 1 -6.12849 -14.0111 -18.5115 1.3658 1.7696 1.98875
1931 1 -11.0069 6.61689 -1.89299 1.93894 -3.15719 -6.51412
1932 1 0.0947994 18.9938 6.80715 -0.513741 -0.830567 -1.84964
1933 1 -4.38081 19.3668 -20.9103 -2.31661 -3.36497 -1.34423
1934 1 1.64393 -10.0366 -1.31932 -0.644197 -2.5624 -0.156011
1935 1 18.7575 -15.0213 2.83767 -4.8944 3.58715 1.94792
1936 1 18.5598 -22.2228 24.0751 3.55152 -1.28543 -1.15102
1937 1 2.95443 3.21689 19.3657 4.17916 -3.28343 -1.27164
1938 1 2.17178 5.52665 17.8222 -0.460371 -2.56795 -2.82924
1939 1 12.914 11.75 3.9514 -1.88793 5.52208 0.198159
1940 1 -19.8827 -24.134 5.93664 3.98623 2.08663 -2.14822
1941 1 -0.00660187 -22.6792 -13.7662 2.80051 -4.69513 -3.52871
1942 1 -2.46755 7.88987 -3.19036 -2.04845 -1.12943 1.59067
1943 1 5.21021 17.6346 -5.95225 0.101493 1.57991 0.930089
1944 1 -20.034 -24.1734 -3.19452 1.73168 -3.92868 -1.61966
1945 1 -23.7886 -18.8317 20.308 4.77615 3.32328 1.12892
1946 1 7.89385 8.7379 -5.25602 -0.72279 3.05225 6.29771
1947 1 -17.2509 13.9309 -14.6201 -1.86626 -5.65624 -5.66999
1948 1 12.6335 2.03112 -15.174 -1.70309 -1.39642 -2.17744
1949 1 -8.198 -7.67735 -8.40373 1.57235 -5.75262 0.270336
1950 1 23.5735 20.5976 -8.07039 -1.41171 -4.00257 -3.16171
1951 1 -5.44196 -10.8907 13.6196 1.34891 3.09789 2.533
1952 1 5.34461 -15.8379 -13.3451 -1.81545 -0.235459 -1.83727
1953 1 15.3855 -18.7399 -2.63411 -0.560513 -1.8389 1.62078
1954 1 5.49832 7.2158 10.6292 3.25652 -3.43048 -1.59315
1955 1 -13.9638 -17.6537 22.8483 2.60159 2.56528 -2.39943
1956 1 -4.48632 0.560277 8.37513 0.294535 -2.5057 3.90854
1957 1 13.9006 14.2953 9.01931 4.05027 -6.23161 0.601219
1958 1 12.882 6.87676 17.2936 -2.317 -1.02822 -4.08299
1959 1 23.6302 -5.17601 -1.92273 -1.1937 3.70774 -2.91406
1960 1 -14.9336 -4.3753 -20.7651 -1.20119 -1.36168 1.09564
1961 1 16.6786 -12.9118 -5.71563 5.72511 2.5173 -0.410019
1962 1 0.490751 -11.9576 -3.03053 0.38571 -0.269659 -4.18717
1963 1 -0.414801 18.2629 1.08789 3.07172 0.486482 2.34098
1964 1 22.0829 24.8179 -13.8075 2.02987 0.0119535 0.550142
1965 1 16.6215 -3.85382 20.2426 0.738702 1.74471 -3.53275
1966 1 -21.0438 -16.3073 -11.0873 2.6212 0.406141 3.66254
1967 1 -15.211 -22.5137 16.2378 -0.4242 7.83425 -2.04389
1968 1 -21.7391 13.0944 13.7478 0.446092 -0.902405 -1.44592
1969 1 -5.0257 -5.96388 8.75381 1.01335 -0.345569 -2.6589
1970 1 21.8135 -9.05015 -2.30454 3.82956 -0.777924 3.99846
1971 1 21.7603 -0.568727 8.31426 -0.449436 -1.51385 2.1471
1972 1 -3.00133 -6.54631 6.58113 -1.65797 2.08973 -0.843477
1973 1 15.0225 -17.0353 18.3948 1.60136 -5.10507 1.82548
1974 1 16.366 -10.5988 10.0114 -1.95974 6.57473 3.84292
1975 1 11.1676 -16.1703 -18.771 3.94197 1.70016 -1.80891
1976 1 20.8231 -10.7172 24.1614 -3.01645 2.82876 2.55591
1977 1 15.8717 -13.3691 12.4224 -1.46386 1.29316 4.0046
1978 1 6.26777 -3.65454 -24.0117 -0.286862 -4.57498 -1.28387
1979 1 -0.132148 21.4905 11.9164 2.95649 -1.43388 5.26255
1980 1 -21.8225 5.30421 -19.567 -7.28798 -5.87977 1.49917
1981 1 16.6194 23.2632 -3.33988 2.35184 3.16173 2.01083
1982 1 -19.737 -3.98815 22.9584 -3.82985 -3.40812 -3.9514
1983 1 17.0153 -6.18568 -5.43304 1.08989 6.46823 -1.50923
1984 1 2.12649 18.996 19.4907 3.12318 -1.28739 3.53599
1985 1 2.54475 -23.4796 -9.73645 -2.40586 0.429958 -3.01193
1986 1 12.3157 -5.44101 2.57844 1.89453 0.739717 2.57329
1987 1 -22.484 2.46322 10.2296 -3.7818 1.74024 -2.4667
1988 1 9.22138 17.8882 10.1681 -1.52502 -2.2658 1.02251
1989 1 -10.7916 -13.2642 9.83714 1.91839 3.49071 -2.42976
1990 1 19.9533 -15.6826 -6.42619 -3.58042 -1.62402 -1.38991
1991 1 -23.0416 -21.6138 20.1349 -0.103475 0.496463 1.84866
1992 1 13.2591 19.598 4.08045 1.55015 3.78318 1.38301
1993 1 4.47135 12.9742 -13.1128 -0.781606 -1.06801 0.726506
1994 1 -21.5968 -17.7546 4.75589 0.0677659 -0.274112 0.232324
1995 1 1.24146 2.18163 13.7488 -3.01315 2.46719 -2.58055
1996 1 -10.476 8.56647 -23.6707 -2.12042 2.37534 0.94913
1997 1 20.8482 23.0921 10.1588 -2.15418 -1.93786 3.75964
1998 1 -13.2809 11.0086 0.153973 -6.66295 0.193409 2.96348
1999 1 -1.59401 -11.9581 21.8071 4.62425 3.20288 -0.544814
2000 1 4.26576 2.08789 -19.9832 -0.876478 3.30198 2.47469
2001 1 -9.90006 -11.7078 -3.29947 1.10645 3.77304 1.49399
2002 1 -20.8348 21.5985 -9.16623 6.37895 2.06487 -1.30793
2003 1 11.9198 -3.95566 -10.2098 1.89369 -1.8136 -1.77324
2004 1 -0.500922 -21.3977 -23.9583 -0.0409231 -0.44866 -0.831373
2005 1 4.84401 -5.48315 18.8941 3.84306 2.00039 -0.449862
2006 1 9.79151 -12.0127 -9.22427 3.58664 0.701037 -3.70497
2007 1 -10.5124 13.8745 -12.1538 -3.00566 -1.08073 2.80418
2008 1 -7.72839 23.7648 13.1653 3.95929 -0.601322 -1.4533
2009 1 -3.96304 1.72849 -1.19574 3.10677 -2.26891 1.08027
2010 1 -5.24917 2.81577 23.3468 0.210822 -0.449842 4.45786
2011 1 -4.09665 9.44858 18.9113 -5.83135 -2.24994 -1.1879
2012 1 19.0143 -19.514 14.4838 1.05751 1.31486 0.305978
2013 1 -13.4768 22.6995 4.58848 0.180233 -3.44193 2.07729
2014 1 -7.89585 -9.19512 12.9245 -2.19038 6.79997 2.2385
2015 1 -3.24087 -8.53108 -1.67301 -1.04255 0.975246 -2.03767
2016 1 -5.49912 -17.6065 -7.54087 5.76811 -6.10758 -1.92156
2017 1 10.1635 8.84143 22.4699 5.21849 -0.224162 2.49047
2018 1 -17.4219 -1.24435 6.54802 -3.72247 3.1067 5.17986
2019 1 1.21182 22.7117 19.616 -1.10429 -1.23829 -3.32485
2020 1 7.687 -13.1239 -14.8734 -2.04667 2.14925 -1.69412
2021 1 -4.49488 12.2298 10.9049 3.51047 -7.5756 -1.10771
2022 1 18.4403 24.5896 10.898 2.2393 -0.212258 0.135181
2023 1 -20.7071 -11.208 6.9509 -2.42337 3.95298 1.03906
2024 1 8.76975 9.98695 12.7257 4.16222 -2.05792 -0.36805
2025 1 6.49318 -11.329 -23.8908 -2.48624 0.287085 -2.92406
2026 1 9.16765 20.6789 10.3404 2.42142 1.02311 2.10583
2027 1 5.64549 18.4256 -11.7525 -0.475213 1.38725 0.369704
2028 1 3.11998 -1.86743 -21.1728 1.65944 -1.40538 1.26771
2029 1 15.4418 -9.12779 -2.77299 1.07324 0.192793 2.83165
2030 1 9.57349 -18.2334 -21.5982 -1.44348 -0.744717 -4.15363
2031 1 -6.13595 -21.7909 -8.6228 0.651839 3.55734 -2.57157
2032 1 -8.54398 4.67574 3.94237 2.6094 2.28349 -1.81528
2033 1 9.56773 15.3893 0.270465 -1.60696 0.0877475 4.14257
2034 1 -9.5512 -2.60018 -16.698 2.00401 7.3595 3.54224
2035 1 16.6507 -15.7986 23.0467 0.109643 0.203251 -3.558
2036 1 -16.074 7.40301 -22.1815 -0.201646 0.8591 2.47565
2037 1 -17.1845 9.26855 10.7764 -6.31136 1.95975 -1.3419
2038 1 18.3121 0.203487 12.0027 -7.20604 -3.66751 -0.548709
2039 1 9.18089 -22.9217 -22.5334 3.78978 7.61052 0.242555
2040 1 -6.28182 -24.1497 -4.65077 -2.0514 0.391001 0.479736
2041 1 -13.3869 -13.1615 23.3958 -1.51639 -6.66246 -0.0430586
2042 1 6.62242 -21.0837 22.7166 -0.572072 -3.06273 -0.644418
2043 1 18.2668 12.743 12.7536 -0.831774 0.529251 1.53442
2044 1 3.51848 -4.99168 2.95002 -1.52436 0.959705 4.50945
2045 1 6.12263 -17.6281 -15.8593 -1.30686 0.295966 5.7673
2046 1 -6.64638 16.5567 17.3009 -1.41754 0.292334 -0.132494
2047 1 -6.63487 -14.8589 7.46188 -1.34762 0.998929 1.67786
2048 1 3.00575 16.0197 -16.473 -1.83502 -2.95626 1.07044
2049 1 17.94 21.9548 -18.1151 0.397146 -2.32552 0.745706
2050 1 -11.1774 6.19072 -9.85005 2.85577 2.17062 -3.20486
2051 1 -21.2685 8.92082 -3.67278 0.123761 5.82473 1.95064
2052 1 -8.65505 3.85282 -20.5334 -2.58331 -1.67706 3.89799
2053 1 -23.932 11.7697 -18.8837 -0.291755 -2.38578 -2.80425
2054 1 14.9193 3.60758 0.0890968 1.20742 -4.85309 -0.906446
2055 1 5.27921 12.9415 7.20867 1.04866 -5.94472 -3.64165
2056 1 -5.52932 25.0079 23.9155 -3.22981 -2.08293 -4.83787
2057 1 16.4715 -4.50619 7.48808 2.97525 -4.39304 -0.438361
2058 1 21.831 9.03997 -11.8202 -0.0537507 -0.884971 -3.47153
2059 1 3.4541 -10.1505 21.9769 -3.92543 -3.18541 1.75421
2060 1 -8.65332 -4.06146 -5.91443 1.19179 0.52609 2.53544
2061 1 -17.1014 47.0774 24.0904 0.366617 -5.66095 1.21345
2062 1 -16.9638 17.6873 -7.45042 -3.39465 3.62373 0.946702
2063 1 -10.182 -12.0592 -17.8094 -3.03876 4.57338 1.63253
2064 1 -13.6041 -17.1634 10.6768 3.07324 3.23594 -4.95473
2065 1 13.8995 -19.2799 22.6486 1.88701 -1.48624 -4.03182
2066 1 19.4281 8.00685 10.044 2.77164 3.47523 -2.81881
2067 1 23.2184 7.95601 21.4342 -2.34443 -1.18584 -0.994827
2068 1 -15.1321 10.4242 -4.73892 4.4867 -0.789519 4.61342
2069 1 20.5897 -23.9319 -11.1367 2.34546 3.4225 2.99565
2070 1 23.7081 -0.352033 -0.670466 2.41749 -0.133986 3.018
2071 1 -21.4795 -14.0266 20.7902 3.30993 -2.93783 -2.97751
2072 1 -18.9453 6.79491 21.1372 2.4286 0.776566 -1.19374
2073 1 -18.9723 7.93624 -17.215 5.01004 -2.56369 -3.61861
2074 1 2.25089 11.062 -10.4593 2.02922 -2.51673 -5.44097
2075 1 -9.17935 -15.9102 22.5817 -0.826858 -0.742982 -0.672285
2076 1 -13.3313 24.31 -9.00094 -1.98728 -2.45694 2.03498
2077 1 -17.3833 -4.88567 3.63775 -0.846567 -0.0265879 6.34428
2078 1 -13.2067 2.32491 -22.9162 1.31831 4.58338 0.647967
2079 1 7.19583 -14.8595 -18.6553 -1.01326 -1.95179 0.284772
2080 1 -23.0556 -22.9859 -15.2817 -2.22688 -2.87523 -0.804403
2081 1 -23.6157 16.8588 -16.2612 -1.77595 -3.939 1.92077
2082 1 -8.21915 17.6902 2.56413 5.81362 -1.15876 -1.37586
2083 1 19.2205 8.95447 -8.04618 -2.69848 -2.54291 4.89344
2084 1 15.5417 19.0854 21.209 -2.46335 0.716116 -2.27403
2085 1 -19.2543 -21.0756 -9.94518 -2.19059 0.00310165 -2.29424
2086 1 -11.0396 -14.6772 6.99966 2.83643 -4.50032 6.66134
2087 1 -11.5686 5.64202 -15.1579 0.391224 1.08134 -2.87928
2088 1 9.20934 20.6002 21.3989 4.25173 0.59765 1.01633
2089 1 9.16579 15.2997 -18.7304 4.66671 -3.49333 5.66679
2090 1 15.9407 7.37975 18.722 -0.465163 -1.23002 -1.91897
2091 1 -9.41695 6.82662 13.7932 -0.535323 -0.549155 -0.139723
2092 1 -18.3903 22.9276 -22.3958 -2.32251 4.52569 -0.298285
2093 1 -2.67497 12.5368 -3.18272 2.13363 2.3447 -1.16351
2094 1 -24.5055 11.935 -2.16304 5.67913 0.652315 3.46662
2095 1 -20.6194 -10.1941 3.94233 -0.916992 -0.0590072 1.83716
2096 1 9.31602 -5.00764 0.0216446 2.83461 4.13024 1.99284
2097 1 -4.40836 5.75618 10.7039 1.73058 -0.280885 -0.0387086
2098 1 -14.6018 -16.8379 -8.29211 -3.84969 1.44673 0.19638
2099 1 15.0353 -10.7614 6.14462 -1.42465 -3.57285 -4.73499
2100 1 0.281015 -4.3113 22.3748 5.02112 -5.27 0.665457
2101 1 -22.831 -7.11286 18.8744 0.755236 -7.83546 4.41612
2102 1 6.02395 6.69497 -8.83783 -0.461228 2.7248 1.9895
2103 1 10.0743 -16.8395 -13.979 -3.74455 -2.11997 -0.117958
2104 1 -19.0129 -4.76358 20.2425 0.139463 -0.873318 3.67218
2105 1 14.1437 10.6645 -10.9759 1.30699 7.31836 1.063
2106 1 -19.4107 -16.2707 -21.0231 -3.68172 -2.95033 1.90677
2107 1 -10.9032 4.90668 -12.4886 -1.11628 -3.53863 -2.81331
2108 1 -8.41542 10.9655 1.2426 -3.34576 -2.31512 -1.52404
2109 1 -5.52339 7.25327 20.3552 -2.41423 2.52613 -2.34915
2110 1 3.17527 9.44719 1.25627 1.09279 -0.409289 2.78183
2111 1 -24.2693 -9.03244 21.1413 0.347294 1.75338 1.56953
2112 1 -11.4993 3.12869 11.2431 2.47098 0.669918 3.69723
2113 1 -18.3103 -2.10568 19.9823 0.74434 0.521799 0.144402
2114 1 1.41258 -24.4695 20.4783 -1.26001 -0.303591 0.301676
2115 1 17.9688 -16.1849 -10.651 -1.51567 -2.97687 -0.676082
2116 1 20.0976 -2.94692 4.47764 3.20341 0.502495 0.795371
2117 1 22.7215 23.2424 6.34328 -2.43655 7.1701 0.109692
2118 1 -13.0668 -0.13115 -4.80901 -1.87706 3.42915 2.61143
2119 1 -10.9917 15.8796 0.765751 1.94376 0.901589 -1.61679
2120 1 15.9097 -17.4234 11.878 4.17667 -0.377288 0.68934
2121 1 9.27554 -19.7148 22.0718 0.0092321 -0.579619 -0.909496
2122 1 11.5506 8.94413 -8.21384 -2.73111 -0.218985 -4.01891
2123 1 21.8375 -7.69246 -18.0637 -1.09916 5.82685 -0.804679
2124 1 20.4443 -1.71615 -18.9337 4.58403 -5.5191 1.58042
2125 1 -3.90134 -13.6659 13.8659 -3.61352 -3.50618 0.0405585
2126 1 11.3374 -5.99751 -3.68888 1.2421 1.4045 0.248017
2127 1 -24.3055 -9.85336 -21.7085 -3.472 -2.63348 0.196857
2128 1 -16.6641 -21.9808 -1.84823 -2.01136 4.45168 -4.20718
2129 1 -13.5787 -21.5537 11.7332 -1.37002 2.57826 -5.83508
2130 1 -19.9975 9.59636 -6.03213 1.59802 2.57663 -3.29039
2131 1 19.0813 -8.60073 -1.0516 -3.24158 0.69132 3.88758
2132 1 10.7203 -21.1875 24.1075 -1.55445 -1.57939 -3.8818
2133 1 -13.0817 -13.1709 5.88125 2.0294 -2.1817 4.87002
2134 1 13.1302 21.8492 8.21312 -4.06654 -4.60092 0.198729
2135 1 16.7914 10.7729 23.9222 -2.23431 3.48601 -3.30798
2136 1 -4.89733 -22.033 5.53512 1.06698 2.16357 2.31619
2137 1 16.2911 16.5802 23.8213 -2.16997 -2.28187 1.11017
2138 1 16.5572 24.7053 -15.188 0.174399 1.51237 3.01266
2139 1 -9.99513 3.64971 -16.6839 -0.37428 -1.05281 3.04301
2140 1 9.83321 -13.1912 16.4153 1.72047 3.54924 -4.10215
2141 1 -21.8671 -22.4288 -1.93877 -2.23765 2.57925 2.40798
2142 1 -17.1457 -7.71174 17.4362 1.50663 -0.565334 -2.17233
2143 1 19.5121 3.68696 -15.9752 -1.4371 -1.0269 -5.2222
2144 1 4.84978 -1.74481 4.50263 -8.01134 -0.919845 0.156588
2145 1 18.9418 10.2665 22.2426 -1.48119 -3.2961 -2.68974
2146 1 1.86586 8.3018 18.756 -1.87202 -6.80042 5.26929
2147 1 3.73753 5.96648 15.5089 -6.12859 -2.81545 -0.229266
2148 1 11.8449 -21.5141 19.6829 -0.707707 -3.42288 0.507388
2149 1 19.518 -5.03629 -3.94828 -4.30008 2.70371 -0.713132
2150 1 17.2121 -6.74165 0.0477663 -2.30447 2.1479 -1.97299
2151 1 6.62863 5.62004 -11.3185 -3.14041 0.861002 3.58957
2152 1 8.35224 22.2807 -5.73547 4.61359 -0.141503 -0.127376
2153 1 -8.40309 -12.7317 -0.923611 4.43977 3.88578 3.62699
2154 1 -10.9527 17.0047 -24.0673 -1.2906 4.2413 2.33225
2155 1 11.9723 6.93599 23.385 -0.404955 -4.05171 1.42334
2156 1 -21.3585 17.393 -9.30862 -0.695515 -5.68273 0.211555
2157 1 -2.99597 16.9163 17.8537 3.43136 -7.12045 0.672464
2158 1 -16.8724 13.6243 14.3406 2.91654 1.71784 3.33523
2159 1 3.99645 -20.6825 11.9309 -0.6543 -2.43819 -2.09178
2160 1 -20.0061 -1.24384 22.0699 -1.08435 5.14124 -1.12945
2161 1 -1.93115 8.69064 -5.95512 -4.3568 3.41947 0.286531
2162 1 19.7054 10.6274 -2.75771 1.19785 2.72241 1.55129
2163 1 6.14737 -7.23497 14.5399 2.9133 3.40539 1.80714
2164 1 16.8279 1.51061 -9.15352 -3.15683 -4.61911 0.253481
2165 1 16.6301 19.577 -13.7174 0.561292 0.5333 1.58701
2166 1 -15.6125 19.2837 -15.7726 1.10097 -3.18377 2.00685
2167 1 -13.649 -10.135 -17.207 -1.17735 1.31745 -3.59864
2168 1 -19.9786 19.2344 4.11694 -1.36342 0.816427 4.05364
2169 1 11.6627 -7.0653 -20.3071 -1.30819 -1.0901 3.41554
2170 1 -7.87177 -17.3596 -0.768541 1.14805 0.884287 0.92637
2171 1 -5.20617 2.21734 5.84202 -5.01251 3.35402 0.344484
2172 1 1.36608 20.9833 -2.99357 -1.3374 -3.51693 2.72217
2173 1 20.9156 1.35672 -14.9544 2.68944 0.545115 -2.8201
2174 1 4.66567 7.22129 -3.10849 0.29468 1.7693 0.221055
2175 1 11.2614 -22.1655 11.1086 4.23945 -6.20494 -0.525126
2176 1 9.17446 -17.6186 15.1452 0.405425 -2.54658 1.38722
2177 1 19.9144 18.2831 21.8462 -2.62152 -1.09449 -1.52548
2178 1 18.6214 -17.6074 -8.21072 -2.18207 2.44033 0.254045
2179 1 10.3629 -3.63268 5.24532 0.88553 -1.65139 4.21235
2180 1 10.1628 -7.93355 -11.2958 -2.61961 -0.965966 1.01441
2181 1 -16.912 -19.653 19.5248 0.338007 -4.24357 -2.14373
2182 1 -2.14624 -1.88961 12.5623 -2.86252 -2.64486 4.40119
2183 1 4.39871 -3.73826 12.2805 2.17505 2.00768 1.6497
2184 1 16.3764 16.4835 -20.3472 -2.37907 -0.10123 3.02125
2185 1 7.68752 7.91534 19.2641 6.64179 0.239024 4.28394
2186 1 2.59446 -9.38561 -16.8141 -1.11788 -1.40108 2.70396
2187 1 14.5431 -4.89461 9.39454 3.82712 -6.74189 2.409
2188 1 -13.6472 3.75601 9.11454 -1.02419 -0.450759 5.98431
2189 1 2.9113 18.0283 -10.6523 2.88827 -0.0792502 4.26497
2190 1 -1.00508 2.69695 -12.5784 0.842679 3.2548 2.49978
2191 1 14.7529 9.82546 4.43232 -1.85211 2.52426 -0.72982
2192 1 0.192653 3.96653 24.0277 2.152 2.62456 -4.43217
2193 1 17.73 -15.0648 -14.7979 -3.62063 5.01668 -2.93587
2194 1 -20.1698 3.23989 23.5306 0.304469 -1.41367 1.844
2195 1 -9.90175 -20.0502 -9.82014 3.60827 3.41967 -2.48383
2196 1 -4.40307 5.0385 -13.5414 -1.98479 -0.3877 -1.48974
2197 1 16.8995 23.3136 21.578 -1.19346 -1.44958 -2.4177
2198 1 2.98258 10.807 -4.66366 -2.50316 -2.06923 3.38549
2199 1 -17.787 12.4688 0.872382 -0.0823408 2.198 -1.71627
2200 1 -2.58914 -23.254 2.36991 0.531607 -2.02399 4.88164
2201 1 14.1201 -12.8553 -22.252 -2.39169 -1.43504 2.16122
2202 1 19.0007 -19.2058 -20.0037 2.39247 -5.10297 -2.50696
2203 1 7.85933 -0.643935 -3.04658 0.62623 0.407261 -2.1322
2204 1 5.19748 -0.752701 -1.64705 -1.54325 -3.56936 5.01857
2205 1 -22.6336 7.31819 -15.7404 -1.7226 -2.07104 -1.38704
2206 1 -1.3956 -8.48559 -14.6551 0.388787 1.59239 -2.92031
2207 1 -21.7877 -8.96907 -3.45521 -3.73327 3.09446 -0.745644
2208 1 16.5622 19.2472 -3.9022 3.85049 1.38834 -1.06339
2209 1 -23.8007 23.4441 22.2836 4.13317 4.12817 1.60768
2210 1 20.5615 -19.1715 -1.12297 1.31211 -2.19575 -8.15479
2211 1 -18.0005 5.09235 -21.4659 -3.37259 -0.853722 1.2536
2212 1 -18.5427 -5.30002 -4.6992 -6.95159 5.12321 -0.28346
2213 1 17.7049 8.69683 -3.70323 -4.63517 1.89247 4.05726
2214 1 11.5497 9.85681 20.1074 0.653955 -4.70587 4.20978
2215 1 10.0729 17.3382 -1.66096 -2.27119 -0.790088 -0.744403
2216 1 3.64487 -2.06736 -13.9003 2.81627 -5.61888 2.31088
2217 1 11.6644 -13.0102 20.225 0.319147 1.12277 -1.72937
2218 1 -15.0166 -5.42325 21.0185 4.40467 2.62868 -0.283991
2219 1 -10.0775 -22.271 15.6884 -1.68025 -5.25163 1.1982
2220 1 2.33842 17.7756 -13.5582 2.10548 1.00642 1.42488
2221 1 17.1361 5.4411 20.527 0.822859 -3.87421 1.63858
2222 1 2.09802 5.23498 3.99284 0.810072 -4.73234 0.807843
2223 1 -22.7882 14.5982 -22.979 0.624056 2.63139 6.27141
2224 1 -15.2973 14.4114 -4.27158 9.10826 1.0663 -2.12598
2225 1 2.01876 -18.3732 -21.6068 -0.199421 -7.39996 -0.0138166
2226 1 19.4812 0.223004 14.8359 0.384699 -0.621334 0.624799
2227 1 8.81241 1.95881 -2.82835 0.131904 -5.24101 -2.88822
2228 1 -6.95525 -8.77841 24.0385 3.3923 -1.27022 -3.15076
2229 1 16.7341 6.05733 15.9771 -0.865182 1.06621 2.5654
2230 1 4.63635 21.2688 -3.10936 -0.875807 0.433517 -2.34825
2231 1 -10.2528 21.0557 11.212 2.78136 -1.75885 -2.25294
2232 1 -21.7728 23.5673 -15.6483 -0.633382 0.169586 -3.85804
2233 1 -13.5627 2.57521 -18.6642 -1.62109 3.69932 1.68192
2234 1 -4.66201 2.45578 -4.03193 -2.83854 -6.60689 10.6634
2235 1 8.6082 -22.9194 11.5132 2.74281 -0.141128 3.94114
2236 1 22.2007 4.01291 -17.1519 -0.60785 3.36012 0.271988
2237 1 -0.800361 -23.2975 -19.4039 -0.21927 2.77654 4.90473
2238 1 13.7497 12.5239 -15.0703 -0.332059 -2.09299 -2.22965
2239 1 -14.5084 -9.24955 23.4406 0.0124609 -0.658469 -4.023
2240 1 14.0178 18.4066 17.7426 2.71131 3.61304 1.90967
2241 1 -22.7838 -2.50995 -18.6667 1.1293 0.258636 -4.03829
2242 1 -9.35849 -15.152 18.448 3.3871 0.230565 -3.45285
2243 1 13.1105 23.4928 -10.13 -1.69579 2.09117 2.15932
2244 1 23.3372 21.0968 -15.2457 1.64588 0.31306 1.33781
2245 1 22.3527 -20.292 9.12918 -0.352281 6.33527 1.72748
2246 1 3.03324 19.2472 -17.4639 -1.57254 -0.0234182 2.31561
2247 1 -24.2812 -12.9308 8.15391 -0.655472 0.567747 -2.90009
2248 1 -2.40828 -6.42713 -12.5974 -3.03536 1.68922 -0.0574738
2249 1 -15.6935 12.9536 -16.8002 1.11433 -0.858417 6.03653
2250 1 2.49941 0.148495 7.96422 -3.18856 6.29273 -4.68274
2251 1 -11.0808 -6.77104 -11.7263 2.10039 -2.93857 1.29107
2252 1 -23.9382 -13.2621 -0.146921 -5.4618 -2.31894 1.72484
2253 1 5.86857 -16.8203 -4.27032 0.297668 3.32447 -5.45799
2254 1 4.54051 17.4374 13.1507 -0.232912 1.65716 -2.15521
2255 1 3.4823 -1.35184 -18.3421 4.12398 -0.98758 -3.35965
2256 1 14.3559 19.5474 -21.6401 -0.249758 1.71431 -0.0905891
2257 1 -1.03431 2.31657 -8.1971 1.31427 -5.51378 0.333063
2258 1 -9.81994 15.1524 -22.0187 0.878722 2.79847 -2.40488
2259 1 -21.5709 -8.61142 22.4508 -4.60422 3.14819 -2.72288
2260 1 18.4376 17.709 -14.9571 1.69409 -0.247292 0.438695
2261 1 14.8799 -3.33437 -9.63926 2.378 -1.82587 -1.81516
2262 1 17.3265 -22.7515 -0.841846 6.61774 -3.26328 6.92058
2263 1 2.28506 -16.8231 -3.22073 2.96791 -5.61818 -2.90237
2264 1 -2.99842 18.5229 3.67668 -1.34219 0.22361 -1.70467
2265 1 -3.01513 1.74772 18.4275 3.63336 -1.87471 3.69883
2266 1 -21.7615 9.57444 13.9816 1.07744 -1.63586 -7.23076
2267 1 -10.5973 -16.7889 -1.60619 -2.40677 3.17038 -0.268999
2268 1 13.0162 0.317518 -6.87309 2.2697 1.2827 0.456781
2269 1 14.4383 11.0073 -19.271 -0.290585 -1.41262 5.63462
2270 1 -5.78134 18.9793 1.68915 -3.85509 -0.0648453 -3.40025
2271 1 22.7032 -18.8204 -8.1429 3.19873 -1.54851 -0.318604
2272 1 -0.488173 12.2111 10.2234 1.0272 1.0175 0.60001
2273 1 -23.0766 -17.1643 16.6792 2.20466 1.31728 -3.76422
2274 1 -5.83441 -0.86335 18.136 0.41282 -3.01878 0.63398
2275 1 -12.524 23.3937 -15.4879 4.05902 -4.12846 -1.67336
2276 1 0.923662 11.3143 2.34915 -3.15971 -0.733367 -1.6758
2277 1 -13.8898 3.66404 22.8505 -0.792895 -1.71684 -3.20019
2278 1 -16.1299 -15.1024 -6.49667 -2.52098 -1.46359 2.49075
2279 1 -11.5679 0.694692 7.28519 2.45418 1.27551 -2.94355
2280 1 12.9208 -11.228 -2.75255 -2.20859 1.12415 4.37275
2281 1 19.3267 13.2397 22.748 3.26391 0.800392 1.19614
2282 1 -5.33763 22.6807 6.96604 1.27952 1.20492 1.19355
2283 1 22.185 -11.8813 6.60639 -0.424027 0.223862 2.1856
2284 1 -20.8262 24.2027 -21.8549 0.320366 -5.90827 2.66171
2285 1 -19.9494 17.7976 1.66727 -4.16425 0.595398 -0.881426
2286 1 3.57271 -10.2355 3.17377 -3.46969 -7.40609 3.87537
2287 1 20.2546 17.6962 17.0756 1.89262 0.630517 -1.33945
2288 1 23.2748 -8.20213 -6.13975 1.98278 0.457465 6.65775
2289 1 -4.85287 15.1243 -22.8531 0.0812441 1.52401 0.277447
2290 1 16.5348 -7.34035 22.4881 -1.37562 -2.7 -1.0562
2291 1 -0.554383 19.2021 20.4367 2.39649 1.60873 2.32845
2292 1 -12.5689 -10.8702 -2.4474 1.31851 -3.69692 0.60968
2293 1 1.82501 5.83316 11.1007 -0.159032 2.08831 2.1153
2294 1 -19.8139 10.003 -18.9935 -1.76787 4.42851 -1.38136
2295 1 -14.758 10.6685 24.0282 -3.47883 -0.325826 0.7721
2296 1 -21.5526 -9.68787 -17.79 3.6215 1.84225 1.57319
2297 1 8.97008 7.65619 -21.5442 0.19195 0.494607 -3.95051
2298 1 -3.41331 -20.2688 -4.50916 -1.79045 0.286788 -2.31371
2299 1 8.71743 -11.9618 -2.7448 1.75299 1.73469 3.93308
2300 1 6.97991 11.4963 0.764743 4.90081 -1.01005 0.949252
2301 1 6.4802 -23.5266 21.2911 0.774255 -0.724382 -4.49602
2302 1 15.0363 9.21122 -15.7042 4.06589 -1.93056 2.22119
2303 1 -11.9289 18.4345 -14.0195 2.30058 -1.69183 -0.878057
2304 1 10.701 17.225 7.8158 -1.36687 1.59268 -1.76646
2305 1 -14.9002 17.3265 11.8618 -0.948862 1.51783 -4.20958
2306 1 5.49476 -5.95058 22.324 -0.556698 -2.75977 0.0565406
2307 1 -15.3267 12.8793 22.1185 0.99186 -1.36245 -0.394127
2308 1 7.16309 3.65854 -17.2247 2.91167 1.78225 1.67279
2309 1 21.7923 19.618 23.6394 1.73851 4.85005 -2.37507
2310 1 5.7332 -15.9624 7.06145 -1.06233 3.17795 5.27675
2311 1 6.88663 1.23536 2.58748 4.84485 -4.64879 -1.52239
2312 1 -19.8206 -19.5403 9.67783 -2.98005 -3.07015 -2.68909
2313 1 -8.91614 13.3336 -18.2767 3.2935 -0.75778 -0.155554
2314 1 -18.0301 5.72736 9.88279 -4.18567 -3.41598 1.1922
2315 1 -11.3257 14.3065 14.7086 1.08401 1.08562 -0.289166
2316 1 -18.3598 -11.7637 1.75327 -2.15518 -4.53492 2.88474
2317 1 -5.55173 -11.2261 -9.15198 -1.16737 7.61136 -1.06873
2318 1 20.8072 -7.86466 -4.89735 -0.941629 0.558503 3.65659
2319 1 5.35726 -8.53213 6.53639 -2.04903 0.653543 0.610624
2320 1 20.7642 2.55034 -19.0826 1.85852 -2.49308 4.15716
2321 1 -2.67945 24.6712 24.0469 -3.58624 0.985748 -0.632748
2322 1 -3.94922 21.4022 18.003 -7.24605 2.29179 2.18119
2323 1 3.3823 -4.17303 -4.16287 -2.19653 -0.785901 5.53384
2324 1 7.98949 -19.1377 -17.7247 3.76395 -4.29416 5.15186
2325 1 14.4175 -20.3503 -16.339 1.54595 4.31654 -2.0246
2326 1 -24.5681 -10.1997 -13.6164 0.694619 -5.21792 2.06324
2327 1 11.8192 1.32133 -17.9439 3.80395 -3.84718 -2.09484
2328 1 -8.9968 -8.75782 -5.11396 -3.50224 0.0797294 1.70337
2329 1 6.92182 6.1193 12.8856 3.10102 -1.00473 2.02785
2330 1 12.0144 -23.7907 13.2346 -1.49925 0.748048 0.486643
2331 1 -15.521 -14.8445 11.5259 0.819636 -4.51907 -0.527775
2332 1 20.905 -14.9495 11.5177 2.58122 2.2806 -2.3761
2333 1 13.1058 -21.0358 -12.775 1.93984 4.76898 3.00549
2334 1 -11.9122 17.253 15.6337 -4.30911 0.612319 -1.08114
2335 1 -3.0799 17.8782 24.1553 0.117554 -2.13455 -0.986281
2336 1 15.7135 -10.7231 -20.9997 -1.50716 2.30456 0.638596
2337 1 8.24548 6.04477 2.10015 -1.49583 0.122534 -1.07575
2338 1 0.227465 -1.18387 -21.4864 -1.40425 -2.11709 -3.38841
2339 1 6.42753 9.68327 -2.94159 5.00773 -2.37456 -3.71359
2340 1 5.662 10.4984 12.6147 0.670362 2.9249 2.69873
2341 1 6.87588 -19.2159 -21.8862 0.0547986 2.29722 -2.59941
2342 1 5.51934 -16.7671 1.39217 2.76868 -3.3432 0.619136
2343 1 10.2794 23.241 2.6461 0.353327 -1.83499 0.860263
2344 1 13.9865 24.442 4.18986 0.561676 -1.32157 -4.96814
2345 1 7.75596 15.0111 -14.1259 -1.12502 -3.35449 -4.8695
2346 1 -4.42906 -19.2468 8.11524 -2.25922 0.63111 4.66596
2347 1 -14.0453 11.4768 -14.8729 1.36039 0.726293 4.88073
2348 1 7.41227 -3.42856 4.61321 -1.86867 0.531437 1.06553
2349 1 -9.09166 22.2435 14.9744 -0.219232 0.857838 2.40397
2350 1 11.1079 6.10534 -11.9986 -1.31246 -4.25273 1.02713
2351 1 17.7901 10.3779 -13.7609 1.62159 -0.0021802 2.92005
2352 1 -3.3716 20.6243 -23.5008 4.85723 5.66229 -0.651302
2353 1 14.1203 -3.66866 5.96045 0.350504 1.79168 -0.851756
2354 1 21.1114 -17.9019 -23.7087 -2.34402 -1.76182 -3.23628
2355 1 -8.76354 -0.522665 1.2342 -8.78651 -4.13908 -3.70771
2356 1 13.9694 -24.7532 -10.1374 -2.2151 -3.25216 1.33044
2357 1 -2.69425 -2.21659 1.62237 -1.77972 -1.11605 4.50051
2358 1 2.20683 -9.93154 -11.6325 -0.188447 5.21308 -1.11435
2359 1 7.31648 11.6147 8.78668 0.0507214 -3.40591 3.67845
2360 1 15.1819 16.1749 2.10101 -1.19813 -1.57923 2.48638
2361 1 -22.7623 10.1721 -11.8782 2.71622 0.900918 -0.492493
2362 1 -20.5496 10.0433 11.3166 2.22385 0.0305375 -1.49031
2363 1 17.8679 -11.1203 -0.346401 -0.369033 -2.49171 -1.33333
2364 1 1.55473 -1.77408 -0.472135 1.85933 0.081177 -2.20381
2365 1 -24.4514 -10.1571 -4.03298 -2.13667 -0.896352 -1.01924
2366 1 10.5326 2.53601 2.17471 -2.2687 -2.40793 -1.72458
2367 1 6.2698 18.2293 9.60232 1.01024 0.743886 -1.80648
2368 1 -7.87308 -18.1136 -9.30969 -1.84893 1.93566 -0.25269
2369 1 21.2048 5.96802 15.1539 0.517125 0.730742 -0.818921
2370 1 -20.7881 -10.6337 -7.32041 -0.839741 4.11184 -4.57878
2371 1 18.8621 -20.9331 0.78128 -1.28182 1.29366 3.59768
2372 1 22.7635 4.71814 -1.91516 2.39366 -5.68454 0.806201
2373 1 11.2799 11.9588 16.7943 0.932021 0.280524 2.75547
2374 1 -5.80804 7.65242 -2.01546 4.75911 3.54121 3.10526
2375 1 10.4687 22.2818 14.1947 2.85348 1.62031 0.616342
2376 1 -15.8282 -0.882935 22.9931 -1.79907 -1.08676 -0.900442
2377 1 -6.36556 -9.86799 -4.29744 -1.31536 -1.23996 -1.31644
2378 1 6.31604 -1.39439 19.5799 3.70792 -4.35207 -3.81088
2379 1 -24.4355 13.8536 10.6651 -5.7986 0.247983 -1.97431
2380 1 8.79752 -12.6074 20.6729 -1.04728 -3.44428 -2.18856
2381 1 13.3033 -7.77756 -4.57621 -4.03638 0.379732 0.770903
2382 1 -14.4978 16.9838 -17.4837 -1.43074 -4.64795 -1.1097
2383 1 -24.1172 -17.3945 5.75015 1.30142 0.410738 2.26441
2384 1 9.2119 -12.0603 23.3155 -2.08858 -0.100682 -0.917998
2385 1 0.100378 8.70677 1.17876 1.40891 1.47045 -1.70849
2386 1 1.87845 -2.83631 8.57222 4.13822 1.58561 -3.20303
2387 1 -12.14 -6.35409 11.4196 6.1907 -0.154189 1.91578
2388 1 8.78383 23.5545 21.3749 0.467369 1.44431 4.11227
2389 1 7.65214 -8.10335 11.9769 -3.91806 4.22048 2.97659
2390 1 -22.9363 -7.45294 -8.22785 3.68873 0.130852 -2.64618
2391 1 -8.80452 -4.02795 7.94128 5.39888 1.1485 -1.57167
2392 1 9.58761 -21.5445 -15.4045 0.436942 0.010767 -0.695636
2393 1 4.55286 -16.722 20.0585 4.78668 -0.0148569 1.70689
2394 1 15.8853 15.991 -4.24393 4.32441 2.08501 2.92206
2395 1 4.49616 17.5574 20.1617 5.479 1.33955 -1.59482
2396 1 -14.6169 -21.7779 0.176098 -1.0108 0.983865 5.66786
2397 1 -13.6601 -7.37614 19.1327 -0.155358 4.97275 1.92973
2398 1 -9.73792 -2.13521 13.7651 -1.08153 1.84952 0.46772
2399 1 -11.837 -9.07979 8.70262 4.87844 -0.941064 4.1173
2400 1 11.2232 -8.18327 15.8074 0.297611 1.23908 0.470459
2401 1 -17.8408 21.3421 -4.89693 -3.35761 -2.48089 -4.53577
2402 1 15.5276 13.539 -17.991 5.54606 1.2286 -2.60294
2403 1 -9.46186 0.868121 23.5184 2.47373 1.27118 1.24399
2404 1 -21.5538 -6.84626 -22.8507 -1.81681 -0.0376392 -0.605301
2405 1 -3.99024 -10.5753 -22.8112 -0.29851 -3.90274 -5.15447
2406 1 -23.7266 7.53765 -11.2276 6.41223 6.59582 0.881925
2407 1 -13.1991 -12.1433 14.4305 -2.62917 -2.41656 0.730956
2408 1 -20.657 -5.10291 -13.0072 3.21427 7.89149 1.36687
2409 1 3.7818 12.7187 14.7533 1.5779 1.38338 -0.278667
2410 1 6.56873 -21.8964 -22.9052 -3.45289 -2.2147 -0.28014
2411 1 8.73897 12.6305 -17.4593 -1.54286 2.30098 -4.76688
2412 1 11.0943 18.7751 17.6841 3.15334 -2.57531 -0.564993
2413 1 -6.99373 19.8616 4.28781 1.93633 -1.19578 -3.09566
2414 1 14.647 -7.00927 -6.84865 3.39716 -3.03247 -4.78229
2415 1 22.3772 -24.0339 -23.574 -0.875865 4.3067 0.007747
2416 1 7.48982 14.3658 9.6461 1.44023 4.58126 -3.01978
2417 1 -5.04258 -6.86121 0.0159048 -1.45542 -0.514865 0.0382085
2418 1 14.1717 2.99089 -6.65016 -0.25979 4.98752 0.949313
2419 1 22.3773 6.76741 -17.6442 2.96401 1.22105 2.73913
2420 1 -1.76544 -6.17302 -7.48845 -1.62093 -0.601986 -2.45667
2421 1 23.3566 15.568 -7.50279 -0.792352 -1.18753 -3.4927
2422 1 -15.7127 5.60308 14.8611 0.721598 3.60402 -0.631643
2423 1 14.5703 21.9775 5.53163 1.19108 2.03175 -0.715584
2424 1 23.2287 16.8622 8.75512 -6.71167 -4.2144 2.74143
2425 1 -16.3272 10.2601 -22.086 0.173548 3.61639 -1.08905
2426 1 -1.10925 16.3009 20.0113 -2.01726 3.75465 0.995485
2427 1 13.4841 4.55147 5.026 -2.59741 0.65741 0.377296
2428 1 14.0294 -14.928 14.0338 -5.48948 -1.55566 -2.40222
2429 1 -8.90452 -9.62094 -11.5671 1.10634 3.17185 4.00944
2430 1 -14.4891 -7.67064 16.2546 2.99402 -1.8881 -2.03236
2431 1 -17.8763 15.61 -9.22776 0.927483 -2.49858 -0.0595435
2432 1 19.3413 15.4884 -17.6913 1.18526 0.842985 -2.79448
2433 1 19.8697 -19.4453 18.0516 -4.00441 2.41629 -0.905056
2434 1 0.00993962 -22.2091 -3.74578 -2.17371 2.06919 -2.21681
2435 1 -13.9693 23.727 10.6472 -3.05913 -2.75484 -1.97303
2436 1 -7.85977 9.82065 18.8674 3.21386 0.182939 -1.06303
2437 1 -14.4796 -4.75277 11.443 -0.62275 -5.08961 -1.71722
2438 1 -1.87654 -23.4489 -22.2386 -2.33833 -0.540364 -0.58926
2439 1 -13.5376 19.802 9.29401 -8.6131 4.31579 2.59196
2440 1 6.72488 -3.40228 -17.0641 3.66976 4.83833 6.63905
2441 1 -22.6058 14.5435 19.9763 -0.733831 -5.43013 -0.432453
2442 1 -2.40998 -8.90765 -17.7145 -1.50262 -3.80275 -0.979403
2443 1 4.97822 11.4666 -20.6784 -4.31417 3.90188 -2.61675
2444 1 13.0299 22.1837 20.0811 -2.10742 -1.57427 2.22093
2445 1 0.468551 3.15519 21.3383 5.67576 -1.51293 -1.9064
2446 1 -0.898075 -6.38292 16.9504 -2.45643 -2.32415 2.20104
2447 1 -0.10337 -13.8205 17.3941 -1.68343 -1.14853 1.09758
2448 1 1.57711 -12.565 -10.4936 4.71355 2.7606 2.00976
2449 1 16.6057 -22.4137 12.7782 -2.63847 -3.34534 -5.20684
2450 1 7.9828 12.5656 22.5876 -1.42205 3.45097 0.538996
2451 1 8.59831 -22.1356 4.44002 -4.98303 -0.340844 0.146714
2452 1 13.6021 17.3533 -14.6235 1.42244 -2.16354 1.31888
2453 1 -2.35266 8.5622 13.2153 1.99096 1.56734 2.64965
2454 1 -5.38515 8.17423 -16.7512 2.3715 -3.44293 -1.87731
2455 1 11.0466 10.6169 14.3691 0.0254851 -0.327639 -1.38351
2456 1 20.6611 22.0046 -24.1804 0.193913 4.87402 -1.06702
2457 1 -3.42187 2.07449 12.0588 -0.634963 -0.199566 -7.753
2458 1 -21.7369 21.4906 -4.59836 -5.81468 -3.45994 0.336044
2459 1 -19.8437 14.6865 -7.10961 -2.37844 0.676674 1.35374
2460 1 8.55859 11.5191 -14.6486 -5.10703 -1.64225 0.193914
2461 1 -19.7662 16.9541 -4.01696 -1.76629 -5.39173 1.88255
2462 1 -11.6432 23.3445 2.42577 -0.0356113 0.363426 0.73289
2463 1 -14.5814 -21.4718 -23.9695 -1.85331 -1.67621 0.735523
2464 1 9.04994 20.1958 -14.4167 -2.74609 6.08954 1.94747
2465 1 -9.56369 -14.1674 -10.8851 -2.10869 2.77085 -2.66445
2466 1 0.557749 4.27124 -3.10378 6.95241 0.610177 -1.80303
2467 1 1.99412 -17.9486 8.67715 8.87705 -2.47393 -1.34813
2468 1 -19.6552 -23.6299 -6.38947 2.70892 5.02979 -1.65559
2469 1 14.6677 -23.4025 23.4552 2.18964 2.24327 -1.34778
2470 1 13.8394 -19.3294 -8.72804 -3.00701 -3.70954 1.47497
2471 1 -3.17217 23.1874 -21.7184 -0.550199 -3.08589 1.51424
2472 1 -19.9352 -0.27499 14.3972 -0.31074 -2.31743 2.12541
2473 1 12.9093 9.89077 -6.23061 4.35276 4.07848 0.0606675
2474 1 -4.4431 -10.715 -17.7888 1.23743 0.548528 -1.15219
2475 1 -15.7498 11.639 10.2033 6.02233 -3.29867 0.303008
2476 1 -7.75952 -20.787 -18.4244 3.90242 -3.6797 1.71292
2477 1 12.6436 10.0578 0.181157 -3.70237 0.886552 -2.7253
2478 1 -4.25326 -22.5031 -3.20005 -9.23701 -0.604129 -3.21554
2479 1 -22.383 -4.97052 3.80207 -0.0612279 -0.39623 0.587875
2480 1 -1.02148 22.9694 -9.06027 2.06171 2.25032 2.75432
2481 1 -15.3808 -8.72693 -8.82853 -4.00099 -3.88508 -2.28046
2482 1 6.34431 -5.07241 -0.897388 2.68543 1.97298 -1.58284
2483 1 -0.371928 9.3542 -10.8694 4.86249 1.31055 -1.00002
2484 1 1.27356 -13.8013 -8.01385 5.9491 -1.06519 -4.0924
2485 1 -0.794364 -19.7274 5.03471 -4.89109 2.98201 0.373457
2486 1 -1.63203 -18.9877 7.68139 3.77982 0.150318 -3.11268
2487 1 4.16434 18.4806 0.338706 1.98596 4.92759 4.26319
2488 1 -7.57672 19.533 19.1655 -3.48274 0.450186 -1.4423
2489 1 4.57082 21.9509 -9.5268 1.69094 5.17845 3.88774
2490 1 -12.6202 22.5572 17.5329 3.30246 -2.56116 1.20505
2491 1 10.8801 -21.3221 -2.68971 -3.09258 3.28346 4.69257
2492 1 22.701 13.6892 2.53957 -4.52713 -1.6146 -4.23873
2493 1 19.7874 23.5658 -20.8178 0.721572 0.848956 2.66375
2494 1 -15.0662 -13.9004 -22.4489 2.0482 -5.40991 2.61893
2495 1 16.3406 -13.9727 -10.3467 -1.91179 1.62369 1.50479
2496 1 3.37872 4.35477 -21.6207 0.957583 2.14613 1.93385
2497 1 4.9341 8.40703 20.6718 -4.14731 -0.71557 -0.261916
2498 1 -3.95898 5.8788 3.84507 -0.931709 1.37618 -0.672673
2499 1 -23.651 -15.9227 8.27492 -3.25839 5.07998 0.746357
2500 1 10.818 21.2287 6.34211 2.97065 -2.76385 -0.666061
2501 1 5.49214 12.8161 4.4177 1.78926 -1.20843 -0.773719
2502 1 -6.42104 -10.5405 8.96256 0.805416 0.309163 -2.31423
2503 1 18.6918 14.2807 -0.415563 3.67825 -3.9389 -0.348475
2504 1 10.0394 13.4641 10.7742 -0.310503 -1.31505 0.347257
2505 1 -10.3193 17.9256 21.4667 -2.92068 -0.27598 3.4959
2506 1 -23.3475 10.831 -8.511 1.3034 -0.301504 6.31069
2507 1 9.37205 -2.34708 -15.9453 1.69834 -0.752794 -0.643606
2508 1 13.1236 22.006 -5.67101 4.55229 3.12312 -0.173298
2509 1 -4.36028 -4.87868 3.20277 -5.40942 -2.40258 1.55455
2510 1 -21.8001 0.652107 -1.35022 -3.69005 0.22597 -9.37156
2511 1 4.56286 5.94376 19.4113 1.75711 3.91076 3.25526
2512 1 -9.96305 10.1716 13.7052 -3.98366 -3.98751 4.67293
2513 1 21.1411 9.88444 8.30796 -2.64224 0.91854 -1.75506
2514 1 21.5007 10.9265 23.5758 3.64183 2.84018 3.71172
2515 1 2.60945 -21.9386 3.58059 5.97746 -3.18684 1.78515
2516 1 3.07996 12.5651 -19.0674 -1.30495 2.73878 -1.92609
2517 1 -11.1485 -12.9361 16.4264 0.950612 0.0732458 -1.86385
2518 1 -3.08297 -6.38287 -3.55755 -0.639571 2.26428 2.42503
2519 1 -22.9513 20.9046 15.1977 0.0724412 2.29835 0.877507
2520 1 -23.3864 1.17648 -8.42155 0.182777 1.25385 -1.10688
2521 1 7.62098 6.93069 15.5683 0.421087 -0.0438897 0.719317
2522 1 -4.73941 9.32804 0.0237041 -3.52724 -4.77862 1.42189
2523 1 -17.3452 -23.2222 -22.1492 2.11241 1.04045 -2.0029
2524 1 9.73735 22.9633 -20.6481 1.50055 0.855501 0.854412
2525 1 -11.8172 -16.332 -8.8518 0.953292 0.513609 -3.18771
2526 1 -9.56097 -4.64726 -14.9436 7.99583 2.78906 1.99646
2527 1 5.29825 5.61475 8.50921 0.171082 -3.29579 1.82442
2528 1 -8.2989 11.7105 6.74112 3.01176 3.94627 3.99029
2529 1 -17.6708 -8.87785 -2.01564 -5.19621 -0.79224 5.52156
2530 1 3.60371 -12.806 -15.9469 5.10987 1.59428 -0.27382
2531 1 -18.6164 -9.23341 -17.0682 3.5994 -6.30088 8.62169
2532 1 -13.9744 -17.7545 1.13612 2.22208 -6.16217 -3.34109
2533 1 -13.7191 23.0815 -2.541 -1.39388 3.34211 -0.379987
2534 1 -16.8654 -12.8269 -3.17721 -4.27056 -3.73264 1.30194
2535 1 15.4245 -6.26843 15.9385 -0.936537 0.596476 -3.03004
2536 1 -23.8838 -20.8696 23.9345 0.665815 -0.510458 2.48756
2537 1 -0.374788 -23.7 14.3241 1.67625 -1.34356 -3.87177
2538 1 -7.22362 3.96656 -23.4341 1.23626 -3.24783 -6.26264
2539 1 10.997 -10.694 17.35 -1.56647 -2.76502 0.0227655
2540 1 19.9459 -7.55662 15.1992 -2.49855 -2.52424 -7.07208
2541 1 4.69017 7.81574 13.5746 -2.9239 -0.60402 -1.92704
2542 1 -11.3148 -7.13016 -21.1345 -1.74655 -1.01481 5.34871
2543 1 -18.5663 -7.37542 -6.56167 0.208758 -2.66286 -0.199704
2544 1 13.8502 2.21964 6.50407 3.14881 1.40532 -3.65233
2545 1 -12.216 10.5744 -20.5844 -0.103928 -2.12667 -2.70859
2546 1 -15.6091 4.03159 12.5087 -0.0733738 0.917879 -0.532631
2547 1 -12.7019 -2.52976 6.45562 4.40898 -0.10496 0.0540222
2548 1 18.0115 -6.29696 -8.18409 0.256302 -6.31772 1.38106
2549 1 6.54225 14.0805 -16.6653 -2.70116 3.021 -0.729333
2550 1 -23.3448 -18.5355 -17.6117 -0.481493 -1.46801 -1.29671
2551 1 -6.56692 10.9436 -16.1475 -3.28503 2.02568 2.00771
2552 1 -1.71495 -14.1863 8.39931 2.63133 -6.6515 0.738737
2553 1 0.892877 23.3763 15.9618 5.368 -4.55413 -1.6524
2554 1 17.8311 24.287 -8.291 0.144334 0.0666562 1.58699
2555 1 3.53372 13.8083 -7.57835 0.597573 -0.237303 -0.622825
2556 1 -9.46477 -10.5965 8.99237 -5.67319 -2.68573 4.08435
2557 1 16.0088 -21.121 -11.7454 0.0912887 1.19834 -0.0817511
2558 1 -20.3587 8.98705 -21.582 -1.21237 7.11604 0.211595
2559 1 -18.5461 7.00331 5.50953 -0.873551 1.95061 -1.9594
2560 1 22.2936 -22.9233 9.80203 -3.93854 -3.88194 -3.91069
2561 1 -12.1381 -0.763773 11.3913 1.84025 8.56536 -1.05842
2562 1 -20.9768 -5.46638 -9.39891 -1.55449 -5.31206 2.52357
2563 1 19.8059 -2.81248 -23.199 -3.17428 0.744548 -0.509044
2564 1 -11.7297 -16.1351 -11.8985 -0.763571 -1.71992 3.85278
2565 1 13.1258 19.2636 14.8885 0.406011 1.67614 0.368439
2566 1 23.1295 -8.33775 14.0205 -3.3988 -2.85539 1.72091
2567 1 -12.0016 -0.345594 -18.4779 -1.87212 2.78035 2.44695
2568 1 20.058 -10.821 -19.4591 -0.952244 -0.752494 0.625261
2569 1 -23.5877 -18.1382 -11.2721 0.0222629 4.39695 -4.66129
2570 1 -21.4089 15.3505 -17.3754 0.423596 -2.50092 -0.47718
2571 1 11.8293 0.767236 22.0636 1.22461 -6.73049 1.57285
2572 1 -22.2371 -18.9876 -5.02514 3.7061 -4.37283 1.04548
2573 1 18.8725 -23.9646 -3.16261 -2.26692 -4.1088 0.160831
2574 1 -16.9794 -24.2788 -7.55966 3.557 2.38525 0.253851
2575 1 3.54291 17.0591 3.10624 0.720883 -5.11482 5.54469
2576 1 23.0532 18.8766 15.2203 -2.27894 -2.74973 2.25428
2577 1 14.8237 21.1091 -2.42254 -6.08629 -1.34439 -0.149062
2578 1 -19.1141 -16.5543 -2.81628 -2.13971 1.49284 4.91932
2579 1 -10.2313 9.33295 2.84915 0.688101 2.78172 1.18591
2580 1 22.2773 11.6371 -20.9071 -1.53492 -0.58165 0.0630682
2581 1 -7.20556 15.9826 21.4167 -2.83157 4.60697 -3.02431
2582 1 13.984 24.1555 9.29295 1.93375 0.223656 1.49553
2583 1 5.80961 19.035 -1.908 0.409158 2.02315 -0.024851
2584 1 -10.4319 -22.7856 -11.1066 1.38626 -1.26198 2.47914
2585 1 14.7596 -14.3621 19.4555 -1.52393 0.853191 -2.68602
2586 1 -14.572 14.7849 13.0127 -2.28725 1.88929 0.048494
2587 1 17.7116 -17.3165 7.96563 -4.47837 2.67982 1.25258
2588 1 16.5518 0.428386 -16.6002 -0.66294 -4.50413 3.07766
2589 1 -0.156009 -8.37134 8.00764 -3.86299 0.492568 -0.0979621
2590 1 13.6694 3.10129 -9.47949 -2.34671 -2.90758 -1.6295
2591 1 -3.67371 -20.8595 13.6237 -3.70842 1.59635 -4.89099
2592 1 -0.422806 -18.5442 10.2226 2.73182 1.6648 1.34897
2593 1 -24.4144 -7.19497 -22.5012 -0.359613 -1.29581 0.751071
2594 1 21.9131 -5.78942 16.1563 -6.08498 -3.13949 -3.09289
2595 1 -2.26954 -18.9596 -20.5156 1.60035 0.313515 1.67887
2596 1 -14.798 10.4229 -19.6337 0.909275 -1.38871 1.62981
2597 1 -18.9078 -2.7335 -17.7964 3.2833 1.42793 -4.46054
2598 1 20.5969 -0.908972 -3.53478 -3.58307 -0.265581 -2.55215
2599 1 -7.58557 2.82235 7.56214 -2.8457 -4.13848 0.911403
2600 1 4.97071 22.9099 0.576412 2.14061 -1.04065 7.79861
2601 1 -1.46051 7.46728 4.07063 -2.11514 2.38098 4.22084
2602 1 -5.52903 -13.2652 -1.717 -3.28143 3.10486 -2.32929
2603 1 -23.6034 18.1304 -7.83524 0.99894 -0.752752 -1.15564
2604 1 14.293 -13.3508 -0.756286 -5.37597 -2.87756 -0.667712
2605 1 -17.4279 8.33853 -5.25922 1.75784 -4.74366 -1.68662
2606 1 17.5815 17.0294 20.2839 -3.25316 2.43454 -4.5835
2607 1 10.7575 3.02671 -22.8296 6.64127 3.86707 1.06334
2608 1 12.6879 -19.155 -23.0699 -0.786508 -1.10351 -3.98811
2609 1 -13.2965 -4.70661 -18.3104 -0.530579 0.289897 1.91312
2610 1 0.797389 5.62774 -15.9362 1.57303 0.468082 -2.93968
2611 1 -22.03 24.6987 -19.1094 1.06161 2.66487 -1.99261
2612 1 -17.6665 -21.7843 17.6735 -1.28329 0.387847 -2.88888
2613 1 -22.6368 5.63211 15.814 -2.24683 0.199223 -0.87651
2614 1 -13.1312 12.6006 -18.2378 8.0814 -0.823922 0.16016
2615 1 -4.57109 2.38341 16.4037 -1.57248 -2.89495 -0.599145
2616 1 -24.3715 -3.07421 -10.3783 5.31412 2.28444 -1.70735
2617 1 -5.1047 12.199 -18.0927 -3.28318 -1.51789 1.79896
2618 1 -7.4675 -18.0614 -12.1617 1.10575 2.25469 1.17683
2619 1 1.04621 9.23942 -20.5921 1.83832 0.286153 -0.858647
2620 1 -8.7653 14.7068 6.2642 -1.21698 2.20333 -3.92001
2621 1 4.50676 -22.2326 6.79632 -3.88342 0.645424 -0.803835
2622 1 -1.999 -18.2284 21.0746 -1.34152 2.2306 0.781103
2623 1 -21.4284 19.6372 -23.2008 -8.06015 -4.26133 6.15621
2624 1 -19.8039 17.5908 -6.86551 2.21306 1.66628 -1.84209
2625 1 -7.30368 -4.52445 21.8757 -0.036002 -0.411908 1.70065
2626 1 -4.6841 2.8822 20.2425 -0.321762 1.83234 1.29838
2627 1 16.5831 24.5564 8.83699 3.61655 3.6451 -1.00345
2628 1 13.6093 -7.58039 -22.6001 -2.49328 1.55613 0.723754
2629 1 -22.8619 -2.24099 7.59827 -5.3402 3.72334 -0.565445
2630 1 -11.4768 -9.03736 18.3951 -1.04068 6.90676 1.78922
2631 1 18.8215 16.2817 1.55649 -1.60758 4.98793 -3.37838
2632 1 18.1213 -1.89027 -17.4396 -1.39295 -2.90576 2.01365
2633 1 -3.97882 -14.9346 -14.0171 -1.18472 1.78381 0.298719
2634 1 -6.81085 13.1704 -24.0314 2.72276 2.50404 0.219912
2635 1 -0.977121 8.29444 23.1781 6.95166 -1.49582 -0.092475
2636 1 -14.7204 -19.6663 15.917 -1.3935 0.0418956 2.23425
2637 1 10.1859 -14.7909 -16.0396 8.69785 -0.999264 2.70744
2638 1 12.3339 5.18017 -6.26393 2.54075 -4.52579 -0.0502211
2639 1 -1.17447 -10.0274 19.8725 -3.78749 -1.35977 2.32605
2640 1 4.02531 15.2916 -19.2994 3.73074 6.11223 -2.25516
2641 1 23.4275 7.91649 -14.0894 -2.29929 -3.17729 1.25439
2642 1 -5.17137 -19.2572 5.36979 -1.49247 3.19401 2.41641
2643 1 -3.33065 -14.5884 24.1254 -1.01635 -2.92146 -4.32073
2644 1 22.4868 -23.0585 -14.3066 1.75707 -4.21419 1.68028
2645 1 5.82609 -21.9326 15.5379 0.578033 3.27326 -0.286744
2646 1 -4.33624 10.0205 -2.6554 -1.99481 -0.100386 0.476408
2647 1 -13.7501 6.10296 2.59888 -1.49784 -3.88888 -1.13292
2648 1 18.2987 1.70854 3.52008 -1.8913 0.0784732 6.26412
2649 1 -18.7206 18.3755 -10.4124 1.10599 3.03544 0.348461
2650 1 -5.41171 8.9569 14.3029 4.03603 2.08178 0.68889
2651 1 -17.2497 -19.0009 16.6935 0.473025 -0.427089 5.40514
2652 1 -20.9641 -5.7324 -15.9535 1.13169 1.14709 -3.21018
2653 1 -8.57154 8.3245 -2.09937 -2.73436 1.76119 0.0611971
2654 1 20.7514 -9.12062 1.31799 2.53077 2.10438 0.343617
2655 1 -7.40552 -10.835 0.937736 1.16054 -1.83239 7.17257
2656 1 -6.19946 8.45068 -20.8691 -1.15079 -2.97308 1.28008
2657 1 -10.6281 -7.50899 6.84392 -1.44025 0.124279 6.54191
2658 1 -7.02958 1.33352 16.5184 -2.37158 3.18884 0.508655
2659 1 17.1796 -4.3304 -23.1361 -0.774439 0.992302 -1.64299
2660 1 -11.5393 23.5846 11.9475 0.3231 -1.41435 0.531692
2661 1 5.52163 7.62681 23.3843 1.65667 3.62685 0.171743
2662 1 -21.113 -22.1367 9.38021 -2.73715 -5.69483 2.80751
2663 1 -10.4703 9.37632 21.8137 3.50095 -1.52849 -1.11605
2664 1 -15.6332 17.4959 23.1565 -4.10002 -1.56698 6.72013
2665 1 -21.3289 2.50438 0.787238 2.52838 -3.3557 -5.25564
2666 1 20.2887 -21.3376 3.46607 1.86035 -1.40209 2.44795
2667 1 -11.6612 -4.90251 -6.40868 -5.10737 0.727762 -6.52042
2668 1 -7.99635 -17.9884 -21.9986 4.82112 -0.766388 3.55841
2669 1 2.12545 -7.96037 18.2055 0.702568 3.03751 5.99598
2670 1 23.7556 23.7899 -15.8602 -0.628946 -1.19212 1.68599
2671 1 11.9994 20.2553 21.7833 0.00555858 1.91278 -0.84302
2672 1 5.11938 -5.20776 9.80998 -1.03133 -0.922569 -0.203185
2673 1 -13.8318 -24.5799 -0.630479 4.16657 1.58614 5.92617
2674 1 -8.60298 -22.7487 0.0483111 -3.10079 0.860327 2.42384
2675 1 16.1066 4.51216 -9.86597 0.831774 -1.51794 -1.03061
2676 1 21.0304 22.6938 -18.0605 0.811704 -1.50088 -2.79704
2677 1 -0.310903 -22.543 0.789613 0.926696 2.41506 -4.30186
2678 1 3.90062 -19.3906 -15.1283 3.14138 -0.330946 -1.17314
2679 1 8.71637 -1.24064 2.55781 -1.8629 1.41085 0.187941
2680 1 11.223 -4.66626 -7.48955 -0.233075 -0.214666 -2.80555
2681 1 -14.2517 -7.23504 -18.2518 0.783841 -3.92677 1.44238
2682 1 -22.2259 1.46338 13.7296 -0.840917 3.19324 3.20696
2683 1 -17.8238 5.51313 -18.5754 4.12568 -0.227217 2.42384
2684 1 -23.2932 -10.8767 3.98925 0.325748 -4.63441 -0.723156
2685 1 -1.32341 -8.78713 3.96327 -0.857025 5.625 -2.68028
2686 1 5.80746 -22.8756 -17.8263 -4.91763 -6.30993 0.824766
2687 1 19.4236 -16.7295 -13.2128 5.75456 -1.45732 -1.15592
2688 1 -16.3173 -3.57849 0.293721 1.95055 1.16545 3.56011
2689 1 -5.92025 -1.47937 -9.42021 -1.10495 -7.11874 -0.232274
2690 1 -14.0941 -12.7772 -18.4642 -1.52618 2.8959 -1.50499
2691 1 -20.6527 -23.3324 19.9449 -3.26939 -0.378232 -6.7553
2692 1 3.3001 -0.0470345 -10.3684 2.47961 -0.732008 0.898748
2693 1 9.40391 19.9246 -17.9689 -0.704451 -1.70386 4.00434
2694 1 -5.93051 -11.2569 20.8513 -1.32136 -0.060029 -3.25493
2695 1 14.4683 8.63816 13.937 0.333207 1.09689 -0.235011
2696 1 22.4376 -19.2244 22.3915 -3.86306 -3.94468 -1.84496
2697 1 5.59382 -0.0874553 -5.31589 1.97868 -3.15958 2.82962
2698 1 16.4881 -13.4147 21.583 1.66523 2.21239 -0.192436
2699 1 -16.9783 14.6351 -1.97036 0.336352 1.23151 -2.61819
2700 1 -8.53144 -19.8649 2.88842 -0.338211 -2.55409 1.88813
2701 1 -20.3901 23.1999 -0.862289 3.28938 -0.923767 1.61136
2702 1 -7.85614 18.215 -18.8715 -3.30893 1.63375 3.14841
2703 1 12.7853 -6.46652 -11.1839 6.26815 1.80697 0.372906
2704 1 2.17658 -23.8992 1.51979 -1.66893 2.02428 0.539933
2705 1 -4.40725 -1.97241 3.96047 -0.0620311 -0.0807305 1.29625
2706 1 2.42024 -23.6553 24.0198 -0.145265 0.184249 1.35964
2707 1 -10.1738 -14.6234 0.293366 -0.149237 -1.92324 -0.881224
2708 1 -13.3359 0.721962 22.9998 1.54544 3.54781 3.93137
2709 1 20.7735 -2.57592 21.5065 -5.65136 -2.04141 1.40517
2710 1 -4.4503 14.9351 15.9821 -1.7728 4.23508 -2.78311
2711 1 -14.0642 -6.33414 23.8538 3.28802 4.79987 2.95807
2712 1 17.6973 13.8521 3.0994 2.0731 -5.01704 2.57844
2713 1 21.6495 4.15869 -7.53117 -0.913394 0.883445 2.1158
2714 1 -19.857 2.86623 -11.5459 -1.02718 -2.13098 -0.780815
2715 1 -11.9908 11.765 20.2672 2.31756 0.203393 2.4258
2716 1 17.4037 10.902 3.50183 -8.71952 3.76293 1.44173
2717 1 12.1452 19.9413 10.5448 0.678272 1.34621 4.76829
2718 1 10.5047 -14.8722 23.1602 -0.485275 -1.99604 1.90318
2719 1 22.3395 -10.3861 3.18726 -3.58089 -6.87455 1.11104
2720 1 -13.1371 -9.18744 -20.1973 -6.38276 5.50725 -0.969586
2721 1 2.88485 -11.344 12.6721 1.11164 -0.301994 2.37219
2722 1 -10.1363 18.9158 -7.045 -3.44453 -3.97257 1.89903
2723 1 -3.87057 17.2451 13.8542 1.6906 -3.44874 -4.46963
2724 1 -3.93742 4.72261 6.3767 -5.98327 1.20042 -0.34183
2725 1 -1.48551 8.22034 -17.2744 -2.07113 -2.57785 -3.225
2726 1 -9.59297 -7.6975 -23.547 1.86834 -1.66277 -4.77377
2727 1 -13.1265 -20.2555 -1.78418 -1.22218 -1.74385 3.75615
2728 1 20.4827 -2.84873 11.9898 -2.13643 4.9561 -1.70816
2729 1 -3.36689 -22.4772 -18.3754 0.630558 4.49751 3.61656
2730 1 -8.50016 -15.0924 9.79148 -0.800386 1.28585 3.08053
2731 1 -23.2404 22.7339 -8.58058 -4.35308 -2.39081 -1.48484
2732 1 1.02987 2.04876 5.10631 -1.07459 0.310475 5.46555
2733 1 -8.83763 9.55342 -20.1868 3.04288 6.25894 0.469287
2734 1 17.4559 -9.43817 20.4432 -3.87133 -0.511523 3.62866
2735 1 -4.0191 7.85191 -13.987 -3.0696 -3.65503 1.20146
2736 1 16.2784 13.6904 23.0296 3.20853 0.491097 -5.83926
2737 1 -20.6023 -18.6426 0.345457 4.14494 4.04399 -4.65493
2738 1 -7.44986 8.86975 12.2246 1.6977 1.13162 -1.84055
2739 1 -10.2747 -8.05202 20.6933 -2.58859 2.40719 -0.182244
2740 1 -12.8716 -13.9283 -20.7748 3.38559 0.188768 1.63063
2741 1 -8.40638 6.93825 2.07897 -0.674802 2.63919 -3.14077
2742 1 -14.4044 14.5606 6.7531 1.46881 -5.7277 -2.65836
2743 1 0.025174 -19.5882 -7.93535 -0.123674 -1.21636 -1.08786
2744 1 -16.5265 -19.5884 -19.9408 3.46505 0.924491 -2.73085
2745 1 -11.2567 20.4979 2.46537 -3.69007 -0.846342 -1.05065
2746 1 5.73279 -11.6928 -3.33333 3.99503 2.5407 1.19223
2747 1 -1.1463 2.47733 15.4211 -2.49244 2.68788 -2.04804
2748 1 -4.94187 -0.801605 -12.1576 1.1885 2.46082 3.72348
2749 1 -11.8384 -8.10682 23.0139 -0.907365 -0.33201 -0.122234
2750 1 -14.555 22.1698 -19.0477 -1.39973 2.83256 1.92914
2751 1 8.79857 -22.6901 7.12087 -0.540579 -1.70693 2.06721
2752 1 -8.93894 20.3057 -9.42002 0.997878 2.95282 -1.14923
2753 1 -1.36542 -8.20411 10.4903 -3.34691 2.84375 0.4847
2754 1 -12.3351 24.0446 -0.0585852 1.94854 1.69386 3.43484
2755 1 1.52461 -12.2748 15.4097 3.82873 1.59179 2.02368
2756 1 22.8624 12.1175 20.1099 -1.18687 1.31488 0.497202
2757 1 16.217 -19.5448 19.404 3.94786 6.32347 -0.0739916
2758 1 -20.9037 -15.4299 -8.42014 3.25805 1.75123 2.88424
2759 1 -16.7809 -16.9108 8.38224 4.3078 1.77708 -0.332383
2760 1 0.794073 13.5885 -17.1066 1.24716 -0.809478 -0.84499
2761 1 -6.70321 -15.2907 16.0768 -1.49745 3.31219 -3.53821
2762 1 -11.1303 8.62895 9.13609 -2.38069 3.89543 4.42323
2763 1 -5.711 -11.638 18.0442 2.30949 1.13954 2.88669
2764 1 6.13479 22.3205 -11.8313 -3.28811 1.90635 2.65558
2765 1 8.64927 -17.0312 -19.4149 0.155547 2.28224 -3.64041
2766 1 8.71565 9.63406 16.0117 -0.367083 -0.190066 -0.877696
2767 1 -12.6444 -18.9748 -21.7794 -2.05862 -2.79068 -1.50562
2768 1 -4.50764 22.7218 -0.899954 -0.379971 -2.98232 -3.71337
2769 1 -16.6244 16.6534 15.9642 1.19787 0.134499 -0.817516
2770 1 -23.7806 8.49367 4.45714 -4.40366 -1.1525 -4.59125
2771 1 -21.4049 -15.6009 -18.9553 -1.9903 2.62135 3.38034
2772 1 -14.0458 18.7486 -19.8802 -2.80707 0.212052 -0.934842
2773 1 9.62487 23.7684 5.58901 -1.22421 -1.13564 2.20763
2774 1 21.6979 0.416979 -17.5158 -3.28273 0.103131 -4.15811
2775 1 -2.05685 -18.4237 14.0468 3.82399 1.95481 2.22502
2776 1 8.68405 8.0184 -7.80997 -0.167328 0.321774 -4.24643
2777 1 -12.2393 15.8618 3.40201 -1.44248 2.08763 -0.211619
2778 1 -22.4202 17.3099 19.7262 0.752998 1.94975 -4.49012
2779 1 20.5992 14.6412 17.9123 -2.62527 -0.806747 -1.91995
2780 1 -14.4312 0.517187 -7.28326 -3.82932 4.53086 -0.865711
2781 1 13.7388 24.1628 12.0431 -3.5353 -0.283958 -0.188419
2782 1 8.38726 -10.142 14.057 -1.17477 2.68027 -4.24807
2783 1 9.14727 -7.32751 -14.0342 1.85284 -0.259218 4.67375
2784 1 -11.7189 1.5716 -0.59013 1.43932 -1.68369 0.914157
2785 1 21.5431 -4.15972 -13.2164 0.828623 -0.794268 0.592547
2786 1 6.16607 -4.57895 2.19902 3.43605 0.864517 2.39362
2787 1 -15.1687 15.1186 0.407729 0.515487 -1.73434 0.989833
2788 1 -20.9923 15.6979 12.6017 0.128773 -0.755266 0.7545
2789 1 8.8736 -6.04582 -4.86471 2.5504 0.991822 -0.805168
2790 1 -7.46167 -6.3827 -15.624 -1.85333 -1.89577 2.33132
2791 1 19.3905 14.8412 -6.33987 -0.117266 -1.05267 -0.709679
2792 1 -6.77855 -5.0788 1.61347 -3.41022 -3.81935 -1.32431
2793 1 -1.71049 0.842888 7.27931 5.15167 -0.687879 -2.66251
2794 1 7.25092 18.8591 -9.461 -1.84335 -5.08207 3.21561
2795 1 20.2114 13.5307 -19.9735 3.05104 0.773278 3.35177
2796 1 18.4742 -14.4564 13.1979 0.264954 -1.45741 -6.14373
2797 1 18.093 -11.2044 -23.3693 -1.80336 2.84876 -0.41787
2798 1 -21.423 -1.65112 -4.07418 0.709581 -1.8012 -0.139935
2799 1 -0.272917 -16.2694 -7.27859 0.721968 -2.58272 0.403643
2800 1 -13.9546 -16.5406 -17.2818 2.44357 2.05157 -0.763496
2801 1 2.55544 17.2756 6.06934 -5.62248 1.51957 5.52559
2802 1 6.62641 11.2114 -10.4246 0.475508 -1.20768 -0.144053
2803 1 -24.448 -5.14861 -14.2086 1.21966 0.502801 5.97062
2804 1 -18.1062 14.3027 -11.6862 -1.1862 0.691225 2.78569
2805 1 -17.6438 4.07094 -10.4587 -3.34392 0.0631147 0.0886804
2806 1 -4.53764 18.7668 -15.8674 -1.07064 1.84044 2.76533
2807 1 -20.2812 18.3312 -1.38789 0.408722 -3.49662 -1.28129
2808 1 5.0346 -23.9391 -11.0287 5.81266 -0.0836626 3.26875
2809 1 -12.6159 17.8056 18.4855 -1.77784 3.3604 2.49704
2810 1 6.95853 24.5813 -14.8199 0.740987 -3.20488 1.29181
2811 1 -14.3009 14.0154 3.88334 -3.32396 0.375806 -2.54108
2812 1 -8.5329 -1.46042 20.7682 -0.402527 -0.539474 -4.80697
2813 1 -0.0783701 -10.5636 -17.228 -0.420689 -1.25175 0.662565
2814 1 21.6727 -5.35627 -6.20404 2.01782 0.435744 1.45265
2815 1 21.629 12.5339 7.05526 -0.236535 2.41835 0.722371
2816 1 2.7727 -14.7138 17.119 0.6205 -1.96651 0.355786
2817 1 6.32583 -17.1183 -23.6143 3.5811 -0.595158 1.47956
2818 1 0.0627776 -2.92153 2.78405 -2.14027 -6.1512 3.72582
2819 1 17.7992 13.7044 15.4072 -1.27062 -2.68309 1.46685
2820 1 -15.5363 21.9738 9.00679 -1.73049 1.98534 1.75078
2821 1 20.2162 -12.4734 -13.4684 2.6044 1.15078 -3.4814
2822 1 -15.6646 -3.62218 5.73108 1.50691 -1.85117 -3.22107
2823 1 12.9762 -14.6348 5.79982 -1.94775 5.10847 -4.78881
2824 1 7.74942 14.3599 15.0394 -4.02323 -1.10201 -0.973391
2825 1 14.1233 17.1939 -8.3878 -2.14909 -7.48737 0.482233
2826 1 6.41937 -18.2814 -2.00223 0.850735 -0.43075 4.25923
2827 1 8.5884 -9.248 -24.1262 -2.01849 -2.76092 -0.734328
2828 1 4.63378 -6.08786 -19.4696 0.595086 1.73381 -3.10863
2829 1 18.3703 -21.3481 8.77699 -4.21011 1.88168 2.06862
2830 1 -22.2216 6.68002 -0.473115 -4.92931 2.70028 2.82981
2831 1 19.4797 4.37147 -13.2448 0.798492 -3.93652 -2.85742
2832 1 -23.341 -20.2007 -7.47093 3.00517 1.82091 -1.21671
2833 1 -24.0728 0.389644 6.74408 -0.734747 -0.968755 1.53895
2834 1 -10.0984 -17.6401 20.1542 2.5202 -3.13655 -3.39014
2835 1 -5.3631 5.28759 -0.3749 5.43427 -0.288339 3.36802
2836 1 -14.026 20.4784 -6.22023 -0.52651 2.46685 5.81526
2837 1 -17.7005 9.66207 -9.74672 -1.4651 -0.196444 1.30823
2838 1 18.4492 -11.6544 22.1857 -0.996184 -0.243172 1.25041
2839 1 -16.9078 -2.83504 -22.4371 -1.0451 5.27509 -2.87426
2840 1 3.59132 -17.8958 -23.933 -0.85817 1.23136 1.95707
2841 1 17.6956 -17.8712 -3.52041 -2.17577 0.306694 3.21386
2842 1 -2.61181 -11.4148 -9.44535 2.91095 1.46249 2.54993
2843 1 12.9064 4.36992 -21.5684 -1.28848 -0.34053 -2.07527
2844 1 19.7069 17.1559 7.6317 2.97806 -1.48097 2.55541
2845 1 18.6286 3.79779 -20.1523 -6.01831 2.53872 0.835767
2846 1 -23.3814 -0.0878925 3.9745 4.13068 1.73376 4.24382
2847 1 7.22523 13.9975 -0.827543 2.89507 3.96884 2.53401
2848 1 -15.4147 46.4128 -9.42706 2.73451 -4.89995 0.602435
2849 1 -22.1033 -20.2282 14.7338 5.97107 -1.84991 1.79184
2850 1 -0.285854 4.95808 -9.05587 -0.7723 -0.698167 3.27012
2851 1 -5.99281 23.5057 18.229 -5.2455 1.7495 0.282972
2852 1 1.88927 -4.44258 0.727934 -0.348184 0.759027 2.26313
2853 1 -2.8612 23.541 21.4624 -4.50505 -10.2719 2.47844
2854 1 6.11935 -7.12902 -6.58971 0.404174 -1.706 4.68739
2855 1 -17.4689 -6.11696 -20.918 -3.9865 2.03952 -4.19226
2856 1 16.1709 -15.5817 0.0263164 -0.938922 1.98641 0.712268
2857 1 17.9786 10.7007 10.8553 -1.5508 3.1555 -2.38722
2858 1 11.8102 -0.656433 -19.909 1.19908 0.105452 -2.27457
2859 1 -22.8095 -23.1626 -18.2764 -0.466686 2.43835 5.84158
2860 1 -22.0435 6.70324 20.2032 3.79778 -3.35889 0.180925
2861 1 13.6671 13.2065 21.7557 -0.139148 -0.529744 5.22961
2862 1 12.1111 -3.531 -15.9599 -1.23754 0.186244 1.0472
2863 1 21.4043 -18.4892 -18.5254 1.58633 4.18922 -3.30855
2864 1 -15.0406 12.6857 16.2131 -5.0824 3.09189 -0.110526
2865 1 4.02092 12.0958 0.115581 1.86613 -0.371562 -2.73581
2866 1 -17.8529 24.5129 -7.23816 2.49446 -0.573402 3.50336
2867 1 -17.0201 16.6757 -15.7266 2.2665 1.85447 4.18435
2868 1 3.76038 -23.383 21.6652 -0.677929 -2.01741 -1.96417
2869 1 -21.3608 -15.2193 17.9676 3.8933 -1.03287 2.09378
2870 1 -12.1055 16.0766 -10.8524 -2.24814 -0.712353 3.77138
2871 1 -15.1056 20.2268 23.9007 -4.37076 0.555412 -2.55568
2872 1 7.67454 8.5438 9.12949 1.6989 -3.87257 3.33772
2873 1 -11.3201 -2.25417 2.50927 -1.77385 0.773561 4.05355
2874 1 -0.34414 -8.23484 -11.6976 2.74798 0.116505 -0.397054
2875 1 21.928 -4.13287 -8.95906 -0.686505 1.25303 -0.524565
2876 1 20.4769 -22.534 -22.3101 -4.53835 -0.227196 -3.77422
2877 1 10.3162 -6.36081 4.25746 1.94828 0.760718 -2.64644
2878 1 -17.8518 21.4444 -13.1107 -0.686957 0.0317181 0.53672
2879 1 1.09889 15.6281 3.90585 1.59504 2.75632 2.47697
2880 1 -1.98107 -0.337544 14.9987 2.68869 4.25793 2.52634
2881 1 -16.2976 15.2618 -21.08 1.77741 -2.61516 3.00608
2882 1 -23.5209 -16.0124 21.2815 -2.34257 4.80596 -0.55567
2883 1 12.3722 -15.1905 0.803736 2.44717 -0.582867 -2.43983
2884 1 10.5202 -3.79568 -23.2851 1.28547 1.60622 -4.17401
2885 1 -5.96153 2.57041 -6.8171 1.26386 -2.6216 -0.208483
2886 1 12.905 24.3182 1.76362 -0.122593 -2.4279 -0.226466
2887 1 -23.8342 18.0879 22.1777 -2.28227 1.84731 -2.22056
2888 1 -11.132 5.87793 -23.028 3.30309 2.12447 -2.65313
2889 1 4.52429 -2.29833 9.67869 -3.46596 2.98543 0.0948518
2890 1 -0.730244 -7.39699 -23.8115 -1.26675 -4.31998 0.975578
2891 1 6.12528 -4.80992 16.3409 -6.97532 -7.13568 3.84248
2892 1 22.9359 17.6011 -11.5662 0.192043 0.676452 1.7321
2893 1 -12.0987 -15.5953 22.6033 2.76271 0.693039 2.51084
2894 1 -8.9189 2.55942 14.6167 -3.51148 -2.37932 -5.81375
2895 1 -18.4907 19.8936 20.0651 0.951959 -3.00426 -3.72654
2896 1 -13.62 5.50161 16.8219 1.95359 3.33165 2.37296
2897 1 -2.53327 15.3651 -2.73211 2.21692 1.80989 -0.793805
2898 1 -7.48534 -8.64606 -19.7468 -1.6404 -2.78153 -1.18864
2899 1 -4.36927 -22.2228 19.8799 -2.52246 -0.492067 -1.85569
2900 1 15.4081 3.57119 -23.367 3.93755 -2.04953 -3.93719
2901 1 -14.0417 -19.1361 -15.6894 0.333125 1.76229 3.22636
2902 1 -22.009 0.834277 -21.9038 6.25009 -0.642971 -2.10401
2903 1 -14.6174 -13.6134 3.34179 -3.27017 1.05371 3.47862
2904 1 -6.7916 12.7789 -2.22187 -2.76341 -0.490271 0.910637
2905 1 -17.7292 22.6115 21.0018 -1.97573 -0.232417 2.56106
2906 1 12.701 2.29173 19.6079 8.75916 -0.783533 -3.12513
2907 1 -14.9245 24.6242 -6.93492 2.40756 -0.0837169 1.65399
2908 1 -0.334762 10.2093 18.3814 -2.91338 1.84114 -1.00516
2909 1 -8.81871 -4.96867 -23.7737 1.81776 -0.0300826 -4.8772
2910 1 -13.8618 8.43316 17.4761 -4.17288 -3.18947 -1.29547
2911 1 -0.0819434 4.74014 -19.2575 -3.02387 -2.26932 -0.374361
2912 1 10.4925 -16.8967 -7.16467 -1.36049 -0.832934 1.86575
2913 1 16.7568 3.90082 -3.89725 1.44717 -3.25987 -0.825701
2914 1 0.651073 -0.626717 13.5883 0.842906 3.72704 2.35813
2915 1 -15.7854 -11.643 -24.0852 1.33585 -0.754236 2.56304
2916 1 19.5439 22.6183 -10.0403 1.59815 5.41608 -1.09866
2917 1 -8.67465 7.8342 5.15772 -3.14515 4.15269 0.828665
2918 1 19.9429 6.79713 -4.80368 1.11866 -0.87662 1.26035
2919 1 -24.4767 -16.2298 -5.47308 -1.92965 0.677759 2.88195
2920 1 -24.0655 13.0783 7.8768 -1.27263 -1.05115 2.37782
2921 1 -17.718 21.3815 10.7379 3.78128 -1.42609 0.804111
2922 1 -16.5452 -19.7188 -22.6999 2.17435 -5.41595 2.01606
2923 1 -15.1364 1.40584 18.4703 -0.24014 -3.59614 0.0705416
2924 1 -1.25454 -16.6869 23.5285 3.69014 -0.349738 1.19793
2925 1 19.1087 -6.91471 12.5575 -0.85131 -3.91929 2.36124
2926 1 -8.96994 7.26324 -13.3923 0.556686 5.36638 -5.21534
2927 1 11.9191 6.05723 -0.486827 0.746245 3.5073 -3.52693
2928 1 -21.1888 46.8902 -9.25433 3.51223 4.24612 -1.04229
2929 1 5.07679 -11.1176 8.31808 4.88963 -8.98558 0.207792
2930 1 -20.2753 4.59666 -0.827265 0.149729 -3.57816 1.17566
2931 1 4.83626 -9.0107 -23.7245 -3.67739 0.385529 -1.77005
2932 1 9.17871 18.1229 19.5736 -2.21929 -0.712876 3.51591
2933 1 22.1561 -4.51088 10.0727 -3.89366 3.08238 -0.363384
2934 1 8.85777 2.74642 -20.9029 0.590102 -0.460357 1.05801
2935 1 8.0723 23.6464 0.732851 0.916079 -3.12128 -4.41946
2936 1 23.0451 9.68612 -6.44274 1.73365 2.82966 1.65748
2937 1 -17.405 2.10281 -14.8985 -3.17956 1.67947 -3.38243
2938 1 -7.12436 -6.46018 -5.37181 2.8003 4.42847 -2.5327
2939 1 -11.2721 18.2655 4.36013 0.250204 4.16584 -3.54059
2940 1 17.8673 18.4436 -0.253491 -7.25684 -1.61135 1.91064
2941 1 -8.70427 2.69195 -10.1224 -3.07115 4.15556 2.2891
2942 1 -21.9598 13.5256 22.457 -0.0710246 -1.83236 3.2085
2943 1 23.7525 9.39358 7.23409 -0.319068 -1.04667 2.34909
2944 1 8.16764 -22.0144 14.3045 -1.34255 -2.82873 -3.98152
2945 1 -8.19931 10.3038 -9.2924 0.129056 -1.45831 1.67527
2946 1 11.6639 -0.89055 12.3044 4.18773 -2.20319 3.34554
2947 1 18.1321 -13.7901 -22.3194 -2.42302 2.40093 -5.05827
2948 1 -0.50191 -19.9197 -0.542523 5.87052 1.24149 -1.79204
2949 1 -10.6123 -20.1664 23.2918 2.01265 -2.30862 -2.22162
2950 1 -20.7997 16.2712 4.79393 -3.84956 0.645209 -2.03863
2951 1 11.3692 -17.0246 -10.0798 5.35138 4.81309 4.17661
2952 1 -12.8934 21.0218 -20.9248 1.75885 -1.55318 1.04255
2953 1 12.8182 4.46463 2.084 -0.460032 3.4619 5.12864
2954 1 -16.1316 -2.27173 9.28288 -2.09242 -4.77167 2.86901
2955 1 8.13636 -10.4692 18.543 -7.80276 1.41588 1.52449
2956 1 -15.4265 19.3464 -2.35861 -0.840085 3.52106 3.67655
2957 1 0.718331 -17.7654 14.2349 -0.402719 2.40588 0.0988271
2958 1 6.24662 -7.57722 -11.1397 1.99307 2.41244 0.983289
2959 1 -17.9772 17.1877 -22.1557 -6.47227 -3.11989 0.412412
2960 1 -10.5505 -0.754728 -23.0061 0.0333099 -2.48712 -3.77674
2961 1 -11.2872 -11.4231 -20.3618 0.448706 -1.39214 -5.21438
2962 1 -7.63095 -0.755212 -16.1001 2.08745 -0.381325 1.33135
2963 1 -23.7564 10.3672 -4.38817 -0.119647 0.0340101 -0.787852
2964 1 0.25413 -20.5483 -20.4282 -0.429455 0.728935 -3.12919
2965 1 18.9628 -2.60795 -14.7125 0.518864 -3.20236 -1.18449
2966 1 -2.19051 -22.1656 18.207 1.23312 7.25869 2.25891
2967 1 1.40143 10.0526 9.14608 -3.23235 -4.74011 -3.14456
2968 1 -5.37544 -13.2676 1.23061 3.97877 -0.0951803 -1.09908
2969 1 -2.63232 -4.28958 17.2995 6.41479 0.395103 0.396156
2970 1 22.2795 -13.8635 -15.0757 6.66808 0.481395 1.42844
2971 1 -4.98853 18.1877 11.4049 -4.94022 3.81822 0.345302
2972 1 -9.44613 8.17739 -10.8707 -0.313326 2.72903 -2.55207
2973 1 -12.2611 15.9858 20.793 -2.9975 -1.60753 1.41558
2974 1 22.3159 -1.98482 19.1171 2.02952 3.43635 0.0953238
2975 1 17.758 11.5356 -1.07533 -1.88451 -3.54153 -0.570966
2976 1 -20.2093 17.0024 -13.4889 1.02575 -3.73945 0.919741
2977 1 3.77907 -8.35278 -2.05315 0.165446 -2.02289 -0.354535
2978 1 12.8044 19.393 -16.5037 0.585548 -3.90681 5.83653
2979 1 5.38232 7.73764 17.1317 1.13951 0.943368 -3.80948
2980 1 -2.90337 13.2494 -0.435217 0.11432 -2.69145 -2.87922
2981 1 -11.325 9.34271 16.2242 0.512213 -2.95709 -1.26355
2982 1 -13.6476 -5.53818 6.98645 1.15848 -0.0611093 -3.20071
2983 1 -8.96528 14.7208 23.3515 -2.33185 0.229321 -3.23922
2984 1 0.445394 -2.12383 23.8952 -2.14165 2.8439 -1.90355
2985 1 -12.6628 -11.9132 11.5505 -3.01042 0.854729 -1.65185
2986 1 -6.8917 18.4361 -21.592 -1.35412 -4.38124 2.76481
2987 1 -22.1525 47.0203 -6.57961 -8.39831 -0.340713 -1.44148
2988 1 0.75923 -23.8094 -6.3507 -2.21402 -0.0515284 -1.44165
2989 1 20.763 17.9683 -13.4143 -0.0398376 -1.08925 5.87228
2990 1 12.931 -16.5733 16.4052 -3.961 -3.44172 -3.55551
2991 1 0.579744 2.27063 10.9126 -5.66722 -6.08192 3.83858
2992 1 22.8717 11.4264 -10.7031 1.49819 -0.00460206 -2.48688
2993 1 22.8736 17.5736 17.8701 -4.15245 -4.3293 -2.80716
2994 1 17.0108 2.66652 12.914 0.203113 -1.41068 -4.56591
2995 1 -4.04767 10.7835 -6.65367 -4.60119 -0.709817 0.960291
2996 1 14.268 7.17336 5.83933 2.87347 -0.831442 -0.493881
2997 1 -7.97621 -18.5178 6.11735 2.27138 -2.78656 4.77582
2998 1 2.7116 -15.7753 14.1213 8.95015 3.6073 2.51159
2999 1 11.8324 -16.3588 -1.97004 0.874421 0.494369 3.37522
3000 1 -2.50904 11.7566 17.3974 2.09629 2.38925 -0.343493
3001 1 10.0082 10.6255 9.93658 1.36571 -1.26707 0.529564
3002 1 -21.1205 17.1926 17.115 2.58146 -0.0915176 -3.48779
3003 1 15.4328 12.1638 10.4681 -2.63283 6.8163 5.2957
3004 1 17.2762 17.893 -17.7992 -5.09294 -1.77346 2.34513
3005 1 3.54193 5.26443 -6.52404 -3.31452 1.29323 -0.374004
3006 1 17.1517 10.6119 -21.4503 -6.59737 2.74864 -0.035164
3007 1 -6.48496 -20.4471 -22.1273 1.16054 0.26109 -0.487563
3008 1 -4.74133 -20.4218 23.8807 0.967488 -2.80007 -0.581342
3009 1 -13.1944 -19.8929 9.45455 -1.9799 -1.9071 -3.24397
3010 1 -15.1665 -20.6619 -13.4897 0.609173 -4.63865 1.78436
3011 1 -8.10241 -1.48711 -11.5779 1.17867 2.19519 3.66476
3012 1 1.75027 -22.1415 -18.2672 2.8825 -2.59276 0.391459
3013 1 13.2031 -17.4415 20.5726 -0.947618 2.47957 0.767485
3014 1 -23.9503 11.6149 22.6294 -0.88436 -2.19956 -1.41145
3015 1 -5.40419 11.1357 7.67844 -1.71957 -0.727663 0.00192536
3016 1 19.6627 -13.8208 -19.6935 0.440652 -1.79241 -0.39531
3017 1 -13.9761 6.19232 24.0995 -5.66126 0.0641711 -5.22874
3018 1 -22.6469 -1.82435 -14.4733 -0.244458 -1.29983 2.33299
3019 1 -21.9133 -18.2794 11.1579 1.95816 -1.55379 0.142757
3020 1 -13.7819 -10.9155 7.55063 -1.69479 3.94671 -4.03055
3021 1 -16.4068 22.2554 -2.40112 -6.51662 2.7224 4.04353
3022 1 15.5105 -11.7265 1.2358 -0.28189 1.26869 -1.31793
3023 1 3.70915 18.4062 -3.66084 3.36261 2.11439 3.23701
3024 1 23.59 5.81002 0.63381 -1.81486 5.69788 0.767611
3025 1 5.72799 -24.0206 8.74026 -5.71598 1.16972 4.43925
3026 1 1.14218 -21.5614 8.22367 1.22575 1.07121 0.676398
3027 1 12.9028 3.21428 10.9777 2.21828 -0.691896 0.111688
3028 1 -14.5386 12.5278 19.1852 0.076984 -0.677107 -2.3614
3029 1 6.70745 3.3074 12.8847 3.58955 5.06262 3.20022
3030 1 -15.579 21.1623 -11.6254 -3.34909 -4.25607 1.73013
3031 1 -23.8126 -8.77336 -19.0661 -1.65928 3.28006 0.569569
3032 1 18.6263 -11.1593 -4.3253 0.122352 -1.5264 0.612712
3033 1 -12.5243 3.2132 6.28971 -1.68042 -2.0351 1.75988
3034 1 -10.1114 -7.48698 -16.3006 -0.957543 4.16776 -0.602105
3035 1 21.5337 15.4874 6.39244 -0.215816 -2.66932 4.93346
3036 1 13.0639 17.5986 21.4552 -4.05079 0.247007 -5.19683
3037 1 -2.62942 -9.53163 6.52998 -6.46327 -3.08943 1.88294
3038 1 -18.1954 -24.6691 -17.453 1.89634 5.50112 2.90431
3039 1 16.1084 -22.4065 15.8632 -2.60961 2.39198 2.14929
3040 1 5.909 -18.8998 13.0901 -3.96275 -0.983695 -1.89198
3041 1 -21.5766 20.8321 -1.82542 -1.02685 1.65839 -2.24527
3042 1 -7.87604 19.5958 14.3712 2.98049 1.99291 -0.146954
3043 1 4.45053 -11.0404 -18.0158 -5.29153 4.07718 1.38399
3044 1 -5.94787 15.7798 -5.60953 0.654658 -5.43412 -0.769536
3045 1 -3.28001 -3.49356 6.47768 -2.4059 0.622257 1.86917
3046 1 16.3197 -10.8336 -16.7375 -6.686 -3.82916 -0.48405
3047 1 7.30277 18.6865 6.91736 1.74853 -0.418775 -1.0304
3048 1 5.81155 -11.9504 19.8183 -3.97525 2.67303 3.30031
3049 1 -11.7255 -22.6963 -13.7331 -5.2839 -5.12993 6.25655
3050 1 2.11491 -23.8009 17.9776 -1.48692 3.01834 6.85783
3051 1 -18.6673 -0.764308 -11.4766 1.32508 -1.57611 -6.0606
3052 1 -21.1537 14.1952 -12.8502 -2.86947 2.1002 -4.14216
3053 1 21.4454 -21.8234 -0.286449 -5.30792 -2.94595 7.01885
3054 1 21.5657 -4.65697 23.1683 0.0972294 4.54588 -2.73445
3055 1 19.5667 4.36293 2.7038 -0.829114 -0.230622 1.88928
3056 1 -24.0852 13.9434 15.7609 4.64834 -2.87824 4.5663
3057 1 17.0648 6.21595 -23.8275 -1.72354 -0.835647 -0.357714
3058 1 11.4763 -6.83676 8.15089 -2.24377 -2.56833 -1.54263
3059 1 -10.4606 -24.252 -4.46771 -1.43798 2.95287 -1.21888
3060 1 -20.1881 25.1743 -5.71368 -1.83834 -3.51771 2.38875
3061 1 -8.63712 21.9718 -16.4936 -1.35965 -0.783498 -0.560009
3062 1 -9.76623 15.8642 -16.9659 -3.06596 -1.48226 -5.8651
3063 1 9.44974 25.1897 -13.6829 -3.00553 -2.41788 0.574435
3064 1 -3.99789 11.192 -20.4939 1.97229 -0.427977 -3.95297
3065 1 6.79815 -12.3056 -12.2792 -0.282589 -0.839358 -1.03284
3066 1 21.9647 -2.16428 0.767984 -0.410671 -3.85822 3.65014
3067 1 15.4 17.3137 -12.398 3.64917 2.98142 -5.77204
3068 1 21.0875 17.4757 -2.76943 0.447245 1.01319 0.629267
3069 1 7.12423 -8.37246 -4.16916 -0.572703 1.04352 0.315864
3070 1 23.3269 -8.52801 -0.156621 -4.74683 -0.144747 -0.979482
3071 1 -4.46052 -5.0586 -6.05157 -2.15708 -4.47014 -0.167149
3072 1 1.44032 9.42645 21.4875 1.91264 -4.94707 -1.10696
3073 1 2.88049 22.6028 -1.21304 5.23449 -0.39855 -0.799631
3074 1 -9.70912 -10.4569 6.01276 2.81989 -4.69989 1.65248
3075 1 19.3857 7.04162 22.9992 1.64755 0.912449 -0.542326
3076 1 -12.1527 18.65 11.6316 -1.3044 -1.61083 2.94911
3077 1 -12.642 -24.7531 -6.28074 -1.08338 3.86114 -0.177171
3078 1 -20.1333 6.48991 -14.9278 4.24258 -0.0415307 -1.45775
3079 1 12.0299 -3.4572 -4.96187 -1.86897 -3.11837 0.133527
3080 1 -20.6844 11.8599 -7.51114 -6.75693 5.34432 2.46931
3081 1 -19.5949 9.78319 8.65516 -1.47242 2.7715 -0.871189
3082 1 -2.83434 1.56127 -23.6678 1.53071 -0.514718 1.33043
3083 1 7.67735 -13.9625 -6.75504 2.55579 1.56684 0.493533
3084 1 -16.4461 -22.2419 7.35245 3.99787 -1.79655 -6.07409
3085 1 -16.6352 -3.43363 -5.86505 1.39769 6.84956 4.80981
3086 1 16.2153 20.5528 3.25099 -1.37227 6.82258 2.58123
3087 1 -8.52393 -22.3577 11.5804 1.55845 -1.24359 -1.59462
3088 1 9.24647 4.78817 16.2511 2.36212 -1.85572 2.85686
3089 1 8.73073 -19.5356 13.0101 -0.537312 -1.45644 7.34303
3090 1 16.7448 -3.27539 -5.44009 0.647224 -1.37158 2.29832
3091 1 -1.64417 -0.383269 22.7895 1.66916 -2.83056 0.711357
3092 1 -6.83273 -7.36808 19.0063 3.92529 0.759439 2.94537
3093 1 -13.8009 5.59877 -21.5277 2.54959 -3.05817 2.06348
3094 1 13.4964 7.55657 20.012 -0.560481 -4.73947 -2.45859
3095 1 -16.3084 -15.715 -3.52793 -6.15288 1.06163 1.14476
3096 1 4.97879 8.68411 -22.5042 -2.32616 3.53612 -1.65968
3097 1 -8.1486 -11.4279 -20.2549 -1.90598 2.48692 -2.86516
3098 1 -10.5973 -18.831 4.96753 1.4533 0.806418 4.59675
3099 1 -20.914 8.2467 22.8993 1.38107 -3.22985 0.0974012
3100 1 18.1407 -9.3348 -21.2319 0.0828273 0.167452 -0.640311
3101 1 -24.0148 -15.7198 -17.5454 2.48426 -2.09477 -0.437606
3102 1 3.23416 3.83759 22.1257 4.32135 -1.30395 3.55313
3103 1 -6.31374 -13.5739 23.7072 1.73988 0.407589 1.51632
3104 1 -23.8196 -6.2617 6.30094 -0.145556 1.98796 1.13393
3105 1 -23.6916 -5.41613 20.9217 -0.0637316 -0.670052 -1.27651
3106 1 1.57479 -10.5451 -5.65766 -1.61591 -0.275429 -0.488078
3107 1 20.7664 -13.7788 22.4001 2.99535 -1.96846 -0.616053
3108 1 8.5634 -15.7664 -4.92284 6.00604 -0.084062 -0.707624
3109 1 2.2979 0.0152918 1.61212 5.60326 -2.00143 1.32666
3110 1 5.90893 6.68798 0.544234 -0.455937 -1.16517 -2.70903
3111 1 10.4001 -19.13 -16.1609 0.300401 -0.181902 1.92133
3112 1 0.679835 -13.4647 -21.9854 0.18872 -3.4999 1.00355
3113 1 7.05373 -11.4032 -17.021 3.83078 -1.69531 0.213236
3114 1 4.82752 4.0312 -15.0894 -3.83165 -3.08447 1.25935
3115 1 -19.6969 17.5023 -16.4692 1.10155 -0.969614 2.56434
3116 1 -12.6812 14.8977 -1.14662 -0.792011 0.331813 -2.20841
3117 1 16.0787 -11.7976 -2.89822 7.47171 2.12561 2.39263
3118 1 4.51945 5.64046 5.62084 -1.93521 2.39402 -2.16057
3119 1 -10.262 -10.0983 3.09804 0.267234 -2.43046 3.2114
3120 1 -10.8238 -2.90156 -19.0792 -0.736656 4.14745 -4.49895
3121 1 -2.79037 -23.1337 15.4437 2.68809 -0.125486 -0.91079
3122 1 -12.863 24.315 22.82 2.40585 -1.99176 -1.35133
3123 1 14.4277 16.6647 14.0329 -2.09442 -2.4889 4.03225
3124 1 -13.2241 12.7208 -7.75845 -1.84748 -1.72848 -2.71942
3125 1 -1.50628 -14.8575 -2.1361 3.63398 -6.2791 2.66831
3126 1 1.04466 7.52224 -8.8243 -3.16077 -2.15564 0.408378
3127 1 15.5897 4.66756 3.0132 1.49185 0.658803 0.237001
3128 1 2.44399 9.37167 -16.4346 1.99272 0.376779 -4.37252
3129 1 -3.51999 -9.86606 9.55664 4.3611 0.639838 -1.50355
3130 1 -24.53 -9.4174 10.5266 -6.60345 2.71073 5.87438
3131 1 -9.19667 13.6 1.45933 0.508464 1.97985 2.20217
3132 1 3.34756 8.05191 4.08803 3.35171 -2.68381 2.74981
3133 1 -1.64994 15.7469 -11.8555 -4.87376 1.87161 -0.58845
3134 1 21.8774 7.35362 -1.37086 0.223292 2.86601 1.0619
3135 1 -20.91 -14.1714 -5.75358 -4.7771 -1.46783 -0.0939902
3136 1 -18.4057 -20.4994 5.90938 -3.43321 0.934062 1.52452
3137 1 7.05202 -6.17403 -17.5306 0.473994 -0.771793 -1.24775
3138 1 18.1599 -2.8555 22.8301 0.938435 -0.309163 1.11818
3139 1 5.98492 10.6332 -13.2417 0.27141 -2.28261 -3.44044
3140 1 0.569081 16.5893 -17.809 0.821459 0.225907 -1.35451
3141 1 11.4681 -1.06424 -9.10521 -2.46782 -0.0622876 0.801622
3142 1 2.6554 22.1248 -21.3537 -1.5582 0.315556 -4.96777
3143 1 22.03 25.1338 -21.1366 -0.110393 -0.416799 -2.71965
3144 1 -0.150765 15.4227 1.20342 0.46231 -2.99999 4.94391
3145 1 19.9371 -18.9614 8.27693 1.19279 4.00438 -0.77349
3146 1 -2.5978 7.72997 -10.0561 -0.0509316 4.66312 -0.437383
3147 1 -3.32011 -19.0206 0.277023 -2.09984 -1.11603 0.465574
3148 1 6.45791 -5.92456 5.84047 0.715771 1.46645 -2.03054
3149 1 10.5725 9.3975 -14.6894 5.71585 1.08748 4.77921
3150 1 -23.2737 14.5729 4.00523 -0.418019 2.46465 1.31081
3151 1 -11.4739 46.6598 -16.2414 4.45286 1.2566 3.07704
3152 1 -13.6057 15.9985 -20.9229 1.09084 -3.07765 -4.27016
3153 1 13.9584 6.78409 -19.9808 0.462352 -1.69615 -3.54473
3154 1 6.1787 20.9116 3.49363 5.11949 -1.78408 2.22468
3155 1 -5.7267 -11.6078 3.8887 2.43374 1.40359 2.64846
3156 1 20.3893 -3.01721 7.88333 1.45283 1.98523 -0.363539
3157 1 10.7572 3.63985 5.09622 -2.98031 -5.02699 2.17826
3158 1 19.1656 -21.6789 -7.27113 -0.253145 7.25929 -3.29
3159 1 17.7677 5.2274 -6.21736 -1.975 2.40055 -0.547126
3160 1 -12.1566 -24.3291 23.1394 -1.86379 -1.12207 -4.13355
3161 1 -10.0984 -20.4983 -2.92317 -4.34222 -1.49198 -1.86575
3162 1 -16.4328 -15.6511 -16.0873 7.05781 4.18251 1.95495
3163 1 21.0383 3.00833 14.6224 -1.21948 -2.9038 -0.698604
3164 1 -19.1933 3.75646 20.8977 -0.799615 0.9498 3.00944
3165 1 -6.36758 19.303 -13.295 6.17748 0.800276 1.48049
3166 1 16.066 -8.93577 12.9051 -2.70351 -0.825118 0.212329
3167 1 21.7751 -15.8553 -18.6879 -4.574 -1.15592 2.54737
3168 1 -19.5963 -17.156 16.945 -1.30901 7.42676 0.0960462
3169 1 11.808 -19.9229 -20.2752 -0.551565 1.29703 -0.435447
3170 1 4.97054 21.3272 22.88 1.30873 1.59249 3.117
3171 1 -7.08251 15.6003 -21.429 -0.512233 3.60237 -7.27057
3172 1 -7.17934 2.35438 3.74716 2.94642 0.803459 -1.1176
3173 1 12.8223 17.3857 10.0334 0.905022 1.99408 -0.891511
3174 1 22.3493 13.8921 -12.1351 -1.65647 2.59549 3.14751
3175 1 19.4631 3.83134 -2.78372 2.30024 -0.496731 -1.81972
3176 1 18.3843 3.2673 15.533 3.53127 2.66991 3.89923
3177 1 0.247622 -11.5288 24.0858 0.478279 -1.04822 3.85851
3178 1 16.5289 19.2799 16.0811 2.7243 -2.62506 1.20596
3179 1 0.396794 0.358446 20.8181 -2.49254 1.00737 0.838074
3180 1 2.6809 13.1217 4.22066 1.15309 -0.868852 -0.197371
3181 1 -21.4136 -16.4347 -23.1627 0.419724 -3.7617 -1.5289
3182 1 -17.6288 -23.0341 20.2648 -2.35139 -2.73642 -2.8315
3183 1 21.2817 16.9048 -5.68985 -4.4234 -5.76661 -3.22674
3184 1 14.8276 -4.64791 3.4385 0.817495 1.69666 -2.53702
3185 1 -16.1811 19.496 -21.7471 -2.50016 0.263718 -1.45515
3186 1 -4.37496 19.9778 5.94435 3.75112 -1.13673 2.9254
3187 1 -21.3107 -15.2199 3.52612 0.154059 -1.30976 -2.09724
3188 1 -19.8619 12.0999 -11.1232 0.918985 -0.250047 -1.6797
3189 1 14.9554 10.7036 7.99226 3.11344 -0.643863 7.4924
3190 1 -21.5097 20.8972 -16.9332 1.25528 4.73262 2.66566
3191 1 8.41539 -5.69578 -7.69208 5.67423 -3.23522 1.19573
3192 1 21.6773 10.9814 2.20352 -1.19898 -3.40175 -3.01525
3193 1 -17.8443 22.5667 0.359514 -0.437249 1.78475 -1.04601
3194 1 -17.2505 -7.37751 2.05136 -0.812757 2.7565 -2.69819
3195 1 -17.0512 -0.166619 3.72311 3.03218 -1.3423 -2.9179
3196 1 -0.857584 -1.98315 -1.57499 4.91015 1.76165 0.722231
3197 1 -1.88387 10.4119 3.38987 -0.662648 3.70944 -3.54906
3198 1 10.5155 3.8876 -15.4512 3.97157 0.896349 -0.770423
3199 1 13.6552 -22.9141 7.29125 2.72599 -1.56111 -1.4474
3200 1 -24.3635 -4.50141 -4.87064 1.04125 1.41238 5.76477
3201 1 -16.1385 -2.80725 17.7241 -0.691574 -1.43179 -4.30838
3202 1 -16.968 -10.8232 -9.75151 -3.30168 -4.67027 -4.18846
3203 1 15.3603 9.47542 21.6288 -0.347018 4.98419 0.117868
3204 1 -15.6876 -8.2678 9.87463 0.592763 4.36368 2.62501
3205 1 -14.7121 5.35648 -4.7915 -1.07662 -3.38642 1.12495
3206 1 14.9389 11.8687 -3.38663 -5.65664 2.85293 3.79352
3207 1 -0.269424 -6.48363 -19.5708 -1.27607 -0.0030567 -3.41289
3208 1 4.89942 -7.42649 3.73068 3.5982 1.37041 0.302181
3209 1 13.1709 -14.7489 21.8876 -2.46084 1.7748 0.33386
3210 1 -14.2567 10.1991 -2.09156 1.46825 -0.870831 6.78413
3211 1 -1.37045 17.6002 12.3661 3.57766 3.11724 6.37474
3212 1 -12.9686 5.37718 -17.6456 2.55183 -4.88723 -3.40222
3213 1 -1.14057 2.63558 -15.6749 6.82341 3.71108 -0.987814
3214 1 -1.39839 15.3635 15.7361 3.67388 0.831845 -0.337453
3215 1 10.3299 1.62964 11.0502 -3.64072 -3.55461 3.62917
3216 1 21.0997 -0.257564 11.2269 -0.530486 1.49569 -6.61918
3217 1 11.7365 2.22688 8.29819 1.9647 -4.00365 2.07945
3218 1 -4.80544 21.506 -7.07372 4.83712 -1.98686 -0.69982
3219 1 -7.18221 -20.273 -15.3723 0.87504 -1.04757 -1.00199
3220 1 -3.29501 -10.0842 15.3995 3.4096 1.09621 -1.10356
3221 1 -5.69295 -10.3148 -1.61747 -0.690524 3.40285 -1.46705
3222 1 -15.7214 -19.8538 1.75016 0.467421 -2.90845 -6.08981
3223 1 23.3605 8.5001 18.6916 -1.05151 1.09443 1.87329
3224 1 -5.87734 -9.2659 2.59437 3.99673 0.0679659 3.31207
3225 1 -8.50537 -6.93471 14.6301 -3.32533 0.797922 -2.63623
3226 1 -21.2918 23.1115 -12.8894 1.21187 5.49564 3.92487
3227 1 5.48951 21.7985 -5.91933 -0.70387 1.24219 2.02841
3228 1 -12.033 12.0419 -10.3002 -0.238928 -4.51816 -1.85386
3229 1 -10.268 0.488388 -6.14681 3.08756 -3.41725 -4.97334
3230 1 23.2637 12.8769 -23.1998 -4.86222 -0.446503 2.13953
3231 1 -18.1752 -16.7512 -0.10949 -0.29331 1.57189 -0.879834
3232 1 -23.7709 15.6559 6.50404 0.292504 0.508513 3.17985
3233 1 -1.61708 16.9509 7.99652 -4.66432 -0.403718 0.0600843
3234 1 9.85997 -4.93947 -12.3328 3.05229 -4.4357 2.61812
3235 1 -6.39846 10.971 -11.6787 -3.78969 2.96815 -0.268555
3236 1 15.5599 20.0021 7.79416 -0.0667672 -4.84818 -2.36289
3237 1 -4.21136 -13.3159 21.7324 -0.660027 2.83907 -4.07576
3238 1 22.8114 21.0291 -5.33733 1.36581 -0.279156 0.815849
3239 1 -12.8482 -16.4271 8.00309 2.60153 1.4156 -3.12271
3240 1 -12.8558 -23.1034 -17.122 5.87004 -0.97711 0.530129
3241 1 0.698606 -20.3255 15.9258 -3.12309 3.28599 3.15323
3242 1 22.5913 -10.5993 -17.978 -1.20282 -3.01297 -2.95529
3243 1 8.4539 16.7359 22.8066 4.8176 -3.63895 4.04575
3244 1 18.7341 14.9924 -14.0118 -1.29021 -1.57241 2.74335
3245 1 -7.72621 19.9214 8.5228 2.84235 1.09496 -1.54662
3246 1 18.032 5.36927 5.00426 0.0845045 1.59782 2.55284
3247 1 -5.14718 8.19502 -11.3963 0.463388 -6.12512 -0.767603
3248 1 8.6331 -1.11627 -0.353203 -1.50343 1.68369 2.5885
3249 1 8.47153 -2.66938 13.2268 -1.88657 -1.89127 -0.921362
3250 1 11.9837 5.95316 -17.9276 6.7434 -4.27713 -5.51396
3251 1 2.09213 16.5098 10.7355 2.09887 5.67242 4.50096
3252 1 19.2403 -22.3769 13.6019 0.610964 1.85456 -2.48142
3253 1 10.0485 16.04 3.27171 -2.06658 -0.946126 0.142108
3254 1 18.7279 3.85275 -8.43766 -1.73358 3.57828 1.85851
3255 1 -20.0369 12.4048 -20.5977 -1.98278 1.17126 -0.803841
3256 1 -7.01851 18.0972 -9.44721 -2.05309 0.213405 -0.806914
3257 1 -12.3943 4.35769 20.6375 -1.17792 -1.28293 -1.30207
3258 1 -17.1486 -6.96253 20.3748 0.835667 -1.69425 -2.39193
3259 1 19.0947 20.2747 4.09974 -6.16059 0.0390277 0.628518
3260 1 17.7083 -24.6095 -5.94534 0.850077 -1.7561 2.1864
3261 1 -14.7377 -3.56294 -16.1441 -0.0539037 1.49768 -2.83211
3262 1 9.37591 7.22354 12.112 -1.34613 -1.91227 -1.50568
3263 1 21.5627 4.88775 19.9015 -0.383249 0.406954 4.20447
3264 1 8.87801 9.97818 -23.4432 -0.212609 -3.63866 3.34455
3265 1 6.45156 -6.78531 -14.7547 -4.28723 8.91066 2.36287
3266 1 8.75245 -0.238753 19.4523 -0.0367 5.3681 -2.3275
3267 1 -17.7402 9.82207 0.687013 1.79188 -0.614361 2.82653
3268 1 6.43685 -21.6242 10.2328 -2.34067 -0.952995 -0.478448
3269 1 8.07437 17.8922 -3.59762 -2.72491 7.60795 -1.80985
3270 1 18.8205 -16.5103 14.9957 -1.7639 0.454886 3.96464
3271 1 5.96825 -9.28658 20.7104 -0.365195 1.95875 2.45324
3272 1 2.66581 11.1015 -7.58023 0.584822 0.508187 -3.09853
3273 1 -18.2221 10.2491 -15.5797 3.67791 2.43867 -2.57318
3274 1 14.528 -18.2308 5.47831 -3.3772 -1.89123 0.182734
3275 1 22.3039 9.06868 10.8792 1.74526 1.08655 3.375
3276 1 9.4586 2.78623 13.4869 -0.510725 1.71021 0.475131
3277 1 -2.60567 -18.4128 3.44615 -4.75584 -4.75993 -4.65691
3278 1 0.477113 -5.4352 -22.0051 -0.217528 -1.60135 4.08887
3279 1 6.81315 -0.153428 16.8334 2.99619 2.57014 3.0935
3280 1 11.0814 15.9979 11.7186 -0.49895 -3.09459 -0.528831
3281 1 -6.56775 -12.9287 10.6999 -3.82961 0.428341 4.63717
3282 1 6.08141 -0.415966 -14.0415 2.52225 -2.77302 -4.55842
3283 1 -4.61622 0.346623 14.154 1.05946 -0.287503 2.47755
3284 1 14.7299 24.4864 -19.0291 -0.668931 -1.87432 1.52976
3285 1 -0.0936198 20.3425 -14.036 -1.12959 -1.29187 -1.69646
3286 1 -15.983 19.4264 4.67548 0.266759 -6.11554 -4.34648
3287 1 -4.02502 -16.2425 15.3196 1.57628 4.23695 -0.567986
3288 1 0.769008 7.17998 -18.3752 -4.92021 4.52007 -3.51199
3289 1 -17.553 -21.447 9.90628 -0.3756 -3.65502 -5.18195
3290 1 -14.1308 20.1663 18.5761 6.1608 1.77759 -2.44797
3291 1 21.8875 23.227 -11.5478 -2.5947 1.14151 3.4875
3292 1 -21.3113 22.8496 1.9476 -1.31833 3.17873 -0.664204
3293 1 -10.3898 12.1529 23.082 1.80519 4.19544 1.02895
3294 1 -20.5857 0.789317 -16.1509 0.526025 4.54355 -0.819576
3295 1 5.54945 -24.5478 -1.23538 3.32184 0.0481025 1.21822
3296 1 -17.389 -13.3311 15.3523 4.39558 0.138583 0.905768
3297 1 -17.6086 21.4451 23.7367 5.58521 -0.642955 -0.325307
3298 1 7.83409 -8.75367 -17.9433 -0.986858 4.40785 -8.6827
3299 1 -16.25 22.0492 -6.95483 4.72214 -2.81958 0.715974
3300 1 -3.52397 3.4804 -9.32977 -2.86131 0.837101 -2.42901
3301 1 -24.1146 7.88756 -8.38169 -1.86469 1.0888 -1.22873
3302 1 -18.0668 -9.98779 20.458 6.27053 -0.595075 -0.617699
3303 1 23.2846 47.0329 -12.3173 1.51294 0.686084 2.11392
3304 1 2.70456 15.0474 13.2626 -3.71735 -2.60989 -2.4455
3305 1 0.962661 6.56612 -6.04312 -1.505 -2.81935 -4.00603
3306 1 -8.56482 10.9862 -22.9758 -0.226993 -1.90561 -2.37638
3307 1 -17.831 12.8623 20.7425 6.88288 -3.49425 -2.5857
3308 1 -17.3746 18.6208 -4.7217 3.94062 -1.05428 -2.55636
3309 1 3.13597 0.416433 10.676 2.1547 -0.0984341 -0.0864053
3310 1 16.9273 23.6518 6.19971 3.86546 3.91927 -1.73364
3311 1 7.11602 2.84968 -10.4225 -0.0511549 7.1032 4.43301
3312 1 -23.6654 7.3235 14.0009 -0.364052 0.222594 0.303328
3313 1 14.8209 11.4284 13.2593 2.11772 1.4499 2.04075
3314 1 -0.863538 -3.64887 9.71106 10.0229 -2.43263 3.59268
3315 1 21.804 -11.7253 -21.7701 1.99228 -1.43839 -3.98431
3316 1 3.62799 -5.95455 -6.54866 2.93338 -2.95226 5.57319
3317 1 4.91314 0.564306 6.36765 -1.00111 2.06588 -0.548329
3318 1 -12.5313 0.218347 17.5851 -0.0128224 -0.70634 -0.760062
3319 1 1.79616 2.78997 -16.6017 1.15531 1.87586 0.427157
3320 1 1.13638 4.46361 -11.6361 -1.95786 2.49696 -0.581559
3321 1 -9.74086 -18.8845 17.3625 -3.82756 -0.504737 4.57232
3322 1 14.3663 -12.0928 23.266 0.234785 0.974761 -0.427167
3323 1 -1.54342 18.2277 15.2703 -6.60264 -2.75622 1.81254
3324 1 14.3311 -17.1398 -10.5714 -0.837463 0.147812 1.92639
3325 1 -10.4676 13.602 4.22066 -2.90437 5.04007 6.74609
3326 1 22.3498 6.63507 -22.0704 -0.277072 4.03618 -1.75954
3327 1 7.11184 -22.7637 -9.82763 0.442199 0.988943 -0.898705
3328 1 2.00301 -17.3638 -9.00107 2.79731 -6.8862 -0.244641
3329 1 11.3068 6.68413 -15.0904 -2.06018 3.90265 -5.69048
3330 1 -9.05574 17.6826 -13.8904 -0.263373 -1.03541 3.27126
3331 1 -18.8025 -5.0473 -0.433992 2.36616 3.3922 0.0702403
3332 1 -3.77643 6.36494 -23.3036 -2.51984 2.18576 4.64083
3333 1 10.1905 -5.6934 22.7744 4.59342 -4.41135 -0.467406
3334 1 -22.3611 21.3405 18.0958 -1.95982 3.9519 2.12171
3335 1 23.3178 -0.205097 -3.86255 5.68908 2.92811 -1.05231
3336 1 13.8213 -15.925 3.40057 -2.91878 0.856799 3.61519
3337 1 -13.2713 10.7644 8.53793 0.687615 0.00932026 3.32379
3338 1 11.9215 22.3371 17.4789 -3.31693 1.82442 1.08193
3339 1 11.3926 18.4034 -20.0877 1.14083 3.85468 1.2256
3340 1 16.8632 0.287051 -20.9094 1.36893 -3.86709 2.82764
3341 1 21.185 20.9019 -13.349 2.55297 -3.03084 -3.30123
3342 1 -1.53488 1.36773 2.80632 -1.2494 3.47718 -3.90155
3343 1 -23.0345 -3.95302 -16.427 4.39954 3.08521 5.02313
3344 1 17.0541 -19.6313 16.7077 2.34365 2.82729 -0.928036
3345 1 13.1442 23.0805 -22.8583 -3.37373 -0.952628 -1.96519
3346 1 10.7364 -23.7088 0.768125 -2.51491 1.34501 -0.267119
3347 1 -23.7413 12.6773 -13.5816 -0.621781 4.37321 0.809825
3348 1 -11.4855 -20.3904 2.73751 -3.1069 0.231281 0.539196
3349 1 13.9401 20.2851 -13.676 3.15928 2.24118 -2.31974
3350 1 -4.62864 -5.8342 13.1867 4.73459 -4.78783 2.0552
3351 1 -20.3333 -9.25926 16.8843 -3.705 -0.507979 0.552718
3352 1 6.0745 15.8565 3.96405 0.181575 0.157712 -0.819675
3353 1 -24.2128 5.45949 18.641 -0.673231 -3.73358 3.16018
3354 1 -15.8784 8.18805 -0.986354 -3.08037 1.1957 3.03955
3355 1 -15.4132 -21.8236 -4.31394 5.51879 5.06701 -2.1133
3356 1 -9.33453 21.3412 4.76884 0.154373 2.05211 -2.38049
3357 1 7.947 -7.54366 22.1925 2.28697 -0.620826 -0.643084
3358 1 -0.925604 21.2214 14.7997 -4.8091 4.4215 0.702481
3359 1 -2.95168 20.1262 11.6244 -1.19347 0.0605852 1.81751
3360 1 -9.19455 -16.5616 15.8271 0.522544 2.62178 2.78485
3361 1 -4.02836 21.9056 9.4009 0.744026 7.31799 1.61219
3362 1 -6.79409 5.80607 -12.2431 0.601208 -3.735 0.101436
3363 1 12.3416 -5.66152 -13.9129 0.40629 6.65192 2.77039
3364 1 -20.3784 -8.71333 -0.737006 -2.91069 -1.5619 2.06516
3365 1 0.956489 -9.72714 11.5478 2.57303 3.57608 -0.411505
3366 1 -21.7437 -22.9058 -20.8209 -4.14272 -4.24347 -1.0154
3367 1 1.01628 -19.1257 -18.0501 2.08357 -2.46432 -1.7845
3368 1 20.9098 -21.4504 15.6956 3.06027 5.44036 -2.87129
3369 1 -3.74618 -3.03515 -10.8239 -0.344327 1.6802 0.330171
3370 1 -18.1323 -16.4328 -13.817 -1.59554 0.790331 -0.669011
3371 1 -7.39103 2.1958 10.3177 1.78072 -2.31835 -4.66473
3372 1 6.92884 -3.13243 -8.06726 2.49698 -2.52985 2.26461
3373 1 13.0104 -5.52802 19.5204 0.469459 -4.48645 -0.924329
3374 1 21.8733 -14.3705 -23.1993 -5.78498 -1.04434 0.420874
3375 1 20.3678 -11.9135 0.678113 -0.23734 -0.569859 -2.26152
3376 1 -16.8203 10.5937 13.3794 1.96882 -7.58818 2.25226
3377 1 6.24135 -12.2879 13.0525 7.07431 -2.8729 -2.49346
3378 1 -6.12981 -19.846 -0.408136 -1.96536 -1.36466 -1.52896
3379 1 7.80551 -5.23135 8.51994 -1.876 -1.00858 -2.16693
3380 1 -0.773905 14.6922 22.7097 -1.37011 6.98181 1.54978
3381 1 -4.44281 -16.3467 -22.4277 4.31261 -2.97688 -0.999956
3382 1 -19.5353 13.5382 15.4383 0.342602 1.47958 -1.73812
3383 1 -19.8387 24.505 -17.5067 -2.73674 1.60007 -7.88628
3384 1 18.9576 -19.7879 -12.0048 -4.13563 2.92405 -3.12195
3385 1 -3.94484 -20.1892 -7.26371 0.149177 -0.0249906 -1.85176
3386 1 11.8844 -11.0299 -21.8156 1.71482 2.77484 0.63104
3387 1 -20.0321 -3.5898 3.52231 -1.14925 -0.797338 2.97628
3388 1 -20.3636 -2.23812 16.622 -2.44204 -1.2275 2.03704
3389 1 -11.0116 -12.0493 -13.5774 4.36073 -0.0971795 2.34647
3390 1 23.3452 -19.6875 14.7945 -4.04262 -2.02729 -0.58553
3391 1 -9.02066 -15.1613 2.73194 4.43866 -0.697177 -3.34466
3392 1 -7.77846 1.98941 -17.1011 0.228074 -2.27999 4.53253
3393 1 -12.2607 15.1434 -18.6199 1.78705 2.11875 2.31739
3394 1 -12.6348 -1.61619 14.0477 3.60636 -1.01278 2.00439
3395 1 13.6486 -13.4164 10.6416 -0.54729 1.64209 0.486728
3396 1 -20.9453 6.25467 -4.76743 3.12003 -0.438501 -0.90716
3397 1 -3.03803 -1.03529 19.024 2.26684 1.68243 -0.75316
3398 1 -8.26519 -18.9193 -4.64037 0.0590803 -3.82766 -0.812876
3399 1 -0.534362 -3.76491 5.57756 -1.228 3.87537 -5.93658
3400 1 16.1185 -22.4114 -22.4691 1.96429 1.49871 -3.83807
3401 1 -19.1811 47.0155 -12.7124 -1.81583 -2.55504 -0.340319
3402 1 15.1625 -16.4454 -18.1041 -0.689186 1.9475 0.814253
3403 1 -14.533 -24.0411 2.16012 4.01216 5.6311 0.986601
3404 1 -16.5206 -10.0115 0.571376 -1.30271 -0.349451 3.11286
3405 1 15.6265 5.90842 13.4497 7.82992 3.47647 -4.7097
3406 1 2.59929 -3.51139 5.6047 0.502851 0.631834 -3.58444
3407 1 11.7793 0.341544 -12.9224 -4.51429 -1.2476 -1.31073
3408 1 -18.8705 13.5959 23.5407 3.05048 -0.996626 -4.18431
3409 1 -2.08998 -19.3058 17.0064 -1.77801 -3.03065 -1.07506
3410 1 -18.7809 -10.7224 14.6007 -3.20204 0.187356 -1.75878
3411 1 -4.9766 -5.44816 20.1952 -2.00116 -2.17796 -3.94835
3412 1 6.42803 -2.91279 -10.9667 -1.97939 0.121434 -0.417386
3413 1 -3.82419 -16.297 -16.4664 3.74957 0.583745 3.75725
3414 1 -18.3755 3.71601 -7.08152 -8.33428 1.70108 3.97099
3415 1 -16.8146 -0.871255 -14.8405 -0.331488 1.92149 0.294756
3416 1 20.5283 -21.9777 -4.79136 -7.11848 3.25635 -0.878307
3417 1 -22.1296 -11.2888 9.72549 -1.24398 -1.61727 -3.03597
3418 1 20.3115 19.6604 15.071 -1.04478 0.233228 -1.40777
3419 1 -12.0887 -12.8028 -0.172492 3.86323 -0.410036 -3.72167
3420 1 -18.3791 12.4917 9.73212 -3.08431 2.82249 -2.34696
3421 1 11.0037 16.4393 -13.4646 -0.389552 -0.680843 -0.880132
3422 1 4.41006 -14.5584 -2.8817 -2.52563 -0.603494 -4.33242
3423 1 -14.8538 2.61453 1.52364 2.52713 -6.01003 -1.46484
3424 1 0.753437 -12.4236 1.49375 0.036322 -2.57141 2.92992
3425 1 23.6687 -8.32471 16.7621 2.28092 -1.42035 -2.14656
3426 1 -20.4811 -7.23793 4.25947 0.298747 8.31036 -4.1215
3427 1 23.2404 11.4432 -16.3864 -1.53129 -1.31564 -1.36631
3428 1 -5.00177 12.0138 13.716 1.73494 -2.26454 -1.78309
3429 1 2.554 -17.7562 16.607 6.7318 0.343189 -1.89993
3430 1 -11.9488 -14.5688 19.8443 1.99082 -3.46292 -0.230118
3431 1 -8.72553 -5.82858 -1.33065 0.226945 2.55585 2.9958
3432 1 -3.29849 9.44198 8.15406 -0.371419 -0.393313 0.653023
3433 1 -7.20131 -3.41357 -20.9364 1.9814 4.93619 -3.28861
3434 1 13.4281 15.6083 -10.628 -4.93607 -0.979828 2.46013
3435 1 -5.29699 23.3846 -13.6005 -0.7863 4.74321 2.20459
3436 1 -5.99739 9.29591 16.9621 -1.25824 -1.79255 2.237
3437 1 12.7854 17.4228 -6.00517 -2.15166 -0.73388 -0.433206
3438 1 -18.867 8.85732 3.27127 -4.296 0.735298 -0.752433
3439 1 1.10124 -14.081 13.0198 0.307189 -2.41787 4.09386
3440 1 2.12649 20.7999 -10.1484 1.00443 -6.5648 1.8817
3441 1 5.01283 -13.5126 -5.58701 2.39514 3.003 -2.1887
3442 1 -9.33779 0.463058 3.95994 1.00781 1.12952 5.43901
3443 1 22.3835 2.39146 -0.22588 -0.130033 2.14352 0.449445
3444 1 -19.5728 11.7818 3.2433 -1.78666 -0.864957 1.48906
3445 1 -12.6931 1.06049 -11.1663 2.01411 1.05201 0.37175
3446 1 -3.04821 -20.5608 -16.4036 -2.80981 -3.0349 4.72565
3447 1 -6.02356 3.4113 -10.6697 -5.4195 5.42567 0.934642
3448 1 -20.3455 4.55438 15.1209 4.16933 -0.0114586 -4.06129
3449 1 7.38493 26.0577 -17.2905 -0.86857 -1.80625 -0.724235
3450 1 -1.70477 -13.6157 -13.139 -0.345501 -0.620253 0.298364
3451 1 2.892 -12.6024 -20.0944 6.02387 2.39794 1.29363
3452 1 -10.3821 0.0113382 -12.6907 0.283736 1.50523 -1.34174
3453 1 13.2063 10.7681 -21.9693 3.8002 2.65997 -2.75229
3454 1 -21.3626 18.862 9.01574 -2.49075 1.36596 -3.8342
3455 1 -18.8625 15.3425 19.9455 -3.90505 2.85178 0.102519
3456 1 10.2635 26.3357 -16.567 1.18207 -0.49491 -6.02181
3457 1 21.1172 15.4703 22.056 0.837685 0.485662 -0.566152
3458 1 11.9376 7.07329 -21.8141 -4.50759 -1.47373 -5.00125
3459 1 -1.67346 19.5243 17.7683 -2.19098 -2.0635 4.41768
3460 1 0.900659 21.0579 17.3463 -2.11597 1.58925 3.09944
3461 1 -12.9381 -22.7646 18.3582 -3.93735 1.4371 2.12135
3462 1 -12.2454 21.8393 -8.29023 1.77346 -0.976504 -2.7238
3463 1 20.9544 7.6206 -19.8833 4.47047 0.243058 -7.86729
3464 1 -17.7507 -19.5545 13.6468 3.56691 -3.20443 1.39052
3465 1 -0.134884 -4.01267 12.5108 4.00878 1.54755 2.3183
3466 1 -8.75959 3.34723 -5.97038 -2.26274 -0.0333987 5.8462
3467 1 13.8862 13.0567 15.8012 1.75538 1.755 -2.86958
3468 1 -7.64935 -8.88608 21.1647 1.13518 1.12311 2.47391
3469 1 -0.830718 -10.1562 1.52134 3.10652 0.419989 -3.11099
3470 1 -15.7606 -21.6657 -7.33769 2.36834 -4.65577 -0.47256
3471 1 -16.402 -19.9623 -17.0544 1.6806 -0.178138 -0.174834
3472 1 -15.7502 9.17183 -14.6654 1.16208 -3.50502 2.94628
3473 1 23.3455 24.6777 -18.7009 -0.630924 5.57118 -3.24619
3474 1 15.5592 -2.47329 13.3333 -4.09377 -0.831389 -3.33679
3475 1 22.5801 -10.1706 18.7761 0.903484 -3.37858 1.89005
3476 1 3.50635 14.3779 17.1847 -0.826667 -3.93581 -3.72646
3477 1 -19.6448 -1.78256 -15.0393 -0.528492 -2.53198 -1.35918
3478 1 10.219 -14.2162 2.77346 -0.559063 -7.26813 -2.73024
3479 1 17.9181 -6.70927 9.061 0.0751033 -3.84589 0.524082
3480 1 -22.8464 24.7016 -6.62777 -0.661123 -0.994826 -0.302263
3481 1 2.09289 -21.2032 -22.9738 -2.30668 -1.70001 2.14192
3482 1 20.2804 18.9076 1.48247 -1.71426 6.83946 -5.87873
3483 1 11.6558 21.6943 -1.0533 4.63562 1.78503 -3.70833
3484 1 3.67405 10.3118 7.41685 2.65676 -2.58626 0.598173
3485 1 2.06095 8.19901 -3.79092 -3.71309 4.11174 -0.057045
3486 1 16.2925 25.6128 17.2135 -0.506091 -2.04756 2.47319
3487 1 11.709 -9.87222 -12.863 2.61771 2.51664 1.05676
3488 1 15.6567 14.4248 -13.5914 -1.94491 -1.31315 -2.76621
3489 1 18.9543 1.12415 -7.39806 2.32985 -1.6424 -1.23631
3490 1 -18.7266 4.24387 6.73129 -0.802064 -2.18092 -0.172294
3491 1 -11.1571 7.9423 -20.587 3.39475 -0.562324 4.07875
3492 1 17.8335 -1.0946 4.16602 5.27563 -3.81414 -0.24402
3493 1 3.81879 10.3089 18.3469 -3.80958 1.90689 -1.09496
3494 1 -16.7986 3.80977 22.906 1.33991 3.53371 1.275
3495 1 20.1983 -3.27827 16.024 3.10627 -3.28792 2.90564
3496 1 -10.0442 7.97206 -15.8885 -1.67357 -2.18847 4.13188
3497 1 -17.073 11.6844 18.1826 -0.00828689 3.3933 -1.24392
3498 1 -18.5954 12.824 5.82241 3.84493 4.12216 0.16253
3499 1 -21.1095 21.4774 -20.6807 0.61474 -5.12733 4.3083
3500 1 17.5965 17.4142 -5.95253 0.734409 1.14827 6.01291
3501 1 -15.3288 15.5248 -6.82106 0.442266 1.24869 1.0634
3502 1 -6.26364 23.163 -4.16372 2.9839 -1.01603 0.674421
3503 1 18.0995 -21.3082 4.99388 2.19374 1.3875 -1.0292
3504 1 17.4389 -2.5421 -0.436883 1.48508 3.03462 -1.38964
3505 1 -1.48543 -13.9072 2.4822 -4.27511 3.11127 -6.71888
3506 1 -22.2174 18.6374 -5.28256 3.61576 1.78249 6.02438
3507 1 8.87081 9.53321 -10.2059 3.44652 5.39509 5.74821
3508 1 -1.92015 -12.6056 -22.7011 1.29219 -1.20249 2.12327
3509 1 -22.9639 -18.7243 -22.4216 -3.9245 -2.93874 3.16862
3510 1 -11.704 5.24795 14.8919 2.23974 -0.421932 -0.343143
3511 1 15.0844 9.94378 -1.11385 -4.66729 -2.53487 2.50648
3512 1 -19.1604 3.12433 2.6634 -2.04313 4.46634 3.65981
3513 1 -20.4231 -22.7491 -16.9355 2.23163 5.42396 0.799188
3514 1 -4.17006 18.1524 -8.61645 -3.04013 -0.975914 2.60504
3515 1 13.8314 -16.4952 10.2856 -0.950326 4.3656 -2.17263
3516 1 -20.4539 4.60946 -17.0631 -3.12506 2.62795 -1.96475
3517 1 -5.16012 18.8491 17.8146 -2.81406 3.29126 -7.43324
3518 1 -2.18177 0.0379541 0.0437173 1.47863 0.386638 3.07211
3519 1 -4.94108 5.02346 16.1289 -1.67693 0.658702 -0.532968
3520 1 -4.33527 -15.3224 19.7957 -1.05282 -1.63018 -2.03395
3521 1 2.26723 14.8429 -13.9445 6.10075 -2.3032 -2.16461
3522 1 21.6368 15.578 -23.4698 0.119579 -4.89524 -1.77681
3523 1 -10.4339 -20.2244 8.79849 -2.46314 0.806021 4.53884
3524 1 0.473496 24.6507 0.781505 1.13195 -2.07423 -1.77219
3525 1 -17.5698 13.0463 -21.8403 2.4788 -2.46712 4.21816
3526 1 10.3949 18.5319 -6.74578 -1.18621 -5.30413 2.35414
3527 1 -1.0569 9.5646 6.09475 0.691256 -0.176901 -2.91777
3528 1 -24.4142 -22.6885 0.364952 1.37895 2.70009 -0.452259
3529 1 -22.5906 9.6646 20.9072 -1.20506 2.5804 2.5234
3530 1 -11.2506 8.07629 6.36181 -1.04327 0.527047 -5.20499
3531 1 2.87331 6.87336 22.1377 1.39635 1.26269 2.89138
3532 1 -8.53435 12.7972 -7.97629 0.434908 -3.43217 -3.56184
3533 1 17.1464 9.71168 6.23666 1.33815 -3.59627 0.665069
3534 1 7.00547 -4.3758 20.3809 4.92339 -3.76034 -0.121335
3535 1 12.7538 -18.534 -17.9402 2.42066 0.241229 0.568245
3536 1 21.67 -16.4131 9.22416 3.72659 0.751888 -5.20412
3537 1 22.7764 22.9129 17.4906 0.55 -1.15586 0.281086
3538 1 4.51717 -8.52836 16.6321 -1.35085 1.25817 1.90628
3539 1 12.2524 22.7891 -12.8616 2.53483 0.098176 -0.399173
3540 1 -1.4681 11.8653 -5.72913 2.01467 -6.85384 1.49028
3541 1 12.3368 0.423345 -22.5421 -3.77442 1.39202 -1.16986
3542 1 21.1548 1.34579 3.86398 0.883072 -1.26197 -1.41619
3543 1 -15.59 10.991 -7.78897 1.07696 -0.100501 0.0398896
3544 1 -9.37403 20.0237 -2.78734 1.56723 1.29998 -7.53524
3545 1 4.03902 20.0503 12.7717 0.818545 -1.24426 -1.75354
3546 1 20.0163 13.7312 -8.98761 2.41698 0.569352 4.08475
3547 1 8.65727 -18.3744 -8.76318 1.02033 4.29806 -3.02141
3548 1 8.62762 -12.2158 -19.2578 0.52221 -1.49423 -2.91742
3549 1 -11.0873 6.65343 3.76691 0.966675 -1.17448 2.3548
3550 1 -15.49 17.6981 9.08251 3.44903 -1.84213 -2.03564
3551 1 13.511 3.3413 -18.7213 2.7142 -5.8179 -3.1651
3552 1 14.4444 17.1828 7.75935 3.54557 2.41173 1.55839
3553 1 -10.2386 15.4757 -4.53012 -0.812052 3.03887 -2.29179
3554 1 12.655 14.2062 -12.944 -2.57042 -2.33796 5.49458
3555 1 -22.8749 -20.2698 -0.0829154 0.489403 -1.96945 -0.971376
3556 1 -6.71078 -14.2394 18.5466 0.68276 -1.94294 4.60108
3557 1 7.18953 10.8986 -19.0318 7.20612 -0.413425 -1.74231
3558 1 -21.875 -16.3521 -1.29212 1.64687 -0.0478716 -5.19603
3559 1 9.35213 -4.41769 10.7783 0.950836 -0.832067 1.06183
3560 1 -19.1178 13.6119 -18.0979 -3.35025 5.81739 0.567315
3561 1 -19.1438 21.7526 3.38381 1.93725 -4.13258 -2.5753
3562 1 19.2127 11.9076 1.27584 -1.72595 1.68852 3.05919
3563 1 3.27539 -22.3949 -7.03225 -2.10354 3.33866 -3.8924
3564 1 20.5711 11.0411 -13.5673 -1.85632 -4.83624 -0.0838203
3565 1 16.7571 -18.5477 -6.26596 -4.71393 4.37247 -1.61582
3566 1 -10.9618 -16.1776 4.35568 2.57368 -3.09474 3.16989
3567 1 1.43156 -6.2053 4.67855 -1.92518 1.23239 0.844926
3568 1 16.5379 0.860756 15.3633 -4.01517 2.89623 -0.0301466
3569 1 -5.33217 2.07409 -13.1425 -1.05479 0.211576 -0.742569
3570 1 12.9251 25.0851 23.7096 0.610567 -5.83579 -1.3523
3571 1 3.17883 22.9486 9.44283 1.72434 3.76403 -4.92307
3572 1 -15.3073 -17.0926 -19.9486 -1.03515 1.33044 1.3894
3573 1 17.3952 -4.91055 -1.96462 -3.21536 -5.92243 2.63741
3574 1 -16.1906 -4.14319 -11.0071 -3.38119 -3.90983 0.247524
3575 1 -11.3951 -11.8007 -10.3189 -0.116568 -4.36649 -3.73337
3576 1 14.5561 4.41451 17.3647 -1.71127 1.23531 1.493
3577 1 -7.73622 8.68526 -5.17713 -2.87667 2.3863 -4.72464
3578 1 20.6046 7.70784 19.5556 2.03667 2.10049 -2.45387
3579 1 -16.7839 -12.0474 -7.24268 0.175257 -0.216009 -2.11565
3580 1 0.0826074 -11.1309 6.35645 -0.683168 -0.408122 -6.44503
3581 1 -15.5369 9.67955 2.65534 -0.2908 -0.276026 -0.454963
3582 1 -15.4316 -22.673 13.5565 3.58056 4.07343 3.31669
3583 1 -18.1389 16.6574 7.87215 -0.835424 3.75002 0.424699
3584 1 8.00412 6.86162 22.0468 2.6197 1.81924 -1.0755
3585 1 10.9194 -2.43166 9.89812 6.10766 -0.250952 -4.0382
3586 1 15.3216 -0.652249 -8.39289 -0.598838 2.11375 -4.71803
3587 1 -24.0106 -12.8631 -16.995 -1.23348 -3.25808 -2.51968
3588 1 -20.7315 -9.28614 -12.2674 -2.86639 6.74567 -1.33862
3589 1 -12.09 2.28898 -7.12789 1.59193 0.867206 1.62314
3590 1 10.5339 1.59419 -5.5844 -0.103135 -2.24722 0.00569012
3591 1 -6.92994 -11.2996 -22.8294 -4.56788 -3.50505 0.499587
3592 1 -7.05776 -16.2559 -5.22132 0.679447 -0.47432 -0.0153353
3593 1 15.4888 -10.8285 -13.8731 0.191946 -2.12689 -3.03434
3594 1 14.0533 -0.564924 5.51973 -3.97194 -1.30865 3.49298
3595 1 -2.11679 -16.5246 6.68089 -1.15 2.32753 -2.658
3596 1 -8.07919 -10.4158 -8.61467 0.878838 -4.53475 -1.6654
3597 1 -2.98129 12.8739 4.22434 -0.761937 2.53844 2.00589
3598 1 -13.0336 -11.1256 -5.69043 2.44651 -1.37442 -4.24722
3599 1 13.6448 14.7813 -5.58385 -0.696383 -1.46968 3.11435
3600 1 -18.3387 22.8631 -9.80794 -3.522 -0.271091 -0.185989
3601 1 -23.5796 -13.2724 -5.518 -0.344393 -3.43131 -0.108996
3602 1 -0.310447 21.8269 21.8922 -1.67761 3.45744 0.317596
3603 1 -4.71355 -2.01296 10.7448 -2.67738 1.84975 -1.69914
3604 1 8.73498 13.5973 -23.036 4.36172 3.15493 0.257111
3605 1 18.3068 21.4769 15.9133 2.54518 4.03522 1.46234
3606 1 3.5281 9.27312 -12.5172 4.41837 0.296121 -3.61708
3607 1 -18.426 6.62461 18.1876 -1.04438 -4.52997 -2.00288
3608 1 19.8372 21.7992 -15.673 -0.0210758 1.17684 2.48513
3609 1 9.71192 -12.1655 6.39095 -1.07213 -1.03713 -0.771478
3610 1 12.865 10.4086 22.9128 -0.0809993 -2.3362 -2.1591
3611 1 -18.0081 20.6758 -16.2432 -1.82674 0.666095 -0.435674
3612 1 -3.02195 15.6435 -5.49005 -3.03536 0.134792 3.19499
3613 1 2.42246 22.5498 12.1613 -1.54975 1.04369 -3.72831
3614 1 -0.57081 -6.08299 -4.9009 -5.47096 -2.27601 -0.697277
3615 1 3.52719 20.6659 1.95082 -3.90361 -4.48513 0.662971
3616 1 -10.9114 -11.9203 23.5931 3.20869 -6.22147 -4.73495
3617 1 14.5066 1.90544 -21.2022 -0.89592 -2.31981 1.05922
3618 1 0.512094 -8.07269 -6.70133 -0.177072 -4.34319 -1.93202
3619 1 1.74459 20.1527 9.1027 -3.67337 1.16815 -1.29697
3620 1 -4.23728 13 -11.3963 3.3763 -1.56571 0.713411
3621 1 -9.08504 12.655 12.0779 3.77936 4.13319 -2.6787
3622 1 7.08804 -10.787 10.4989 -0.789459 2.80588 2.61789
3623 1 10.2568 -0.426672 16.9379 2.51241 3.22606 0.879413
3624 1 22.7848 -7.90167 4.30572 -0.522227 1.50769 1.24203
3625 1 8.45663 -15.7172 21.4034 2.03558 -0.68382 -0.476656
3626 1 -15.771 5.02775 -7.46887 -1.29726 0.568854 0.103148
3627 1 -4.23471 16.8765 8.86739 -0.855719 1.05972 5.22978
3628 1 10.0691 -0.144215 8.35219 2.28001 -0.877098 0.808393
3629 1 -6.06849 -0.439511 1.91027 1.08159 2.68099 2.54767
3630 1 5.68251 -10.4971 -0.820136 -2.55321 0.328908 1.89185
3631 1 8.50928 10.529 20.3786 -0.582646 -0.546346 0.0953567
3632 1 -15.0934 -14.4245 14.2417 -3.23535 -2.89521 1.12897
3633 1 9.80684 7.89583 -3.32748 -3.02431 4.44343 1.78951
3634 1 -2.02656 3.64307 8.31226 2.89434 -0.396824 -2.22311
3635 1 0.274877 -16.4844 -22.2998 2.19473 -1.47151 -2.21861
3636 1 3.7345 -17.1497 -11.3366 -3.22838 2.25359 -0.795726
3637 1 -6.74465 11.5022 21.7896 -4.45259 -2.02117 -1.0048
3638 1 22.2042 -6.61847 21.424 0.552727 -1.01191 -0.556813
3639 1 6.07295 -16.1395 4.12275 0.833172 2.40489 -2.28789
3640 1 19.4131 -22.4861 -13.5387 0.50261 -0.906459 -0.708445
3641 1 4.82036 11.1133 21.5099 -5.36865 1.76627 0.065871
3642 1 -4.17528 -16.5044 4.7967 -1.79851 2.59426 3.02851
3643 1 0.715136 2.64469 7.86598 0.951605 -2.54211 -6.58931
3644 1 21.2359 21.9988 -1.54848 0.361977 -0.475367 -0.490671
3645 1 -19.3716 -13.1029 -7.87372 6.09605 -1.57824 -1.6045
3646 1 16.8071 3.35945 -16.331 0.606354 2.77696 3.44116
3647 1 20.4623 -19.4303 5.55417 1.93176 -1.27372 -4.70949
3648 1 -23.7297 -20.2096 -2.86078 -1.20201 3.92499 -2.51184
3649 1 -16.2166 -1.37718 -17.6576 -1.1756 2.75639 1.23112
3650 1 10.3562 -8.15737 -16.414 1.04379 2.23056 1.03494
3651 1 -10.3549 5.99875 10.4546 0.501302 2.37035 1.12266
3652 1 20.6968 -10.3805 14.7233 -0.738555 -0.415866 -1.53384
3653 1 -0.272686 16.7215 -1.36772 -1.03554 0.16908 -0.116434
3654 1 -18.5782 23.7105 12.2524 0.331153 0.0919635 -4.52753
3655 1 -8.83254 20.5992 -12.4434 -1.87373 1.71926 0.70407
3656 1 -12.5693 -18.9076 19.588 -0.191093 -1.34246 -0.301072
3657 1 -23.5676 23.0565 -11.3336 1.50774 -0.890701 1.77181
3658 1 21.7616 13.227 15.6526 -0.611601 -0.771377 -5.12732
3659 1 18.3137 6.57885 -19.6796 -2.86477 -4.12154 -2.31437
3660 1 13.9762 8.72017 11.1577 1.26439 0.547688 0.781962
3661 1 20.4234 10.7616 -16.4966 -3.90575 -0.465425 -1.49873
3662 1 -0.293924 1.76143 -22.1301 2.91314 -0.15492 -3.18734
3663 1 -18.5601 -14.5504 -11.6277 0.667822 6.01296 -2.79293
3664 1 8.75971 16.6402 13.1504 2.22074 0.202395 1.42608
3665 1 11.7611 -10.2591 -17.8242 -4.23545 0.111331 -2.78352
3666 1 1.44116 -16.7211 22.3856 3.48708 -3.92607 2.52973
3667 1 12.9133 15.7368 -17.1547 3.55562 -2.38178 2.9337
3668 1 -15.7576 -0.944133 20.2386 -1.08299 -3.9026 -2.56786
3669 1 1.37772 21.0949 3.95222 -3.06609 -0.0524734 1.72244
3670 1 12.9047 6.96932 -9.53882 -0.672437 0.644534 4.40841
3671 1 -2.00026 12.0977 -13.3281 -0.489156 -0.183005 -2.01761
3672 1 -14.1427 11.627 12.7176 1.66246 2.83862 -1.20554
3673 1 -4.48449 -22.8037 22.706 1.35108 -1.32517 1.85593
3674 1 -2.77159 -0.656768 -6.73683 1.69453 4.15611 -0.438804
3675 1 -14.4308 18.4526 -9.27423 0.0964703 -5.65012 2.95899
3676 1 16.9157 13.3125 -9.18894 4.32127 4.71746 -1.57124
3677 1 -5.43099 14.8323 13.2016 1.08844 3.77661 -0.920207
3678 1 -18.3623 6.599 15.0753 -1.97467 6.0888 2.05084
3679 1 9.03005 -18.5526 -5.17439 0.992354 0.886431 -3.56658
3680 1 9.51362 5.57099 23.9528 1.37546 -0.221226 2.43686
3681 1 -7.62329 -0.146905 13.9854 8.43269 0.543637 -0.638023
3682 1 23.5095 -21.933 17.4326 1.05904 2.3874 -1.21609
3683 1 5.73741 9.42828 5.76157 1.73997 -1.63154 -0.368169
3684 1 14.5983 16.8091 -22.563 4.47101 1.39993 6.70945
3685 1 5.99917 -2.23185 0.509649 0.434811 1.95398 5.20094
3686 1 -22.3097 9.54038 0.0358296 1.74807 0.412362 1.97228
3687 1 8.10588 -13.0382 9.0342 2.08223 3.07033 -2.8651
3688 1 -10.9619 -24.4239 0.193003 1.72717 -0.0606491 -0.67843
3689 1 21.8372 15.9505 -16.3647 1.59163 2.47155 1.20871
3690 1 -9.85266 6.89268 -6.22782 -3.5853 1.94563 1.35346
3691 1 20.0045 -24.2512 -7.69776 -0.592822 -1.17514 -0.394405
3692 1 7.11427 1.25375 -19.1026 2.12441 -1.15816 -2.50726
3693 1 7.17105 23.0262 -2.87359 -0.965018 0.89656 -0.738778
3694 1 -22.5089 2.21741 -6.04628 -1.41161 -5.25149 2.26038
3695 1 -7.76984 -7.81328 0.562561 -2.62144 0.0334133 -1.79152
3696 1 8.31603 1.74111 -15.045 -1.43533 -0.0254041 -1.15544
3697 1 10.2346 6.51683 5.75362 0.417507 -0.0948866 -1.21502
3698 1 -23.2595 1.5445 16.1297 -2.42381 -4.33106 0.0698397
3699 1 -10.0233 -5.01418 13.1172 0.555903 0.41003 -0.593743
3700 1 -5.36897 -18.7288 -16.9366 1.30856 -4.71642 2.24107
3701 1 13.2409 -3.27747 11.7294 -1.06517 -0.700116 0.713095
3702 1 -7.49151 0.355366 -13.7112 4.00762 0.932065 2.16471
3703 1 19.198 14.0285 -22.7252 3.25085 -3.84486 0.116878
3704 1 17.6714 -2.69267 11.2752 -1.03754 0.124764 -1.95627
3705 1 4.82148 -0.493675 2.17497 1.4772 0.0489321 -4.00203
3706 1 -15.4829 5.21752 -16.067 2.52548 -0.0925893 -1.24583
3707 1 18.9476 6.69115 -14.8979 -0.433364 4.71206 -2.71926
3708 1 7.27748 3.53834 8.10299 0.951784 -2.61511 5.95203
3709 1 -21.009 16.0997 7.71871 3.19907 -2.76157 5.30646
3710 1 -4.98575 -8.61268 17.2495 -6.76952 -8.20503 -1.83927
3711 1 -12.5244 11.6132 14.9109 4.05813 1.74992 3.97341
3712 1 17.9979 22.738 -5.94364 -4.54238 0.426057 1.12533
3713 1 2.84917 20.3092 6.18489 1.28821 5.12906 1.75055
3714 1 -11.2814 -0.0327702 21.4713 3.05026 -7.75498 -4.56504
3715 1 19.7428 19.8129 19.3179 -1.81416 2.50124 -0.35429
3716 1 5.98565 3.15591 -0.205502 -0.860612 -1.13074 -4.52985
3717 1 -3.78846 15.5403 -18.7168 -0.86009 -0.798477 -0.523838
3718 1 -20.6122 6.62209 2.17063 1.65329 -3.78016 -2.01077
3719 1 -0.597642 14.1579 -8.01393 -4.40451 -1.26649 5.22444
3720 1 17.5203 16.9836 17.4208 -3.22958 -0.703752 0.626339
3721 1 -1.58888 19.8546 -8.93796 0.386584 6.33154 1.05248
3722 1 20.1233 -7.81982 5.49058 -3.42871 -2.33523 -1.4696
3723 1 8.3233 5.92272 -15.8269 3.51038 -1.02067 -0.590591
3724 1 -5.39229 -0.317306 -2.89486 1.58344 -4.20531 6.98976
3725 1 -13.1009 20.6726 -3.72062 -2.18584 0.766046 3.10114
3726 1 -8.76158 -13.7811 -13.7804 2.33793 -0.70736 -0.144978
3727 1 6.71782 -12.7336 -21.503 -0.744927 1.3506 3.11507
3728 1 15.6022 -9.64745 -24.0183 -6.65838 2.73858 3.73241
3729 1 -19.088 -11.832 -13.0473 1.20555 -4.39402 1.32437
3730 1 11.2013 -3.49703 14.0134 0.443952 -4.16514 -2.75971
3731 1 3.45839 -17.4483 -19.199 2.94858 1.12036 1.18609
3732 1 18.06 19.6415 6.85846 0.547379 3.23301 -4.96689
3733 1 4.57333 -14.2368 -0.0105086 1.00735 1.37554 5.19978
3734 1 13.8893 14.0348 -8.27996 1.89197 -0.844935 -1.58455
3735 1 -7.6772 19.0103 -0.823029 -1.66709 -1.8451 0.0888603
3736 1 -22.49 13.0435 -10.4895 6.55835 0.65188 2.19044
3737 1 -1.10188 5.91353 1.55766 3.95933 -2.46428 -0.524573
3738 1 -6.03606 -6.34426 15.6937 0.482047 -5.4247 -1.00379
3739 1 -0.630496 -5.75265 7.68913 6.12522 -2.80412 1.04374
3740 1 7.64648 -0.0111405 -21.7055 1.00754 2.7995 -1.49964
3741 1 -18.0108 11.3556 -4.38773 4.82023 -0.619492 0.00753958
3742 1 -2.11833 -17.2015 -14.0375 2.36396 5.17528 1.17171
3743 1 5.45939 -14.7644 14.8595 0.302171 -4.64477 1.47992
3744 1 -16.1344 16.4045 4.27315 1.22597 -4.91188 -1.72317
3745 1 3.16109 -8.09741 10.9016 2.62556 -2.19633 4.56294
3746 1 6.31124 -18.3609 -6.66558 -1.91411 1.01545 1.24785
3747 1 -17.1109 23.2811 -17.4236 -0.737499 -6.67878 5.2154
3748 1 -14.1268 -1.68427 -20.0782 -0.193901 1.9679 -3.36352
3749 1 -23.4272 -2.72717 12.6414 0.0822302 1.87432 -2.16209
3750 1 11.9518 24.3619 -15.1953 -2.64304 -0.89713 3.31395
3751 1 -5.5192 -2.9492 0.408571 -1.70934 -1.28231 -0.555689
3752 1 -19.7874 12.995 -15.374 0.375305 1.04541 4.78764
3753 1 7.51002 -3.03505 -21.5344 -4.03638 -5.17576 -5.79499
3754 1 -11.5661 5.39738 7.7197 -5.23961 -2.55157 4.5768
3755 1 17.4528 6.86616 -10.8423 -1.00445 1.26306 0.033892
3756 1 -11.1599 -22.505 -19.56 -0.947319 -1.77518 -3.81222
3757 1 1.01346 21.776 0.980498 3.93424 -1.9926 -2.03302
3758 1 -23.0878 -7.72231 -13.396 -1.98752 2.00219 -2.95717
3759 1 -13.881 7.59637 -19.3242 -0.0391096 -5.21772 2.3913
3760 1 16.6991 24.8139 3.63965 -0.360175 2.97378 -0.109485
3761 1 18.9535 -10.0292 -16.9004 1.64295 2.13738 -0.492388
3762 1 10.4161 -9.48049 7.69856 -2.6753 2.82421 -4.00469
3763 1 11.7798 10.4512 7.48337 0.720931 -0.0341896 2.9905
3764 1 14.9972 -9.36155 19.0093 3.69644 2.34224 2.06741
3765 1 -24.1366 -24.1746 -2.30889 3.66969 -0.0690018 -0.243837
3766 1 -12.6896 19.5278 14.1677 -1.07071 5.09714 -0.0125431
3767 1 -11.6266 -23.2837 2.57798 3.14103 1.753 3.70879
3768 1 -2.11574 5.69853 -15.463 -1.46214 1.01195 -3.71095
3769 1 -21.6846 -18.0019 8.35849 2.35823 -3.37817 4.54476
3770 1 -7.73562 -5.80979 4.70179 1.71953 -3.38611 -4.47534
3771 1 -15.9278 18.6497 20.3518 -2.75059 2.62497 3.33271
3772 1 15.4891 -14.6745 -2.90384 1.75363 -0.558012 -6.8059
3773 1 0.785126 -3.03955 15.2613 1.86039 -1.43779 -3.66047
3774 1 -5.79528 12.4384 4.98469 -3.54591 1.21485 -0.980738
3775 1 3.51067 -3.15225 -11.2068 -0.757599 1.96155 2.39455
3776 1 8.53002 -5.65837 18.1817 -2.06667 1.1742 -3.38952
3777 1 9.85564 -7.49366 -1.39746 2.74422 -0.21163 2.39789
3778 1 5.36564 15.6656 -10.3859 -2.43263 1.5079 2.22164
3779 1 -8.82735 0.391599 6.68392 -2.65991 -0.401055 2.89173
3780 1 20.678 18.7621 -16.1434 0.358723 -5.55074 -4.49422
3781 1 -6.14362 -4.12751 6.7478 -1.12495 -1.71619 -2.22378
3782 1 0.122432 -14.7063 -17.2843 0.206488 6.47295 -5.25787
3783 1 21.6148 18.4515 4.01827 -0.918912 0.898735 -2.80872
3784 1 13.2458 -1.04347 2.78214 1.1166 4.95249 -2.58614
3785 1 -2.53634 -24.595 23.6384 -0.315249 2.00386 -4.49508
3786 1 19.2638 6.86379 17.0563 -0.332251 2.3918 4.02034
3787 1 10.8642 23.7582 -17.8929 0.0608188 -0.753242 2.26985
3788 1 8.17449 15.8448 7.18687 -5.05982 3.38292 0.854635
3789 1 19.3541 24.3236 -14.7691 2.87644 2.65248 0.912257
3790 1 4.57433 -19.1341 0.181869 -1.26927 1.33989 4.47134
3791 1 -8.98399 16.2854 -11.137 -0.74348 5.20455 0.541665
3792 1 -9.90001 -8.27581 10.9038 1.54223 -4.93719 1.02445
3793 1 -14.1256 20.6948 2.51852 -0.593271 -2.30114 2.90224
3794 1 -2.01433 -21.5958 -9.39165 5.97765 -0.948889 -1.63838
3795 1 14.1853 24.2603 21.1403 5.02926 -3.08739 0.0667827
3796 1 -13.0946 -14.0473 -10.3206 0.849991 -1.52036 0.145104
3797 1 -14.9525 -14.6262 7.69525 -4.52435 -2.5741 3.67363
3798 1 4.13354 1.92571 -2.35328 4.31307 -0.965412 3.05424
3799 1 20.8028 20.3173 -9.04546 1.4305 5.83948 -2.04267
3800 1 14.1893 2.76967 -2.75846 2.58227 -1.80232 0.732144
3801 1 3.63303 16.5762 -8.11081 3.03882 -1.2902 1.50556
3802 1 6.48781 0.537239 23.8791 -1.42217 3.2863 3.62791
3803 1 -17.8293 -5.18967 -23.5977 3.5423 -6.28531 2.54858
3804 1 15.1304 16.736 11.254 4.68585 1.25346 -0.501022
3805 1 -6.22006 16.7583 -17.2882 1.54747 -0.347922 1.74102
3806 1 -0.0456368 1.22649 -4.05845 -1.4198 4.10172 1.38164
3807 1 -7.82117 20.9705 -19.1136 -2.40335 -1.18564 0.743894
3808 1 9.76873 -12.9103 -22.1714 1.50915 -2.20021 5.79544
3809 1 4.19686 -21.6332 -19.7301 -4.77932 4.08742 3.73645
3810 1 -18.5534 -3.7445 14.9034 -2.64672 4.22251 5.49782
3811 1 14.2115 -15.5318 -23.8149 -3.68736 1.39181 -2.426
3812 1 -3.83537 -15.9015 0.317536 0.467798 3.55034 -3.32236
3813 1 16.1242 5.51932 -1.6194 -4.66788 1.62756 -1.97145
3814 1 2.86608 8.50071 11.2786 -1.94125 1.24178 1.79773
3815 1 -0.463872 18.4332 23.2855 2.89949 4.56665 -0.775075
3816 1 -14.0389 -8.26506 4.49191 -7.12943 0.500656 5.41618
3817 1 10.2414 8.46869 -0.749683 1.88073 -2.24062 0.146358
3818 1 12.513 17.6614 -24.1544 2.6365 2.24876 1.50733
3819 1 3.61119 23.1345 14.7354 -0.121361 -5.29507 -0.162883
3820 1 22.4856 13.0451 -6.26006 -1.76153 0.265673 -4.76023
3821 1 10.116 -11.9489 12.7375 -0.757359 4.90234 -0.484022
3822 1 9.97227 6.49257 9.51707 2.34718 -1.52431 2.18753
3823 1 -4.99777 -18.0843 -10.3603 -0.760624 1.97447 -1.69149
3824 1 -7.64175 -23.7207 -6.93967 2.49123 5.34346 -2.97448
3825 1 21.2761 -12.0928 10.7384 -4.24788 1.37344 -3.18394
3826 1 -0.117742 17.4322 -14.9967 2.48052 -9.01582 0.97543
3827 1 -1.90655 7.73134 18.8441 -0.597113 3.56543 -2.95131
3828 1 -18.7259 17.463 -19.3447 -0.0578153 0.00484931 5.90874
3829 1 -12.4191 -18.6391 -5.80615 3.79363 -1.17044 -1.142
3830 1 17.3671 -12.7698 -12.7625 -1.48367 5.21119 0.693417
3831 1 -2.04208 22.0729 0.096326 -0.349581 1.92739 0.630824
3832 1 22.23 -1.35479 3.59826 -3.02464 3.72458 2.99912
3833 1 19.8834 -0.376787 -11.468 -6.06332 2.55049 -0.407576
3834 1 6.99819 4.94967 4.37839 -1.58877 1.135 1.25977
3835 1 21.2017 -24.3976 -1.9276 1.86536 -2.85646 1.55903
3836 1 23.3093 14.0039 -0.158921 1.89483 2.57861 -2.73024
3837 1 12.459 14.7408 4.53308 -1.02559 2.94919 1.4636
3838 1 -7.29927 4.08482 -3.50347 -0.0871509 4.8677 2.45914
3839 1 17.5347 5.82604 0.976072 -1.14664 3.68233 -0.896457
3840 1 -11.0842 -21.7941 12.8092 -2.95858 2.61337 -2.35997
3841 1 22.412 4.29687 11.0039 1.59528 1.5174 -2.6073
3842 1 22.5557 0.517058 20.3884 2.56447 3.11032 -0.0316632
3843 1 -1.2823 -15.4835 14.0756 3.25483 2.57357 5.19702
3844 1 -21.9487 -14.0259 6.8861 2.09475 1.18788 0.592709
3845 1 -5.16936 4.67969 -21.6262 -0.458925 -0.389637 0.630462
3846 1 -21.8143 24.4222 20.1117 1.1535 -0.0626854 -3.24468
3847 1 -17.1707 -18.6499 -12.6983 -2.64798 -0.674997 3.98126
3848 1 6.13237 -13.2613 6.71533 1.19798 0.484638 -0.6569
3849 1 17.1147 13.6825 -20.5884 5.31071 5.55979 -1.52286
3850 1 20.1852 -21.0393 21.795 -0.573696 -3.32993 4.5937
3851 1 -3.57356 5.14176 -3.38193 -0.611053 7.2028 0.265818
3852 1 -5.18203 19.485 15.1462 -0.803664 2.03122 -2.26383
3853 1 20.4602 -12.8702 3.52578 0.145876 2.85273 -1.90272
3854 1 17.2054 13.8506 -2.90171 -2.33914 -0.487916 -2.36333
3855 1 -2.53002 -5.38873 23.4872 0.506 0.986551 2.56112
3856 1 12.5634 -19.0939 -3.47054 0.387111 4.57891 1.6546
3857 1 -12.8362 46.1692 -11.292 3.07075 5.60415 4.23161
3858 1 16.8402 7.02236 7.13466 3.09954 -0.345235 1.58873
3859 1 22.7734 19.2397 10.7115 -1.58011 -1.00732 -7.31933
3860 1 14.958 -15.192 -15.54 1.84403 -2.34801 3.30939
3861 1 -18.6816 -12.8878 20.2698 6.97189 3.03392 3.86208
3862 1 -2.81419 0.331501 -18.052 -0.673806 -1.16266 1.57345
3863 1 -14.4432 -3.88561 14.0682 1.23645 -2.80549 1.74918
3864 1 -3.47282 -3.86886 -15.352 -1.62244 0.617076 7.12719
3865 1 1.98675 -22.8498 15.4008 -2.85058 -2.89309 -0.448064
3866 1 11.8418 -12.337 4.35059 6.83185 4.76779 -0.539496
3867 1 -23.816 1.49941 1.66156 -6.80587 0.935609 -3.17726
3868 1 6.51201 5.35479 -1.89852 1.14631 -3.90632 3.99038
3869 1 -8.63787 5.33596 6.80573 -2.77315 -6.73299 -2.90025
3870 1 14.7739 -21.8385 -9.36056 -1.48892 0.99719 -2.18217
3871 1 17.728 1.71652 19.3803 2.21874 -2.15151 3.87393
3872 1 22.4937 -23.4689 -8.78238 -0.126425 -3.81375 2.32174
3873 1 -4.43275 6.1747 13.6259 -5.91149 0.906365 4.04898
3874 1 -18.4643 -23.4116 -14.8095 -5.47907 -3.31092 -4.09347
3875 1 21.5631 1.84914 6.70037 4.19604 2.92077 5.1057
3876 1 -22.7531 -11.5136 19.8819 8.06423 3.4136 0.78163
3877 1 -23.8962 2.34439 -2.57637 1.73034 1.89966 0.814758
3878 1 8.62503 -16.728 7.17486 -0.267413 -1.84482 -2.69889
3879 1 16.5314 -18.5121 22.1439 0.232492 1.77209 -0.0342301
3880 1 -8.74598 18.7486 -23.7791 2.14187 -1.77695 7.15867
3881 1 -14.7579 0.045377 -13.1023 -1.45746 -0.243164 4.15893
3882 1 23.666 18.6788 -3.66006 1.72402 5.28384 2.23291
3883 1 19.3584 12.918 -11.7714 3.19939 6.53592 -0.49548
3884 1 12.1281 -19.2729 -6.44035 -5.59596 4.20163 -2.96363
3885 1 12.3553 24.5172 14.6563 -2.21381 -1.7224 2.04804
3886 1 -12.2093 -15.515 -6.04945 -0.316588 -2.24362 -5.71163
3887 1 0.126052 -12.6878 -19.3883 -0.584988 3.87536 -0.757647
3888 1 -7.95068 6.38916 -17.1283 -0.632702 -2.26359 -3.9305
3889 1 -16.735 16.711 18.8561 1.76287 -1.21966 2.68559
3890 1 1.15425 18.8175 14.6713 -1.4324 2.54239 0.0199944
3891 1 5.52026 -15.7166 17.5108 -5.91317 -2.87786 2.38634
3892 1 -11.6167 21.9233 6.6366 -3.6588 -2.68418 -0.886305
3893 1 -7.15401 11.1552 10.4025 -0.119494 2.10413 -0.717783
3894 1 10.6769 11.7405 -12.6835 2.06021 -0.0133907 -0.512342
3895 1 12.0106 -6.16229 -0.179514 0.470941 5.26992 3.38163
3896 1 -8.51445 -9.33696 -2.10748 4.77621 2.50263 3.65845
3897 1 5.84042 15.0857 22.6231 3.90265 -2.57314 -7.62671
3898 1 17.5616 -2.03262 15.2509 0.212291 -3.35957 -0.972463
3899 1 4.90934 10.2574 15.4901 -0.975175 -2.00994 -2.43902
3900 1 12.2852 -18.1857 -12.7193 -5.53844 0.390301 -0.0589827
3901 1 -15.3366 13.698 -12.4727 -3.11161 -3.81738 -1.67675
3902 1 11.3307 11.9545 -5.74807 2.351 0.644651 1.04082
3903 1 -18.5605 -15.6425 4.33891 0.762245 -1.12862 2.23927
3904 1 12.1583 -7.18516 -8.30933 -2.18676 1.83619 3.75343
3905 1 1.41449 -9.17504 4.81689 -0.352178 -2.10624 3.25707
3906 1 -17.037 7.53938 -8.01839 -0.600043 0.321564 0.0695422
3907 1 -21.5808 -0.250104 9.67725 2.91557 2.17638 -2.89762
3908 1 22.3433 -12.581 15.2961 -1.19786 3.49074 1.08027
3909 1 1.55108 -10.6303 19.7004 1.02124 1.40736 4.03173
3910 1 -8.22122 17.0093 -7.08327 2.12552 2.99999 -1.65176
3911 1 22.4666 18.6575 -0.31056 5.24377 2.434 -0.918074
3912 1 -10.3076 -10.3848 0.267855 -0.144567 0.367984 -2.4528
3913 1 -9.59979 5.20056 -0.0767058 -0.739159 0.280711 -1.82997
3914 1 11.7936 -10.1944 -5.24327 0.643126 0.434196 -7.5721
3915 1 6.47215 -1.02894 8.15597 2.61625 -0.461238 3.50107
3916 1 22.2498 -11.4331 21.4935 -2.33121 1.90901 1.25588
3917 1 1.97923 -6.9783 -8.72025 -0.855041 1.0746 0.277653
3918 1 10.6203 10.2701 -17.4208 4.43735 -0.233928 -1.12597
3919 1 7.48219 -13.9115 18.5299 -0.839506 0.948854 2.10471
3920 1 -10.1637 11.202 18.3531 -1.55972 4.29489 1.24626
3921 1 17.0455 7.52131 -17.3854 1.86348 2.66968 -4.15369
3922 1 -17.2337 -15.1881 -19.2365 1.61057 -1.98027 1.28044
3923 1 -21.6671 4.73 -12.9593 4.49949 4.01932 1.91274
3924 1 -11.4593 -5.19668 8.78939 -4.16874 -1.9142 -2.98801
3925 1 -22.6547 4.59918 2.49196 -1.57349 1.7807 -1.57072
3926 1 8.51167 -3.15961 22.5905 0.925063 -2.93928 0.420876
3927 1 13.0441 15.3572 -1.39213 -3.56768 -3.04184 7.31703
3928 1 -18.0399 16.2833 23.5945 -2.77339 -2.91286 1.8081
3929 1 -1.4796 12.0396 -9.8821 4.63032 -0.842602 -2.11213
3930 1 15.3535 20.167 0.175742 -1.82404 5.13199 -1.56996
3931 1 -2.15055 10.6699 0.42243 -0.873339 -0.417947 5.54681
3932 1 22.3284 6.66703 12.4685 1.95863 -1.10925 0.83062
3933 1 -4.34012 -8.72914 21.8479 2.48238 2.25579 0.205034
3934 1 22.1537 3.23556 -13.1062 2.28886 -2.26526 -0.755357
3935 1 11.8888 -14.4637 -20.9155 2.7707 -1.69614 -0.443709
3936 1 0.10228 46.9161 22.9852 2.72484 6.38134 1.45609
3937 1 14.6206 -14.439 -19.9648 1.95937 5.33894 0.333351
3938 1 18.5368 12.4175 18.213 6.71845 -1.00661 1.31309
3939 1 21.9382 -1.64096 14.617 0.801679 -1.60934 -0.446481
3940 1 -2.59866 23.0411 -6.40213 3.83476 -0.220673 3.37405
3941 1 -17.9213 2.53579 -22.8821 -2.67606 4.55628 -4.55863
3942 1 10.2568 -23.2137 15.461 0.10005 -2.52358 -5.47412
3943 1 -19.1809 -22.995 1.3393 0.236853 6.06421 2.50906
3944 1 -13.5862 -9.06569 -14.3521 3.67154 -1.88394 4.74994
3945 1 -19.295 -14.7357 -17.0199 4.24479 -1.00518 -1.79687
3946 1 -6.06597 14.6112 9.69767 -0.37617 0.143949 2.15779
3947 1 23.1712 9.36707 -22.2807 1.91901 -4.58657 -4.69813
3948 1 10.7653 17.4202 -17.4719 0.23806 2.64819 -1.2542
3949 1 4.22436 -13.1902 -13.1165 0.460275 0.402788 -2.62116
3950 1 -4.52162 0.984525 -20.3011 -0.0661085 -1.48109 1.17377
3951 1 5.30945 2.1192 -12.7174 -1.19069 3.23662 0.326061
3952 1 -6.01672 -4.42411 -17.1497 0.716605 -0.514593 -0.215205
3953 1 21.3404 -17.7068 14.1174 -1.85829 -0.992353 4.66725
3954 1 4.17774 4.01489 -17.7786 4.97594 5.32461 0.0179468
3955 1 -7.67898 19.6074 11.4287 -0.803186 1.8677 -1.72266
3956 1 -13.2728 12.4825 -4.7838 2.40691 -2.10982 -7.2021
3957 1 17.1332 -22.8164 -17.2472 1.72786 3.07916 -1.29921
3958 1 -2.63192 6.14801 -7.61573 4.17791 -1.00064 -1.72878
3959 1 -20.1663 -5.67604 -20.784 -2.1099 -0.817638 -0.900583
3960 1 20.808 -15.4424 -10.7094 -2.43743 -4.60397 2.3252
3961 1 -0.991166 -19.3973 -3.39927 -2.64004 4.32637 -3.56149
3962 1 -0.427765 -14.5759 5.01452 -1.41269 -0.0349566 0.943412
3963 1 -15.5439 -18.5345 -2.52383 -0.352751 6.18634 3.15475
3964 1 6.89379 11.8066 16.7428 -4.16409 2.31985 3.09375
3965 1 -5.61666 2.31361 1.2365 4.97835 -3.93625 0.725271
3966 1 -19.2895 20.9821 8.07909 -1.54801 -4.02014 -0.7927
3967 1 2.30616 -7.38544 -4.50628 -1.39459 -1.79646 -6.94104
3968 1 -2.19596 2.20941 -5.61383 -0.118128 -1.72992 -4.22569
3969 1 17.1767 -22.4957 19.316 2.05079 3.517 -3.54778
3970 1 -6.07771 20.9631 21.279 -2.3728 -2.36503 -0.407309
3971 1 -3.05358 -2.13955 21.4888 2.92124 -2.03294 1.79179
3972 1 -5.18738 -9.74581 -11.6758 -3.36094 3.80747 -3.39707
3973 1 -10.2967 -22.0862 -6.26447 1.79238 -2.0328 1.42668
3974 1 6.58512 23.2878 14.5703 1.26173 2.71764 -2.13279
3975 1 5.83853 -0.617323 -16.9653 -1.94489 -0.902761 1.02336
3976 1 -2.64306 14.6746 2.06923 -5.32143 -1.08944 -1.92821
3977 1 -8.63524 -17.8367 -19.0063 0.564308 -4.67014 1.40017
3978 1 -2.31973 20.1416 -11.954 1.73734 -4.64561 -1.70011
3979 1 -9.65957 -23.9657 4.16069 -2.73323 -0.742739 5.5588
3980 1 -22.378 -18.542 -13.7922 1.3905 1.63628 -0.3144
3981 1 12.5111 -8.25255 3.99715 -2.41157 1.54332 4.71861
3982 1 7.64336 -3.62332 -3.39945 0.370323 -0.609465 -5.24532
3983 1 -23.1322 10.0714 9.94971 -1.1263 -3.90371 -1.88078
3984 1 -6.55991 14.4218 -19.0428 4.55304 -0.618509 2.64999
3985 1 -12.1448 19.3311 6.99125 0.338552 -3.40007 0.18041
3986 1 16.971 21.8244 -15.2796 -0.552741 -5.37092 3.6001
3987 1 14.0621 15.6505 18.5592 -3.7987 -3.52205 2.2524
3988 1 -24.1669 19.6575 19.8079 1.60714 2.27772 -4.53172
3989 1 -15.5034 -11.1478 -14.3832 0.902256 3.91976 2.13358
3990 1 7.70663 5.15941 -22.1816 -5.30454 2.66846 1.20064
3991 1 -18.3453 8.9714 -23.8948 -0.909075 0.063406 -1.56119
3992 1 21.9399 8.91484 -3.90451 2.35283 -1.89224 5.66261
3993 1 -6.66693 -12.4323 -5.25509 -0.471973 -1.765 -3.17834
3994 1 -15.4367 -22.4235 -20.019 1.17471 -1.55349 -3.69842
3995 1 4.95755 -23.3952 2.21869 1.52469 -1.04829 0.0154509
3996 1 3.98833 -12.5676 5.01355 -4.0101 1.14909 -2.57797
3997 1 16.9669 -23.9614 -12.4512 1.91214 -0.0248585 5.21254
3998 1 -11.5678 -3.46695 -0.189201 0.966513 -2.55957 -1.33105
3999 1 -7.58556 16.4872 11.4837 -5.32794 1.44223 1.78127
4000 1 -18.1164 10.2322 21.9262 1.63808 2.04062 5.85653
4001 1 -10.5632 25.2254 -4.42638 -1.26694 -1.80098 -0.917131
4002 1 -9.35443 27.5633 -5.44182 -2.13083 2.76362 -1.42054
4003 1 -6.79218 27.7028 -4.28078 -3.30801 0.598224 5.29139
4004 1 -5.31304 25.5111 -5.28277 5.5397 1.59303 -1.80773
4005 1 -10.6519 25.0839 -8.94624 -7.18637 -3.13534 2.65874
4006 1 -9.92522 27.6249 -8.09851 -2.28153 -4.2687 -2.32152
4007 1 -7.35012 27.7011 -9.10074 7.27796 -0.769912 -2.76891
4008 1 -5.91669 25.3594 -7.97038 -2.77912 -1.35556 4.56929
4009 1 -9.30654 24.6963 3.61896 1.48026 -1.86769 0.465053
4010 1 -8.41965 27.0902 2.30826 0.767166 1.82773 -1.73375
4011 1 -5.82162 27.4566 3.10156 0.0376911 0.268216 4.15938
4012 1 -4.13592 25.4508 2.38237 3.95697 -0.141985 -5.24275
4013 1 -10.1985 24.4771 -1.71852 -5.94266 -2.51006 -0.0363925
4014 1 -8.97979 26.8794 -0.410454 -5.13816 -0.636449 4.71859
4015 1 -6.52011 27.3315 -1.6262 2.21245 -2.84183 0.505915
4016 1 -4.72283 25.555 -0.31973 1.46856 2.01159 -0.265774
4017 1 -9.18501 24.743 10.7377 -5.67928 -0.473252 3.42522
4018 1 -7.65476 27.1442 10.3693 0.115542 -1.15786 2.30794
4019 1 -4.86115 26.9507 10.5918 -0.166872 1.40923 -1.59626
4020 1 -3.86168 24.7875 9.2625 -1.78246 -4.75032 -3.88202
4021 1 -9.0262 24.7664 6.4685 5.03895 -1.59711 0.851891
4022 1 -8.01183 27.1203 7.55449 1.67747 3.31694 2.86507
4023 1 -5.63618 27.563 5.95175 0.8402 3.6644 0.468741
4024 1 -4.27667 25.3201 6.42054 -1.1617 5.77026 -3.9183
4025 1 -10.5376 29.6331 -3.90456 4.8434 -0.168776 4.05279
4026 1 -9.60694 32.2753 -4.51069 2.46111 -0.797739 0.0483315
4027 1 -6.96962 32.3369 -3.95731 -0.141238 -2.6722 5.32548
4028 1 -5.51662 29.9087 -5.00859 2.08194 -0.0841739 4.63488
4029 1 -11.3731 30.2314 -8.04149 -0.982981 -0.557781 2.75675
4030 1 -9.59452 32.3334 -7.23801 3.60659 0.460321 -2.41711
4031 1 -7.14306 32.3705 -8.51751 1.65129 -0.0987612 2.67504
4032 1 -5.90762 29.8809 -7.79543 0.848534 -2.26002 0.536453
4033 1 -9.40204 29.2905 3.61789 -0.835295 -3.89123 7.38446
4034 1 -8.39842 31.6683 2.59119 -4.76339 2.41674 3.47594
4035 1 -5.79695 31.937 3.43857 0.317866 1.31496 -2.12478
4036 1 -4.35989 29.842 2.23282 -7.97007 2.40983 -1.70478
4037 1 -9.65102 29.567 -1.27553 -1.87429 4.07271 3.11175
4038 1 -8.94478 31.926 -0.244953 2.29104 2.13738 -2.3082
4039 1 -6.42819 32.0925 -1.25183 -3.29836 -0.591351 4.28083
4040 1 -5.08334 29.6886 -0.781797 2.96435 -4.57197 -3.1387
4041 1 -8.90888 29.6587 11.0267 0.282581 2.12763 1.45982
4042 1 -7.59064 31.9768 10.4087 -2.07122 0.148984 3.25334
4043 1 -5.0443 31.8837 10.8943 0.438468 -5.63241 -3.56962
4044 1 -4.10606 29.6642 9.6191 -0.0354495 -1.76466 0.629351
4045 1 -9.31675 29.3272 6.63467 -4.92959 -3.89293 0.158593
4046 1 -8.19091 31.6321 7.81043 -3.00238 0.0379525 -0.336113
4047 1 -5.70947 31.8063 6.45211 -9.51751 -0.639216 2.41618
4048 1 -4.13297 29.6822 6.90252 3.51526 2.50951 -4.10482
4049 1 -10.6798 34.7406 -3.53632 -1.796 1.93598 -2.71474
4050 1 -9.35132 36.702 -4.82121 0.202144 1.42361 -4.00238
4051 1 -6.82717 36.9377 -3.83146 -1.37411 -2.08541 -0.74478
4052 1 -5.52099 34.6721 -4.82034 0.599749 2.20487 -4.34467
4053 1 -10.6043 34.6895 -8.45819 -1.43331 -0.372973 3.42494
4054 1 -9.58266 37.0236 -7.65901 0.877663 -4.84927 1.67142
4055 1 -7.00611 36.8813 -8.78507 6.76035 1.43252 2.86222
4056 1 -5.62683 34.4603 -7.62512 1.0346 0.819288 -0.822778
4057 1 -9.11592 33.8921 3.77352 2.72257 3.38419 0.850358
4058 1 -8.24218 36.444 3.16215 -1.54499 -2.85812 -1.8271
4059 1 -5.38332 36.7535 3.34833 -3.52083 -0.42541 3.96037
4060 1 -4.42917 34.2919 2.15479 -1.43053 2.96142 0.220842
4061 1 -10.0668 34.357 -0.782684 -0.613767 0.32779 -1.54263
4062 1 -8.84595 36.5844 0.360024 5.01552 1.29152 0.756611
4063 1 -6.4403 36.7853 -1.05176 1.85448 3.8159 2.24358
4064 1 -4.88247 34.3303 -0.603034 -4.54264 -0.835648 -0.68715
4065 1 -8.80943 34.2842 11.0127 2.69394 -1.1854 1.89133
4066 1 -8.2964 36.5544 10.1187 2.4899 -3.93286 -1.34029
4067 1 -5.24664 36.3914 10.5329 1.66567 0.520532 -0.82002
4068 1 -3.9411 34.0481 9.66814 -1.83783 -2.12422 1.82815
4069 1 -9.15071 33.8406 6.49158 -5.00286 4.20283 1.4703
4070 1 -7.98617 36.3928 7.29823 -1.03671 -2.47482 -3.03078
4071 1 -5.37409 36.7991 6.16124 -7.81052 3.02138 -2.86655
4072 1 -4.39234 34.2533 6.83723 4.63394 2.68534 -3.83916
4073 1 -10.4789 38.5979 -3.42462 -4.65336 -3.10784 -0.273339
4074 1 -9.81716 41.0339 -4.29944 -0.767392 -3.82862 0.631005
4075 1 -7.02502 40.8535 -3.82396 2.48315 2.68 -0.606536
4076 1 -5.51086 38.99 -5.17796 0.207375 1.13098 -0.679114
4077 1 -10.7526 39.2504 -8.37118 2.53797 0.784128 1.36002
4078 1 -9.78893 41.5886 -7.02173 0.358016 -3.66481 -2.68383
4079 1 -7.09707 41.4178 -8.14424 0.17874 -3.24453 3.2778
4080 1 -5.76054 39.1647 -8.13538 2.74376 1.0094 2.04787
4081 1 -9.58874 38.4783 4.51821 -4.97405 -4.35455 0.709324
4082 1 -8.90935 40.9678 3.22894 0.487142 5.01727 -2.41831
4083 1 -6.1712 41.2914 3.82132 -5.37931 1.48566 -3.35737
4084 1 -4.78411 39.147 2.43977 -0.484865 -1.0162 2.06388
4085 1 -10.3271 38.6771 -0.582824 1.01742 2.74957 -3.78507
4086 1 -9.01154 40.9822 0.5888 -0.385006 -2.49911 -0.966216
4087 1 -6.95931 41.248 -1.16278 -3.24008 -1.8862 -2.30248
4088 1 -5.13862 39.1205 -0.408058 2.87062 4.58138 -0.626854
4089 1 -9.51674 38.9534 10.4412 -0.988488 3.64383 0.21979
4090 1 -7.81462 41.4049 10.8569 1.69849 -1.66639 -1.04387
4091 1 -5.15071 41.2737 11.0615 -2.1227 -4.53163 -0.44951
4092 1 -4.05649 38.8958 10.1783 -0.776252 6.08943 -3.74815
4093 1 -9.28374 38.9552 7.39552 -2.93076 0.5508 -1.22306
4094 1 -8.06939 41.4852 8.12027 1.47828 0.87837 2.5835
4095 1 -5.66704 41.3916 6.6521 4.62028 -3.0838 -1.95518
4096 1 -4.17474 39.0018 7.47353 0.791916 3.24704 -0.573547
4097 1 -10.9755 43.2356 -3.103 -1.36849 -0.597083 -2.00327
4098 1 -9.52124 45.0833 -4.78662 -3.95607 -0.817004 3.63775
4099 1 -7.01481 45.4927 -3.40199 0.658359 -5.31821 -1.65184
4100 1 -5.82507 43.1147 -4.44912 1.36138 -1.75206 -2.86065
4101 1 -10.1199 44.2035 -7.39623 5.8249 4.54075 1.45132
4102 1 -7.72068 45.7874 -8.03172 -1.38626 2.93019 -4.6446
4103 1 -7.3014 46.5578 -10.6998 -0.351426 -3.04102 -2.35872
4104 1 -5.77794 43.6793 -7.19624 -0.858949 -0.191739 1.06343
4105 1 -9.73632 43.38 4.52292 1.21895 -0.426695 -3.4733
4106 1 -8.75728 45.6914 3.49747 1.43802 1.85372 0.857862
4107 1 -6.14065 45.5092 4.04696 -0.525261 -0.856483 -2.47083
4108 1 -4.83143 43.3377 2.55838 1.16039 5.52538 3.96675
4109 1 -10.207 43.1722 -0.377085 3.74299 -4.33158 3.38679
4110 1 -9.14022 45.4751 0.728045 2.89806 -4.68293 1.50075
4111 1 -6.7062 45.8356 -0.782129 0.160327 5.80584 -2.92269
4112 1 -5.36204 43.2633 -0.274104 -3.25704 -2.0382 2.08164
4113 1 -7.66759 44.1694 10.9013 -1.77121 -2.85054 -2.03109
4114 1 -5.1163 45.1184 11.4999 -3.94384 -0.939427 0.241998
4115 1 -3.94746 -24.4349 11.5388 2.09456 -3.3013 -0.478236
4116 1 -3.57051 43.3951 9.99545 -0.877024 1.77217 1.85598
4117 1 -9.092 43.6591 7.0746 -2.94411 -3.65219 -2.94251
4118 1 -8.40541 45.7116 8.79506 2.45752 4.23482 -1.51548
4119 1 -5.94691 45.755 6.94124 -4.38023 -4.89834 -0.977395
4120 1 -4.25981 43.6309 7.31102 -1.37423 -2.24203 -0.357047
4121 1 -2.56718 25.5618 -4.44789 0.911589 -1.46683 1.70434
4122 1 -1.43483 27.9501 -5.50774 -1.59409 0.795743 1.07263
4123 1 1.36554 27.7149 -4.91845 4.40747 2.67532 -6.09327
4124 1 2.20626 25.2258 -6.37969 5.08731 -0.349162 -0.0586922
4125 1 -3.12903 25.1225 -8.51013 -6.06321 -0.192687 2.81039
4126 1 -1.76631 27.7149 -8.24671 2.1542 -0.773059 -3.84166
4127 1 0.614604 27.5794 -9.59109 -1.66072 -0.547684 5.37984
4128 1 2.32204 25.4106 -9.23284 -2.11897 3.80286 6.98141
4129 1 -1.29818 25.5423 2.95637 -3.43475 -1.15573 6.0385
4130 1 -0.362602 27.897 1.82688 -0.551333 -0.493819 -0.831566
4131 1 2.40179 27.974 2.28 -0.940031 1.75332 -0.549486
4132 1 3.52133 25.6161 0.974279 -1.62266 2.07158 -4.12091
4133 1 -2.15003 25.2504 -1.54993 -1.92658 -1.63043 -1.23309
4134 1 -0.91416 27.8248 -1.01005 -1.72875 3.66596 -2.16882
4135 1 1.6819 27.5354 -2.20708 -1.22042 3.04249 -0.776443
4136 1 3.27759 25.1928 -2.14614 -3.41302 -3.09891 2.55889
4137 1 -1.12234 25.1177 8.58367 -3.61771 0.984217 -0.847475
4138 1 -0.246748 27.7878 9.00925 -2.19206 -1.38075 0.528569
4139 1 2.36382 27.9866 9.52675 -3.82184 -6.16454 -0.102566
4140 1 3.81541 25.7355 8.89189 1.59488 1.99929 0.621871
4141 1 -1.53572 25.0219 5.607 -1.36663 -2.40948 -0.865232
4142 1 -0.211337 27.5725 6.10933 -3.28144 -0.62024 1.79319
4143 1 2.48719 27.5423 5.09224 2.15061 0.148745 0.833405
4144 1 4.28767 25.7263 5.98623 -0.159521 -4.21189 6.92801
4145 1 -2.83258 30.2116 -4.46086 -3.93318 -2.71814 -1.28231
4146 1 -1.59349 32.5166 -5.66528 -1.08631 -0.694218 6.02599
4147 1 1.1637 32.3445 -4.95681 -3.61723 3.51483 3.98917
4148 1 2.66557 30.0584 -6.12871 0.0784297 -5.61298 -1.69894
4149 1 -3.33472 29.8238 -8.98171 -0.0115342 -4.38784 5.76211
4150 1 -1.72371 32.0932 -8.33006 -2.16898 -1.86293 2.94235
4151 1 0.883526 32.187 -9.47708 -2.58388 0.487525 2.24111
4152 1 2.16383 29.8753 -8.77707 3.73511 -3.14439 -0.444236
4153 1 -1.76597 30.1242 2.81788 0.726015 3.67015 -5.58573
4154 1 -0.731979 32.475 1.63837 -4.28534 -7.69721 -3.51838
4155 1 1.92534 32.3125 2.61737 -0.639663 -0.310524 -3.41061
4156 1 3.21657 30.1153 1.07509 1.50142 3.9102 0.0520002
4157 1 -2.39669 29.9451 -1.82468 5.07844 0.486176 4.02507
4158 1 -0.830596 32.3407 -1.14163 -2.92872 1.65485 -1.7119
4159 1 1.75868 32.2313 -2.26511 0.362786 -2.53293 0.7657
4160 1 3.07137 29.9325 -1.70869 -0.591885 1.47602 -2.79133
4161 1 -1.30136 30.1015 10.403 0.559975 -2.74529 5.79386
4162 1 0.357288 32.2895 9.19439 -0.567051 -2.64003 0.633277
4163 1 3.05281 32.1493 9.6075 1.25529 -6.94977 -6.73722
4164 1 4.13071 29.7624 8.56965 0.292775 4.89725 -0.165086
4165 1 -1.6469 30.0763 5.58217 1.60097 3.5891 -0.968053
4166 1 -0.130769 32.2782 6.48807 4.19685 -3.03579 0.329266
4167 1 2.47065 32.1843 5.29965 -9.5186 -0.224538 -2.0126
4168 1 3.70837 29.7804 5.87178 4.96353 4.8374 2.9169
4169 1 -2.69281 34.8332 -4.517 1.56083 5.47426 -0.780913
4170 1 -1.24235 36.8597 -5.69263 0.30528 -1.97117 1.99664
4171 1 1.3703 36.9846 -4.69392 1.98773 -2.2641 -4.75408
4172 1 2.69523 34.4863 -5.75011 -2.03696 0.198163 2.0614
4173 1 -3.02648 34.4286 -8.3099 -1.37073 -2.514 1.88555
4174 1 -1.74402 36.828 -8.56685 -0.121141 0.99902 4.11093
4175 1 0.765571 36.6904 -9.58923 2.30431 3.20992 -2.30206
4176 1 2.38189 34.424 -8.51961 -2.34507 -0.575448 -2.81948
4177 1 -1.92871 34.7058 2.92195 -2.60685 1.4411 -4.16576
4178 1 -0.769574 37.0656 2.07777 -1.68631 -0.210704 4.63285
4179 1 1.94441 36.8052 2.67748 2.94072 1.95776 0.0504895
4180 1 3.12594 34.6495 1.54502 2.64808 2.86034 3.16761
4181 1 -2.37497 34.5922 -1.73022 -3.92958 -5.0193 -0.480092
4182 1 -1.20201 36.8614 -0.997749 5.12965 1.9673 0.539733
4183 1 1.47527 36.9027 -1.89195 -2.25129 -4.19416 -3.73213
4184 1 2.87373 34.7044 -1.1418 0.120303 -5.37847 -0.547556
4185 1 -1.29068 34.4492 10.193 1.79863 0.109991 -3.36713
4186 1 0.0342958 36.6495 9.2396 0.356877 4.99372 -1.44883
4187 1 2.68672 36.8182 9.27253 -3.2206 -3.48951 -1.66295
4188 1 4.42097 34.544 8.68481 1.94541 0.545973 1.93098
4189 1 -1.73536 34.4555 5.63626 -0.29274 1.13881 -1.00421
4190 1 -0.139175 36.6295 6.38465 -0.345726 2.48618 2.31051
4191 1 2.35171 36.589 5.3519 -2.19063 2.28946 -1.98987
4192 1 4.19188 34.5724 5.91436 5.55796 2.61027 4.83559
4193 1 -2.71096 38.9245 -4.68591 -1.68471 -0.109582 -0.992767
4194 1 -1.5376 41.3239 -5.14432 1.35091 -0.926764 1.3696
4195 1 1.25878 41.229 -4.92639 -0.513088 1.44519 -0.447335
4196 1 2.60682 38.9031 -5.97733 1.25866 0.166881 4.3127
4197 1 -3.1211 39.1619 -8.81689 -4.49861 -0.509202 -0.887482
4198 1 -1.54498 41.3706 -7.94488 -0.991888 1.13402 -0.397697
4199 1 0.774604 41.5548 -9.40714 1.53482 -1.60541 -2.39546
4200 1 1.95983 38.9595 -8.87982 0.0487599 -1.75925 -1.85423
4201 1 -2.0683 39.1204 3.22555 1.80212 1.84971 1.14169
4202 1 -0.888341 41.5583 2.21057 0.227378 1.43444 2.42553
4203 1 1.94588 41.3156 2.51764 2.44276 0.801879 3.47826
4204 1 3.33308 39.0245 1.44029 -2.28465 0.685073 -4.43475
4205 1 -2.51074 39.1402 -1.66428 1.75912 4.94719 -1.31452
4206 1 -0.850991 40.9084 -0.632856 -0.576052 0.979609 -2.80503
4207 1 1.61822 41.1935 -2.16148 -0.142959 -0.0167395 1.82375
4208 1 3.14354 39.0777 -1.43972 1.57467 6.62171 3.97462
4209 1 -1.08828 38.9808 10.0504 0.299157 1.84003 -1.18071
4210 1 0.409148 41.3125 9.47636 1.00136 -0.833449 3.41435
4211 1 3.10746 41.7286 9.53317 -2.43559 4.42905 0.428221
4212 1 4.05888 39.2637 9.0139 -1.61052 -2.40011 -4.72882
4213 1 -1.71319 39.054 5.9239 -4.57348 -3.81691 1.18574
4214 1 -0.0544254 41.2324 6.62774 -1.86544 -2.83306 2.12075
4215 1 2.47836 41.5132 5.32098 -5.7183 -2.83032 -0.134699
4216 1 3.63548 39.2739 6.25985 5.0716 3.35357 1.53948
4217 1 -3.15273 43.2826 -4.04929 1.08309 -2.85825 -2.80868
4218 1 -2.0526 45.2392 -5.56586 4.80722 4.11699 -0.307484
4219 1 0.593999 45.6398 -4.94024 2.61089 -2.31164 -0.624719
4220 1 2.20543 43.7606 -6.12787 0.878396 4.38987 4.68617
4221 1 -2.80745 43.7833 -7.84878 2.43562 1.90908 -2.78909
4222 1 -2.61709 46.0622 -9.32771 -2.92399 0.807775 -0.868546
4223 1 0.519119 46.7937 -8.88403 -0.698442 2.89431 -0.330207
4224 1 1.8161 43.9898 -8.87315 2.55021 1.56162 1.20565
4225 1 -2.10943 43.8038 3.2554 6.06788 -2.37684 2.0316
4226 1 -1.65366 46.3012 1.79116 -0.389869 1.65128 -2.93567
4227 1 1.24315 45.8203 2.36712 1.12569 -0.463668 2.60104
4228 1 2.81879 43.6887 1.22571 2.99256 0.348268 3.28096
4229 1 -2.54871 43.3122 -1.24034 -4.1655 -3.06449 2.49949
4230 1 -1.37029 45.8096 -0.954747 -2.65404 1.04508 0.717107
4231 1 1.26456 45.8177 -2.26966 0.186835 -3.07377 -0.989505
4232 1 2.7311 43.5477 -1.59319 -3.93066 0.644595 0.493268
4233 1 -0.932168 43.2742 10.5011 -2.23758 -0.198345 -0.0182389
4234 1 0.0998541 45.654 10.031 -2.3299 4.62085 -1.73686
4235 1 2.9821 45.87 10.0724 -2.87514 3.43162 -1.18509
4236 1 4.40549 44.0168 8.52329 0.810605 2.88424 -1.46068
4237 1 -1.8265 43.6242 6.12318 2.42819 -4.88959 -0.234264
4238 1 -0.227056 45.5708 7.31454 -3.19633 -0.98604 1.25418
4239 1 1.71298 46.0449 5.17768 -0.579659 1.47853 2.58515
4240 1 3.54338 44.0523 5.86297 -2.91172 -2.06382 2.53616
4241 1 5.10118 25.498 -5.9927 -1.10698 -2.00763 6.84073
4242 1 6.55164 27.8923 -6.99712 0.690924 -0.441143 -0.413408
4243 1 9.2221 28.0603 -5.92029 -3.76015 1.63418 2.05335
4244 1 10.188 25.5072 -6.731 -0.583317 -2.00956 -1.28468
4245 1 5.07074 25.6077 -10.0064 0.237711 -1.86682 -1.87785
4246 1 6.76414 27.8388 -9.79138 1.57104 2.60085 -0.00800816
4247 1 9.58607 27.3898 -10.1106 5.49594 4.24935 4.86613
4248 1 10.8161 24.982 -9.5769 3.61556 -1.14946 -2.60602
4249 1 6.32422 25.5994 1.6657 -0.857773 1.62738 0.634289
4250 1 7.57214 27.9911 0.742422 -0.532382 0.962386 -4.14783
4251 1 10.2231 28.185 1.81431 1.70049 -1.54522 0.301554
4252 1 11.3889 26.0811 0.225123 -4.22506 2.09706 6.46694
4253 1 5.80897 25.6007 -3.1507 2.08663 0.511067 -0.738131
4254 1 7.1331 27.7542 -1.95793 3.7154 2.03404 -0.316032
4255 1 9.7812 27.8969 -3.18858 1.93533 0.913422 6.24166
4256 1 11.3102 25.5982 -2.50121 1.49543 -0.561647 3.45906
4257 1 6.45064 25.2863 9.71736 -1.1153 -1.44858 1.8529
4258 1 7.89815 27.2574 8.36619 -3.46572 -0.0977833 2.54712
4259 1 10.3803 27.0026 9.62361 2.67886 4.32121 -1.51203
4260 1 12.8202 26.1897 7.9229 0.28193 -0.744469 2.33493
4261 1 6.50874 25.4266 4.32489 4.7543 -2.0694 1.85017
4262 1 7.57739 27.828 5.59135 -0.506867 -0.853514 -5.05907
4263 1 10.3621 27.9167 4.48959 0.0639919 0.673235 -2.78376
4264 1 11.6089 25.6272 5.41408 -0.0390382 -1.72602 -0.305683
4265 1 5.33798 29.9747 -5.54943 -1.33597 3.8804 -0.364057
4266 1 6.81127 32.3418 -6.34844 0.360943 0.294049 -0.855518
4267 1 9.64506 32.38 -6.05447 -4.66597 -5.28285 -0.0324507
4268 1 10.5171 30.1232 -7.19452 -1.16287 0.225263 -3.67846
4269 1 4.79632 29.766 -10.0833 -0.784694 0.65184 -2.06368
4270 1 6.40242 31.8076 -9.08388 -1.59765 0.772508 4.03362
4271 1 8.77485 32.0205 -10.5635 -3.30054 -1.78709 -2.34314
4272 1 10.4956 30.0318 -9.83161 1.39607 0.50777 0.777764
4273 1 5.92958 30.1401 1.81421 1.9604 5.52867 0.687589
4274 1 7.39749 32.3149 0.750036 3.42826 3.31254 -0.826617
4275 1 9.92678 32.6866 1.56066 -3.34576 1.34355 -4.0175
4276 1 10.7599 30.3503 0.333622 0.462749 -2.44607 0.112353
4277 1 5.5304 30.0481 -2.69479 -2.99687 0.537033 -1.78212
4278 1 7.07505 32.4214 -2.01771 -2.73101 5.04027 -3.11552
4279 1 9.69953 32.45 -3.23734 3.77464 1.39233 0.679448
4280 1 11.2818 30.1796 -2.40546 -7.23675 -2.43478 -1.87888
4281 1 6.95561 29.8895 8.97444 -4.65044 -0.292901 -6.21359
4282 1 8.13887 32.3674 8.29607 0.77023 -1.26388 3.31029
4283 1 10.8516 32.035 8.4618 0.204429 1.03656 3.28355
4284 1 12.2107 29.2025 8.43654 3.14068 -0.0651738 -2.32325
4285 1 6.17665 30.0409 4.48627 1.80419 -0.634425 1.08131
4286 1 7.8069 32.2548 5.34494 1.13552 2.65804 -1.4423
4287 1 10.4243 32.5372 4.51435 5.09105 1.14386 0.742715
4288 1 10.9521 30.2218 6.02734 0.174998 -1.352 1.90981
4289 1 5.36263 34.7233 -5.40774 3.25212 -2.96449 -0.612921
4290 1 6.29342 37.0291 -6.74899 1.86293 -0.82624 0.277981
4291 1 9.25044 36.9519 -5.98679 -6.94874 -2.15741 -0.699571
4292 1 10.8434 34.8557 -7.14182 0.191164 -3.67142 -0.0436101
4293 1 4.92389 34.2024 -9.91775 2.35964 -1.94871 -1.08384
4294 1 5.96878 36.8333 -9.51627 -1.31732 -0.325001 4.82716
4295 1 8.37979 36.4308 -11.0159 1.35705 -2.70089 1.17036
4296 1 10.0668 34.4016 -9.93442 1.96897 3.2827 -3.85827
4297 1 6.03616 34.3629 1.93479 -2.13703 -2.31703 1.50578
4298 1 6.9447 36.8604 1.45675 6.15758 1.97875 2.8266
4299 1 9.88341 36.9125 2.00673 -2.52775 -0.681226 2.66478
4300 1 10.9588 34.9395 0.409264 1.99697 2.11016 -2.61353
4301 1 5.30547 34.5005 -2.4313 -1.3734 -3.86655 -3.05181
4302 1 6.91419 36.9494 -1.46596 -2.66666 2.71175 2.18517
4303 1 9.13589 37.162 -3.24634 -1.92107 -0.598776 -0.629553
4304 1 10.5814 34.9948 -2.36229 -3.75217 0.378976 0.414239
4305 1 6.95822 34.716 9.10897 -0.262494 1.96807 -3.00196
4306 1 8.40907 36.9492 8.44915 2.93936 -3.52454 -1.8721
4307 1 11.2112 36.5756 9.30316 -4.72698 6.33929 6.04777
4308 1 12.1564 34.4248 8.20627 0.496355 0.267438 -3.5079
4309 1 6.53045 34.5603 4.50324 -7.83025 0.392814 0.777742
4310 1 7.55199 36.794 5.80996 0.392233 -7.37053 -3.36798
4311 1 10.0585 36.9249 4.71222 0.934274 -0.148861 -1.28027
4312 1 11.6324 34.8361 5.51694 -0.0879162 -4.63678 1.61974
4313 1 5.26072 39.3006 -5.61088 -0.636165 3.42477 0.283862
4314 1 6.09423 41.5895 -6.76518 -1.21921 4.84285 0.310381
4315 1 8.85112 41.4634 -5.90389 -1.06081 2.29991 0.712767
4316 1 9.26515 39.0426 -7.55129 0.204323 -2.56035 -3.03935
4317 1 4.47701 38.9106 -10.3109 -7.24548 1.41326 -1.66909
4318 1 5.42128 41.458 -9.56692 -1.54124 3.13152 -1.15647
4319 1 7.96237 41.3596 -11.0649 -3.43648 -3.29636 -4.32043
4320 1 9.22764 38.8246 -10.3848 4.9854 4.18626 -4.83047
4321 1 5.94669 39.3107 2.15555 -0.557249 -4.12256 2.9908
4322 1 7.14848 41.4337 0.797025 -2.90658 -3.82294 2.90133
4323 1 9.64501 41.8286 1.65199 6.72495 -0.746625 0.686464
4324 1 10.5561 39.4537 0.684304 -2.94462 0.129709 1.57299
4325 1 5.52227 38.9949 -2.83228 0.654675 2.54199 0.608702
4326 1 6.92079 41.1237 -1.88849 0.270392 -1.40001 -0.95735
4327 1 9.22856 41.4616 -3.18305 2.46228 -1.29492 -2.00573
4328 1 10.8912 39.3403 -2.17394 -1.65252 4.39084 -2.25301
4329 1 7.01837 39.3374 9.07519 1.25909 -4.99506 -0.399157
4330 1 8.15727 41.9268 8.32363 2.78003 1.10195 -2.96599
4331 1 10.5368 41.7683 9.54804 -1.6841 1.38111 1.1246
4332 1 11.3749 39.4537 8.29558 -5.23892 0.735306 0.548416
4333 1 6.28749 39.3313 5.05233 -3.59701 2.38549 -4.04202
4334 1 7.73003 41.6333 5.50173 -1.55132 2.53547 0.88977
4335 1 10.1089 41.6378 4.37591 0.360322 1.91897 -0.128786
4336 1 11.2777 39.4755 5.51975 2.16884 -1.00106 -0.725851
4337 1 4.91236 43.7226 -5.6127 -0.714356 0.78204 -0.6348
4338 1 6.58489 46.0286 -6.00955 1.99175 0.514285 0.977136
4339 1 9.43607 46.1129 -6.24214 -2.27155 2.15527 -0.972413
4340 1 9.90275 43.6259 -7.32698 -2.66842 -2.26266 -2.02509
4341 1 4.10948 43.7799 -10.1933 4.50286 0.0059794 2.97567
4342 1 5.64049 45.5083 -11.4986 0.284186 1.26621 0.682382
4343 1 8.31904 45.8603 -11.3555 -3.07559 -0.178908 2.7963
4344 1 9.56904 43.5778 -10.0629 1.77439 0.388392 -3.0098
4345 1 5.43742 43.7036 1.98946 1.90946 0.465152 -0.441408
4346 1 6.26829 46.2504 1.18935 2.6113 -0.80198 -5.53582
4347 1 9.06308 46.0778 1.21142 2.63461 6.87939 2.1307
4348 1 10.3698 43.9605 0.101853 1.2643 0.67157 -2.31327
4349 1 5.34016 43.3233 -2.79719 6.73203 3.28349 -0.333243
4350 1 6.51722 45.8787 -3.14172 -1.27997 -1.38095 -3.04284
4351 1 9.2914 46.333 -3.38415 0.350978 3.45137 0.604489
4352 1 10.387 43.7703 -2.6146 5.06289 0.95637 5.0444
4353 1 6.99264 44.4911 9.23611 -1.03574 -2.28864 -2.95643
4354 1 7.63879 46.5408 7.6117 5.10121 0.0946353 -2.80194
4355 1 10.0624 46.4193 9.19023 -0.258264 -1.35678 -1.33991
4356 1 11.1463 44.0761 8.145 1.67411 -4.33456 -2.10006
4357 1 5.97942 43.6833 4.76381 -2.58689 0.0405891 -1.43365
4358 1 7.159 46.1993 4.92815 -2.14424 2.39708 -0.266213
4359 1 9.82433 46.3443 3.96805 0.563641 -2.21623 6.96858
4360 1 10.7624 44.0768 5.25968 -3.61459 -0.830111 -2.47217
