ITEM: TIMESTEP
4000
ITEM: NUMBER OF ATOMS
4360
ITEM: BOX BOUNDS pp pp pp
-2.4470374778958146e+01 2.3661210678958145e+01
-2.4594901837677433e+01 4.7111337437691830e+01
-2.4069892590043324e+01 2.4061690990043321e+01
ITEM: ATOMS id type x y z vx vy vz
1 1 -23.3814 -20.2924 11.1905 -1.28838 1.89126 -5.19033
2 1 -6.18425 16.0667 0.381786 1.81131 2.23784 1.2518
3 1 7.17023 -8.53476 -20.976 -1.50229 0.135059 0.0289411
4 1 1.85654 -2.50184 -7.32193 2.04611 -3.85929 -4.01865
5 1 -19.7685 -21.0243 22.817 2.19867 0.452466 -2.29575
6 1 2.02039 16.3092 18.0501 -0.716613 -2.41052 1.18477
7 1 8.6153 22.3242 7.20097 0.30338 -0.152487 3.27877
8 1 -22.4902 -10.6638 -15.6999 -0.492417 1.21419 2.67615
9 1 -13.6548 4.7672 4.08965 -0.718047 1.13677 -2.7485
10 1 -2.10631 -5.56007 13.9809 4.53328 1.65565 9.34254
11 1 3.6178 -11.6673 14.9346 0.29023 2.49094 -2.05362
12 1 20.3755 -6.52604 -20.4853 -0.235034 3.36399 0.486653
13 1 -21.6505 -13.8709 16.842 -4.92729 3.21736 -2.69535
14 1 9.67209 2.05038 -7.43452 -1.43529 -0.616019 3.90241
15 1 -4.02931 -0.703575 -15.1739 4.74962 -5.48227 -4.16295
16 1 -19.3586 -1.08552 6.62725 0.394759 1.8348 1.17711
17 1 17.2294 -10.0377 15.5313 3.56139 -0.669464 3.06681
18 1 20.2819 23.0171 5.61301 0.878533 2.11602 -2.6403
19 1 -15.1307 23.4118 20.8385 1.10942 -0.58953 1.48613
20 1 18.2658 4.19411 17.3436 0.478161 0.110951 0.0290481
21 1 -22.8135 1.04589 11.1569 -3.52367 -6.1623 3.19762
22 1 -10.6305 -0.545343 -15.7235 -7.52372 -1.22992 4.52342
23 1 -11.5147 46.3658 20.5113 -4.3681 0.0341162 0.150368
24 1 10.6254 19.329 -5.17907 -1.34206 2.80407 -2.38813
25 1 8.36578 22.3558 16.367 3.69935 3.90155 0.320161
26 1 -0.485186 15.2613 10.2771 -0.982485 -0.494827 2.10875
27 1 -17.3707 6.86575 -0.840898 0.553985 -0.380869 -0.0856497
28 1 -20.5673 2.35807 4.63708 5.39784 3.11032 1.28931
29 1 -7.23854 -12.6989 -9.44216 2.98758 1.0897 2.6036
30 1 21.3781 -0.988161 -22.7034 2.82035 -2.45456 1.34845
31 1 4.14067 -15.5324 -18.9812 -5.44974 -3.18526 4.42246
32 1 -9.44979 12.7662 -21.6347 1.42741 0.950734 -1.99675
33 1 2.34322 1.38573 -11.6709 1.24122 1.35665 2.13232
34 1 -20.4716 -22.6718 13.8156 -4.43521 -0.576354 -6.62686
35 1 19.6396 6.63735 12.9069 -2.3994 -1.0952 2.67917
36 1 -13.2448 20.1339 -18.0034 -3.38978 1.95627 0.749329
37 1 -11.4193 -7.49206 -4.35616 2.72238 -1.15353 -1.12138
38 1 20.5778 11.3318 9.65647 1.81257 -3.81383 3.58614
39 1 -1.64385 9.56054 -22.5987 3.71935 2.84663 -4.78355
40 1 0.882951 1.07312 -17.2765 1.6299 -2.32401 0.526411
41 1 6.05527 -5.3383 -10.6072 0.691722 -5.2829 -2.38661
42 1 -18.1871 -15.2602 1.29852 4.82657 -7.75743 4.49445
43 1 -13.2137 -4.49586 2.81449 6.36722 -3.06517 4.22001
44 1 -2.32933 -16.2769 -8.21724 1.57147 -0.295814 3.02076
45 1 -12.0514 12.3656 -4.18096 1.36365 2.87152 -2.414
46 1 -22.725 -22.1288 15.663 -1.09246 2.09997 -0.876144
47 1 -6.70804 5.00294 19.29 0.228126 1.94481 4.20858
48 1 7.89562 5.65145 -5.42092 0.0113258 -2.44724 0.24602
49 1 22.2671 10.4007 4.62441 5.96278 0.615869 1.00097
50 1 14.8354 -20.0367 14.015 1.30565 1.51645 0.436477
51 1 -8.76588 -5.18554 18.975 -0.901569 -0.232341 0.447851
52 1 14.7395 3.33 -14.2803 0.424003 -4.32399 4.36445
53 1 -1.26095 19.8847 8.69938 -4.37542 1.61309 -0.819437
54 1 -17.2272 -12.3425 -10.019 0.604324 3.34908 1.40056
55 1 -6.39735 -1.64186 -16.7747 1.21635 -1.12178 -2.74276
56 1 -14.5777 7.25008 3.33381 -4.77983 -2.01487 -3.35362
57 1 -14.1198 -8.76209 -4.27814 0.373621 -2.32545 0.209893
58 1 4.42549 -19.9756 -4.05677 1.77962 0.785882 1.25102
59 1 -21.212 11.3025 20.9181 -3.79794 -2.2834 2.55301
60 1 1.22342 16.317 24.1563 -1.72541 0.63383 4.55291
61 1 -12.55 -0.0668508 1.63732 4.70677 2.22947 -0.38661
62 1 -1.20631 -10.2115 15.7826 0.247879 5.42482 1.86035
63 1 -1.81424 10.5148 -15.3114 -0.296422 3.29365 -2.01288
64 1 -7.44867 -2.93788 -0.033875 2.19127 0.134986 0.0556449
65 1 18.6501 -3.19701 8.38648 5.69565 -0.370496 -2.22408
66 1 -11.7396 -18.5108 -12.7904 3.37609 -1.8484 -2.0537
67 1 -13.5921 25.6745 -11.4894 -5.24294 4.90562 1.21091
68 1 -2.81225 14.9262 -20.7111 -1.86308 -0.379916 6.347
69 1 -7.98738 13.5556 9.41054 -5.17158 -2.07784 -0.800585
70 1 -17.5375 15.5473 -17.9683 -1.81963 3.27607 -0.635561
71 1 -10.7884 4.13437 0.9269 -7.16827 2.46765 2.82387
72 1 22.9984 14.5144 20.1971 0.332393 -3.45628 3.3392
73 1 -12.755 -17.2254 13.879 0.358164 -0.823634 -5.31813
74 1 0.47674 10.8713 -13.4686 -0.733591 1.37505 -0.301496
75 1 -19.7096 1.31429 -13.5017 2.05272 -4.62386 -4.56297
76 1 -23.423 -4.89756 1.08175 1.85819 2.11533 3.81268
77 1 13.7837 -23.0598 -0.595005 -0.413059 -1.69962 0.199366
78 1 -18.9202 12.7892 -9.53119 8.10374 2.64051 3.70084
79 1 -22.0434 -0.493638 -15.9171 -2.46717 2.46431 -1.54994
80 1 -12.902 15.709 -13.662 0.791941 1.12042 1.51245
81 1 1.78176 -9.11119 -13.8297 -1.421 -1.82347 -2.61248
82 1 6.58427 -23.3636 4.94381 -2.27537 -0.746314 0.543895
83 1 -21.1145 12.5058 -0.311149 1.81177 3.10494 -2.44053
84 1 21.5079 23.8997 21.507 1.17794 1.74522 -0.446669
85 1 6.19152 13.1107 -3.40761 1.79908 -0.358845 2.15189
86 1 12.2627 7.04762 15.1065 3.05912 -0.236755 0.508673
87 1 1.34365 18.1899 -7.75577 1.54958 1.69897 4.35352
88 1 -10.5575 21.7813 -19.558 -2.34948 4.20239 -1.32431
89 1 -11.1038 -3.24025 21.9041 -2.24424 -4.73357 -0.713597
90 1 8.57449 -2.72288 6.55884 1.66829 -3.26074 4.90075
91 1 18.4482 18.744 -17.732 1.69094 3.4721 -1.00414
92 1 15.9931 -23.7943 1.18906 0.979186 -5.99177 2.74995
93 1 -19.2342 -24.2393 15.9044 -0.721971 -1.05728 -1.15677
94 1 21.4429 0.846166 -10.6771 0.573779 1.82652 -1.94252
95 1 -0.0689056 -4.54569 -9.88591 -0.504784 -0.513753 1.98105
96 1 -23.4104 -16.7357 21.5951 -1.73335 -3.86983 -2.92276
97 1 -8.31422 -14.5769 -19.829 2.20195 2.21161 1.33904
98 1 -2.34536 14.6057 12.2929 -3.39734 -3.83123 -0.876878
99 1 16.0532 -23.2428 -4.96468 -4.98921 -4.25957 -4.19053
100 1 -22.7122 -14.9178 23.7819 1.51158 0.988393 -2.33309
101 1 0.85487 -20.6705 -8.98305 2.77327 -1.67345 -2.64289
102 1 3.64291 2.68816 3.96613 -3.30495 -0.0869824 4.90378
103 1 18.836 24.9641 21.0612 -0.637474 5.39808 0.236883
104 1 -13.13 -22.7962 -10.353 -1.14693 -4.00682 0.333039
105 1 5.42086 21.2404 -18.5579 -3.23817 3.71183 -3.36666
106 1 15.5666 1.64336 9.4418 -2.77041 -1.72716 5.11192
107 1 20.1796 -2.32456 17.2758 -0.237509 0.993128 -0.758707
108 1 -10.0059 3.56374 -23.8738 -3.21901 -2.66636 -3.66134
109 1 -12.2693 16.4877 -16.322 0.899724 1.50568 1.37778
110 1 9.69197 -13.7489 -7.23143 -3.2959 -1.69786 -4.81318
111 1 21.0351 -6.43717 -11.1836 1.24279 2.79835 8.70931
112 1 -16.4449 -0.980779 -22.2772 -0.0411285 1.80032 2.11542
113 1 -3.0032 -8.21859 18.8946 2.48256 3.25293 -3.23392
114 1 -20.2547 -20.0096 18.151 -2.74493 2.02185 3.27453
115 1 9.65049 9.93461 6.02496 0.206815 0.361531 3.55015
116 1 1.57339 -16.0855 -15.7009 -0.206635 -0.954087 -3.29577
117 1 20.8854 17.7625 -19.1723 6.38705 0.80557 -0.183905
118 1 5.70279 -17.3944 -10.1321 -2.73467 0.590335 1.56374
119 1 14.8565 11.7981 -8.2007 0.27013 -0.212249 -3.15505
120 1 3.12562 -0.832231 17.2219 -6.12072 0.881437 1.67425
121 1 -6.50425 -18.9753 20.5527 2.23742 -3.22074 1.59657
122 1 -9.01197 5.29713 20.7818 -0.648762 -0.645468 2.51246
123 1 12.1929 14.129 9.90895 4.82663 0.932629 0.30155
124 1 21.5955 -21.5684 -14.1414 1.90573 0.758429 1.45828
125 1 17.8568 9.06284 1.52969 2.24046 -3.3909 1.11396
126 1 -9.81014 -1.82586 -6.10058 -3.17591 0.643913 2.50824
127 1 9.40052 0.634332 14.1057 -1.77581 5.09249 -1.97481
128 1 -17.5282 -1.4959 -7.48753 0.48418 4.05163 -2.94186
129 1 16.3425 -10.0204 3.46684 2.93005 -2.2053 -4.14247
130 1 -9.93008 16.4248 -20.1543 -2.85295 0.628229 1.15564
131 1 2.23293 -7.41497 -20.1367 -3.7779 -0.164911 -1.72878
132 1 -5.34747 -4.57811 -22.448 6.19427 -1.42677 1.82344
133 1 -18.2466 5.04218 18.3005 -2.91653 6.06935 -1.5115
134 1 19.8929 -8.13502 -22.7095 -2.76078 -1.40658 2.1511
135 1 -12.7929 -5.63673 -22.4587 3.18807 0.961803 -0.0355223
136 1 -0.633627 5.52447 -4.69977 0.00372517 -0.682617 3.4287
137 1 -14.3449 7.34727 -15.1249 3.06722 -1.08034 0.883809
138 1 12.7931 17.2778 4.91202 -4.46644 -4.19732 -2.53851
139 1 -19.222 -21.128 -17.8559 0.0511798 -0.740902 -2.32957
140 1 3.95708 -7.90646 20.5672 -2.29834 -1.70955 -0.0334399
141 1 11.6572 -15.7684 2.60247 1.19283 -0.214707 0.976847
142 1 9.53192 3.13362 22.7253 2.1423 1.0994 -1.05269
143 1 -3.43027 -0.524853 -5.7325 -0.452091 3.17785 -0.373062
144 1 -20.6179 -8.58683 -14.5614 -3.72903 -3.09267 2.33039
145 1 13.7739 6.97543 22.9368 -3.55427 3.25805 3.10726
146 1 -11.3802 -9.37327 15.0169 2.2864 -3.11079 0.22393
147 1 9.0904 19.2376 3.80292 -1.78616 -2.85866 -0.276827
148 1 -18.092 13.575 11.0477 -0.520759 4.33839 -2.66375
149 1 -19.1173 46.8826 -20.1123 -0.138104 2.90493 1.5248
150 1 20.177 10.3008 20.0769 -4.14565 0.181392 3.23021
151 1 18.6463 1.50392 23.1184 2.86727 2.78839 -0.398568
152 1 -5.63046 -3.71336 17.501 1.96691 1.27158 1.09258
153 1 9.81546 -14.7601 -2.89913 2.88038 1.32172 -0.989274
154 1 -7.37573 19.0424 -4.51262 -1.55015 -7.10805 -1.34277
155 1 23.0987 -21.8518 -18.4597 1.36494 -0.250171 -2.36657
156 1 15.7181 11.1108 17.3555 0.266466 -0.533295 -0.0544013
157 1 13.7208 -13.4088 -14.0413 2.85663 2.18259 -2.59217
158 1 10.2061 8.13854 3.74573 0.569702 1.95121 -2.96502
159 1 -20.3709 -13.3332 12.6537 -0.983717 1.29638 0.127265
160 1 -2.71076 -14.0891 -4.67301 3.56469 2.65994 3.64781
161 1 18.2677 -0.170454 -14.6418 -3.07621 3.57797 2.80004
162 1 -14.9138 -9.64298 20.2851 -3.6068 1.72923 -3.03337
163 1 1.58715 1.55185 16.7333 1.54589 -1.69693 4.26475
164 1 19.5148 9.56023 12.9644 -0.205975 1.80715 -1.856
165 1 -20.113 11.2802 18.0506 0.0618742 -7.92922 -1.51804
166 1 10.4978 19.9989 -22.1653 2.39458 -1.33793 -1.06863
167 1 -12.277 2.36269 -2.13124 1.84235 4.72486 0.199949
168 1 -23.8627 22.8121 -4.33478 -0.0946657 1.72203 -2.10793
169 1 5.01514 24.1379 -12.9308 3.20484 1.20002 1.53997
170 1 -7.28938 -16.2417 -14.0121 2.42814 4.26301 -0.308398
171 1 -16.1967 2.97964 15.8846 7.07984 -2.68232 0.192276
172 1 -19.5504 20.7842 -19.283 1.39893 -0.473566 1.12194
173 1 -23.1961 1.45064 21.4208 3.93036 -2.2363 5.21665
174 1 -20.7884 6.23958 -21.3116 -0.745594 2.77852 7.12427
175 1 11.0885 18.9032 6.71947 -1.70067 6.20668 -4.07299
176 1 -3.78346 22.3677 -2.8093 -3.39139 3.72536 -1.21654
177 1 -5.36686 -15.7145 12.9784 1.2363 -1.37377 -8.15155
178 1 -16.7414 11.0944 4.61649 -0.838737 -0.601755 -3.09799
179 1 -7.3839 -8.68132 -13.0607 0.400492 1.0355 -3.55156
180 1 -23.2121 20.5368 10.6079 1.20409 -0.530223 1.06486
181 1 -3.12757 -5.70796 -20.5531 2.91878 -0.219887 0.650956
182 1 -23.0722 -1.94907 14.8282 -1.05859 1.12459 -5.3077
183 1 21.4035 12.2909 -2.54988 1.8874 -3.12794 0.139839
184 1 2.47113 -22.8186 -22.0558 -2.71743 1.41862 -3.13516
185 1 22.6671 21.5888 14.8383 -3.09625 2.36996 0.342245
186 1 14.8702 23.8287 -10.182 0.34682 -5.19779 -0.322154
187 1 -11.7044 8.93919 -7.28663 1.41526 -2.83608 3.98277
188 1 7.2114 -20.1004 -2.95312 -2.11722 -3.23659 -1.98115
189 1 -3.81933 -4.04771 0.971154 1.34489 -0.174073 0.461296
190 1 -16.4628 9.73188 -11.4973 2.94253 3.86361 -5.39525
191 1 5.03789 -5.54381 -22.0747 -1.64459 -0.653607 -0.723004
192 1 9.28561 5.77849 -2.92237 -4.63007 -1.6656 2.28721
193 1 10.3883 1.17002 4.22891 -0.00968478 -3.29558 2.07664
194 1 0.788822 24.2049 -22.1594 -5.04587 -4.08914 1.79565
195 1 6.27472 -0.222764 -7.48957 -4.0441 1.48387 2.98817
196 1 -15.9656 22.3854 6.62295 -0.634872 2.43243 2.87465
197 1 -23.6176 -3.89506 21.5706 6.68536 -0.272183 0.0625877
198 1 -10.4779 -20.7187 -18.8606 -5.62221 -1.57798 0.0536461
199 1 -21.8864 -4.24588 -11.3806 -2.50958 0.126325 5.23268
200 1 13.8942 5.81663 -15.9442 4.29762 1.79279 -0.377434
201 1 5.65776 4.98408 24.1969 -0.624243 -1.2587 -0.322741
202 1 12.4195 14.9091 12.8285 -1.97702 -1.57407 1.19805
203 1 -23.8284 17.7985 6.77837 -1.70568 2.58048 3.49233
204 1 -3.89211 -14.9707 -11.5211 2.15782 1.94247 0.501445
205 1 16.4847 -6.06368 11.8249 0.11881 0.276934 2.03535
206 1 -3.21921 -14.785 -20.8359 1.34236 0.368971 2.87584
207 1 -8.43527 7.24037 22.279 -2.68634 -2.01849 -1.74835
208 1 2.70011 -4.57783 16.0292 4.1043 -1.80016 -3.27156
209 1 -6.62581 16.286 -15.9123 1.36306 1.36289 -1.90882
210 1 -17.9842 12.2463 -0.366405 -1.61273 3.92118 0.0499183
211 1 17.2914 -1.00753 6.63793 4.77282 -3.75806 2.99698
212 1 -13.5871 25.5483 -4.2189 1.39876 2.41107 -1.65032
213 1 -19.6548 -19.6537 -0.618185 4.62274 -1.32402 -1.73412
214 1 16.5694 -4.51727 -20.3556 -2.14074 -0.912529 -1.85165
215 1 9.64441 20.1372 15.5365 0.246027 -0.305275 7.8225
216 1 -18.9139 46.8885 7.24332 4.82008 7.4552 -2.22801
217 1 6.35075 22.7128 8.95 -2.76183 -1.29145 -0.0146878
218 1 11.2822 3.80565 -3.24259 -2.59858 2.38573 1.32572
219 1 -5.29296 24.4026 20.1035 -0.505237 -1.40635 1.58768
220 1 5.65602 18.1793 14.2103 0.274655 -2.04502 3.1814
221 1 -16.775 1.40427 -0.655589 -1.88669 -2.97548 -1.49066
222 1 -12.6589 -8.62136 -0.738924 -0.660488 -1.14354 -1.89013
223 1 -23.4735 -6.41067 -1.40372 0.911374 5.01824 -1.23023
224 1 -13.0017 -3.22508 23.9291 -0.714316 -0.461604 -0.945623
225 1 3.59125 -11.1561 -5.36617 -0.935483 1.35242 -1.05115
226 1 22.7443 13.6289 -13.5906 -4.89747 0.21899 2.62535
227 1 16.8965 16.9984 2.56534 2.40132 -3.0575 1.01043
228 1 -10.4455 19.4155 0.535515 -2.01633 1.50168 2.15518
229 1 11.0334 10.8042 -10.0666 3.20463 -0.442407 2.47979
230 1 -7.9583 15.9483 19.2615 -0.628362 6.99591 -0.147295
231 1 23.4858 -2.93588 -22.1252 -0.0871637 1.06017 4.74562
232 1 -3.16475 -12.8085 8.54797 -1.5616 -2.03535 0.544755
233 1 -11.4211 14.7411 10.6939 0.0699417 4.39625 3.07179
234 1 -5.37597 18.4113 7.18823 -1.27869 0.789838 -3.74013
235 1 -21.6415 -1.30825 -8.24504 3.26458 -0.352475 4.60839
236 1 17.1644 -8.94707 8.35961 -4.54311 1.1881 2.32139
237 1 -17.2189 20.3589 2.08895 3.81529 1.70628 -0.273332
238 1 14.9298 -1.26456 23.3645 3.90804 4.3501 -0.159348
239 1 -19.774 19.8476 17.7184 -0.0908255 5.29331 -4.39794
240 1 11.2158 2.02414 15.7819 0.965121 -0.69303 -2.31856
241 1 -24.0591 -13.2199 11.3497 4.6375 -0.153031 -3.20312
242 1 -7.72505 -3.9763 -11.4188 -3.90101 -0.0477894 -7.25169
243 1 -7.09775 -7.53591 9.48862 -2.245 -1.81115 -6.76259
244 1 -22.7802 8.89084 -23.869 5.68738 1.2637 0.336708
245 1 -9.29494 24.944 -11.8007 0.860148 0.399541 3.00816
246 1 7.60977 5.01088 21.5507 -2.87989 -0.526986 3.50935
247 1 20.8163 -4.84488 13.6119 -0.117668 4.94561 -0.103645
248 1 -17.6817 6.74695 -14.7077 0.79369 2.02831 0.996043
249 1 -5.02598 -17.5343 9.87721 -0.644319 -0.393112 0.461916
250 1 -0.0446065 -0.702604 6.13262 -0.557055 0.0859447 -0.369532
251 1 -22.2959 -1.75445 -22.5234 4.5781 -3.60858 3.03528
252 1 19.2172 16.6325 -10.3512 -2.14388 -3.43199 2.5173
253 1 -1.54012 -3.69088 -22.2887 4.54177 -3.66379 -7.14597
254 1 7.40304 -13.3082 -8.90355 -4.05605 -2.55471 5.55276
255 1 -22.4277 -22.6046 9.80876 0.491064 4.72269 2.56148
256 1 -12.1698 -4.19221 -9.99255 4.01786 0.319147 2.30833
257 1 -4.25669 5.92635 -17.9922 -1.92545 -0.687157 -1.43624
258 1 -5.81613 -2.45415 -5.44476 4.09818 -1.55669 2.6768
259 1 17.1954 -18.9837 -17.6902 0.992999 -5.47511 0.630773
260 1 15.8261 8.12865 -3.42438 0.843516 -2.9014 3.39489
261 1 -1.2879 -23.863 11.1162 -4.32211 -0.522147 -1.30128
262 1 17.7692 19.2489 9.92221 -0.00718849 -3.67604 1.50678
263 1 -21.3406 7.55922 -6.80469 -0.0729291 -4.83061 0.542211
264 1 20.4953 2.52047 18.7919 -0.0349472 -0.483172 -5.28259
265 1 14.3012 -17.4335 -6.22105 -3.08495 -4.59747 1.10697
266 1 22.3888 4.72439 -15.3266 -3.14576 -1.80086 0.414147
267 1 -12.4552 21.5071 -10.2734 -1.78273 -0.124326 -0.842853
268 1 -21.482 17.171 -10.9218 -2.04986 4.01078 -2.47522
269 1 -18.343 -9.30074 -12.864 4.84436 -0.425363 -0.454095
270 1 -23.6448 -15.4754 18.648 1.23763 -3.77524 -0.446281
271 1 2.38938 23.7578 -13.6027 1.51075 3.16082 -0.315058
272 1 10.1999 -16.8085 10.0475 -0.731231 -4.75421 0.138535
273 1 -17.3567 -9.24447 13.4071 7.33091 -0.754341 1.02714
274 1 12.784 -12.6708 8.72449 1.40817 2.83658 0.560274
275 1 13.1069 23.1767 -20.1265 -5.81729 -0.096808 4.99436
276 1 21.9211 6.87163 -7.5936 -5.35052 -4.00616 2.83819
277 1 9.24774 -13.7205 -17.4044 -1.53186 0.670873 0.605038
278 1 19.8154 9.46672 17.2645 4.69135 -3.56626 -0.546621
279 1 -24.4145 -2.75484 -0.921497 -6.462 -1.6203 -0.751943
280 1 -3.21627 -19.9916 -11.3705 0.293858 -0.304626 3.34315
281 1 16.1119 20.5295 11.8856 0.684114 1.55015 -5.34939
282 1 11.8662 12.0969 12.0405 0.806123 0.717499 -2.0378
283 1 -6.29118 -22.0856 -21.6443 -3.41907 0.945316 2.84124
284 1 4.08006 14.9748 2.08793 3.60702 9.28127 -0.405489
285 1 -15.4764 18.4176 13.8623 2.73116 -2.63209 -1.96001
286 1 -3.75403 17.9047 -1.96068 1.48044 -1.19972 -1.41911
287 1 4.83323 -9.88769 -7.54109 1.13707 1.63143 0.581358
288 1 19.2894 24.7736 3.54556 -1.41026 0.857743 -2.07827
289 1 -3.7714 -20.5077 9.51021 3.10805 1.10384 -0.526284
290 1 -3.8657 -12.5059 -14.4705 -0.535057 -5.95177 2.99724
291 1 -11.4028 -17.5174 10.3943 3.36172 -2.75232 2.46746
292 1 15.1049 7.36015 1.19641 -3.50045 7.0384 -2.40672
293 1 13.9886 3.03499 12.7761 0.445777 -2.84844 -0.342932
294 1 -8.09416 2.00393 -1.14017 0.297122 0.290801 0.039176
295 1 0.456274 7.38411 8.68765 0.613964 -5.86049 2.15489
296 1 1.95122 14.831 -1.94365 3.34885 0.301787 -1.63338
297 1 20.7323 -10.0546 -6.94911 -3.12804 -3.62504 1.61221
298 1 13.7938 -21.2421 -20.38 0.283874 -0.808071 2.59931
299 1 4.91802 -22.689 -12.7862 -3.27724 -4.58897 1.02393
300 1 12.5473 -2.68288 18.2521 3.357 4.34224 0.0420857
301 1 -5.77985 21.6385 -22.1942 -1.85404 -2.28096 4.91423
302 1 0.200029 8.82868 -1.91247 0.201415 -0.928407 2.18894
303 1 -20.773 -20.8022 -7.96754 0.994488 1.93004 0.498497
304 1 -20.7895 -16.2177 12.6005 -3.87873 1.88737 -1.59567
305 1 2.4933 -20.2506 23.4809 0.304587 2.42086 1.37454
306 1 12.9773 20.5807 -11.219 2.1708 8.11849 -1.57826
307 1 11.8799 14.4456 22.69 5.36566 -0.895119 5.71748
308 1 -17.9158 -22.8696 3.63135 7.0916 -1.3986 1.18565
309 1 4.18491 -19.0781 21.324 1.41668 6.14466 -5.75415
310 1 1.47836 12.7415 12.728 -0.883348 2.76258 -0.934635
311 1 13.2807 -10.9864 0.295758 -2.20811 -2.77078 -2.54138
312 1 -2.778 1.47489 -8.62664 0.0801179 1.49738 0.174076
313 1 -17.8358 -16.631 -9.28442 -2.01103 0.983354 3.30075
314 1 -13.2673 5.34481 -9.89614 -0.323737 0.411211 -3.70885
315 1 -14.7842 -22.3921 3.61883 1.72363 0.388715 -0.674646
316 1 22.3212 -6.51342 1.83026 -3.02167 3.83441 1.0409
317 1 -9.06939 -10.3624 -22.1999 1.28874 1.20861 -6.32737
318 1 19.5241 -18.4003 20.5645 2.8462 -3.53034 -2.03344
319 1 -11.5694 2.04968 14.9479 -3.30092 -3.94319 0.227144
320 1 -2.14239 -1.97403 7.71855 -2.13403 -3.22535 -6.904
321 1 -20.6918 -12.3712 -14.4412 -0.46362 3.07528 1.36884
322 1 -10.5416 13.2837 -1.81943 1.65623 -3.70566 0.930562
323 1 -14.6309 -1.90688 2.9336 0.152691 0.593908 -8.23781
324 1 20.9973 3.99836 6.87824 -2.89356 1.84336 -1.51471
325 1 -1.12434 -21.8412 19.264 1.71642 -2.77029 1.19588
326 1 -16.4299 5.78235 1.70019 -4.00553 2.69644 -0.99886
327 1 -8.04848 -14.233 21.1474 2.91976 -0.0598885 0.952139
328 1 13.5124 21.2988 15.513 -1.38624 -0.166672 -3.09024
329 1 -0.366571 -0.189671 -11.7437 -0.418205 0.02509 1.38708
330 1 -15.2545 -23.3054 22.0211 2.75906 -3.89706 4.17005
331 1 12.3119 7.81274 1.61227 4.94724 -2.2688 1.57971
332 1 9.20474 0.05623 -9.28002 2.46451 0.529335 2.23417
333 1 7.3436 -10.9489 -15.7847 -0.496836 0.179475 1.95072
334 1 2.57009 -20.948 -2.16147 -4.6345 0.996119 -0.533996
335 1 23.2979 -22.0825 5.08848 -0.901665 2.08904 4.15225
336 1 19.1668 16.5632 -21.8161 -1.12131 -1.23221 4.31743
337 1 -16.9472 17.5669 1.33478 3.63139 0.777245 0.4593
338 1 6.06895 -10.0704 17.3121 0.374902 1.77729 -0.47519
339 1 -7.72953 -16.6418 -23.6696 3.58213 -1.93192 -5.09592
340 1 -15.1726 1.95186 -19.2161 6.51639 -4.4806 1.80743
341 1 -11.6187 2.01728 -16.4774 0.324683 -2.20619 1.25824
342 1 0.0678604 -16.5823 -9.83938 1.15921 0.588815 0.349541
343 1 -4.64405 -10.8908 -6.15078 6.08256 0.590391 -1.59487
344 1 10.7661 -13.2442 -13.4541 -0.663735 -4.32471 -4.25321
345 1 -12.1389 -5.38595 13.5144 2.67779 -3.44036 4.29908
346 1 17.9429 1.77011 6.67865 3.46348 -1.57665 -2.52191
347 1 20.581 -6.31458 7.60115 4.3524 4.92615 4.10828
348 1 -13.8659 -3.52845 9.13764 0.139623 -3.28699 1.86151
349 1 -8.27173 9.23509 19.9813 -0.241916 -2.87147 4.71502
350 1 -23.5475 21.2212 23.1251 -3.21607 -0.772315 0.263477
351 1 -18.125 4.31791 11.1631 -1.95837 2.16624 -5.01537
352 1 15.7664 0.744825 0.527795 3.37761 1.08459 2.1964
353 1 15.2357 -19.6791 -14.0755 -0.292994 4.25698 0.786826
354 1 8.73728 24.5952 -6.92381 1.33914 -2.2626 1.33922
355 1 -5.00018 -2.18081 6.77316 -0.872821 0.222331 -0.301385
356 1 -3.6837 -18.2577 -23.5972 1.74266 -3.39038 5.11785
357 1 -6.91202 -15.7109 1.21059 -2.44102 -0.663505 -2.11769
358 1 19.4686 -11.2108 14.3496 1.80056 -2.13406 -1.42731
359 1 -13.1116 -21.9932 -7.36581 1.94704 -1.58715 -6.12736
360 1 5.55837 16.4225 0.148283 1.68687 -1.36423 0.00180882
361 1 -20.4221 -20.9873 -4.8018 3.48509 3.01908 0.516135
362 1 -23.7631 12.5079 4.51382 -0.093754 5.03794 -6.68506
363 1 -18.7252 -18.5328 10.7265 4.98786 -0.210319 -1.70984
364 1 -12.5734 4.11933 -4.50215 -6.29039 -0.11425 6.19204
365 1 -0.746779 -17.396 18.3719 -0.975586 -2.54213 0.13788
366 1 -19.2804 -0.206049 -9.47429 3.20747 6.18376 1.59847
367 1 7.14398 18.8123 -17.5434 0.881966 1.20065 0.534413
368 1 3.47986 -6.21995 12.1856 -3.33147 1.79945 -5.83287
369 1 13.8148 8.05214 -12.1193 -0.504222 6.7287 4.90286
370 1 4.64221 -14.9989 -21.6632 -1.50065 1.28621 3.42153
371 1 -11.0444 46.9601 16.4266 0.107466 -1.61578 2.42201
372 1 -7.83734 21.6108 7.38107 -0.0920103 -2.39529 -0.713228
373 1 -16.4105 6.49784 22.181 0.715806 0.40011 0.0706318
374 1 -3.9756 20.2302 -11.3506 -0.329594 2.73426 1.40345
375 1 -21.7969 -5.77904 22.8605 2.62306 2.64119 -2.68716
376 1 -1.39526 -12.817 -15.8195 3.12323 -1.38918 0.372249
377 1 13.8341 -0.807321 13.6119 -5.39654 -1.19029 -0.201788
378 1 17.4063 -15.0334 -3.84423 1.8726 3.02569 2.26392
379 1 -22.7977 23.973 2.79789 -1.37453 -0.138344 2.86122
380 1 12.9817 16.1907 -20.4736 -2.14068 4.77454 -0.145381
381 1 23.3799 -12.7793 18.9945 2.03501 1.02374 0.793994
382 1 15.2014 17.7535 -1.31617 -2.58324 -3.56144 0.294565
383 1 12.2807 -23.6372 10.2168 3.631 7.87901 -0.112928
384 1 -10.4812 11.3604 -8.70156 -0.176533 1.33855 0.911176
385 1 -6.31526 1.50803 20.8214 -0.753245 3.88501 -0.798105
386 1 19.2434 -3.87866 -20.7773 -2.79228 -1.49448 -1.61172
387 1 7.1202 -20.4921 1.43475 4.20094 -3.24592 6.07165
388 1 -19.3643 -23.5988 21.746 3.12796 -3.9419 -1.039
389 1 -13.8702 8.33432 7.5667 -1.10006 -3.65991 -1.39374
390 1 11.1035 7.79943 7.64149 5.65495 0.018687 -3.35632
391 1 15.1881 1.89537 20.3928 -1.95897 -5.63691 -3.23524
392 1 17.3285 -10.675 18.4929 -2.54039 -2.37163 3.31532
393 1 -13.7569 -20.5695 -12.2477 1.54252 1.52866 -3.32374
394 1 -10.1314 10.8126 -5.6434 2.15034 1.1877 -2.78265
395 1 -8.68577 46.4313 17.8587 -1.04813 -4.99627 -0.738278
396 1 11.6579 -20.4292 1.02827 -0.211096 4.65025 -1.26967
397 1 3.55085 -20.6822 18.9753 -0.382349 2.59067 -0.836122
398 1 -24.2245 -22.8517 -7.06855 -1.1711 -4.19946 7.40395
399 1 11.4971 15.0741 1.72762 -0.770684 -2.25837 -4.83487
400 1 -23.052 -17.137 -2.88581 0.644999 -3.16305 2.01079
401 1 21.2465 -17.5344 -5.58829 -3.42588 2.18592 2.33135
402 1 -2.65686 7.46557 20.4411 -4.41672 0.600103 3.53209
403 1 13.362 0.908394 22.3944 3.85434 -1.08668 -0.592267
404 1 -17.5783 -2.86209 2.32348 -0.792091 1.04487 0.07538
405 1 6.41072 -23.572 -5.10079 -2.74275 -1.28366 -1.43192
406 1 -8.15399 -21.721 21.1437 2.40099 2.40571 1.0351
407 1 0.768656 -8.07999 15.2196 0.614699 1.53207 -4.45293
408 1 -1.28909 -0.629496 -18.1341 -0.476826 -1.24086 3.17133
409 1 1.9168 3.64465 -7.83214 0.301752 -2.07008 -1.48164
410 1 -14.0054 12.979 1.93088 3.16057 -1.25718 0.20602
411 1 -3.01113 -2.29434 -7.94822 -0.144116 -3.31127 0.0783397
412 1 -19.0115 -6.07611 6.11058 -0.490657 5.93405 -1.93033
413 1 22.9896 22.9855 1.12858 -1.35128 0.0079791 -0.159414
414 1 4.52879 18.2142 -16.1611 -0.305181 -2.12917 -0.632704
415 1 -18.7792 5.87603 -9.07882 0.599758 -2.19436 -1.31484
416 1 22.539 1.04043 11.4897 2.64566 0.0405995 1.25081
417 1 -15.1167 1.85507 11.4476 -4.1251 0.835265 -2.16558
418 1 22.2862 19.707 6.054 0.154495 0.644826 1.79592
419 1 21.8035 2.94913 22.9441 -3.19427 -3.08496 -4.6043
420 1 -3.75844 -3.0792 13.9445 2.9887 -0.7458 -5.42831
421 1 -16.0137 -23.6482 -14.089 5.13086 -4.36726 3.70039
422 1 -4.49479 15.2376 22.9336 -6.08226 1.54473 -4.53525
423 1 -9.52583 4.17617 3.45142 3.12746 2.23036 -0.255415
424 1 2.28558 -4.92236 -0.623763 0.381622 -0.927979 -0.0837654
425 1 -20.314 14.2631 17.9601 -0.147514 -0.549354 0.60323
426 1 -15.7962 -1.16919 -9.70085 1.82855 2.41317 -0.542338
427 1 -15.8728 -23.5243 19.0042 -0.594179 1.48531 -1.78479
428 1 9.04763 12.201 -5.81668 -3.46753 2.95816 -5.39824
429 1 -6.17518 10.1081 -13.5633 -0.0589283 -5.36729 -0.808414
430 1 -21.6559 -2.05155 22.8115 3.44919 0.779468 -0.622642
431 1 12.7843 -8.84144 -15.3674 1.69992 0.657066 -3.35146
432 1 6.81873 -4.33585 13.7756 -2.15669 0.613697 -2.26823
433 1 -18.2182 2.84977 -18.9443 -5.21769 2.80505 -3.52564
434 1 -12.7517 -3.01577 -12.6352 5.11587 2.75472 -5.9749
435 1 4.80674 22.8329 6.65404 2.28206 -2.26249 -3.30551
436 1 -14.6354 -11.6703 -11.7042 -0.347281 -2.20746 -0.667362
437 1 18.1573 18.9331 -8.96912 3.02564 -4.7409 -2.95741
438 1 -18.2387 4.50161 -4.45938 -6.25406 5.66715 3.51302
439 1 -0.164797 23.4775 -1.5886 0.869723 -2.44688 3.8967
440 1 -9.62293 13.3848 -14.4589 -2.25962 -3.15833 -1.55781
441 1 18.0663 1.17064 -4.71056 -4.89958 -3.34876 2.39752
442 1 5.34816 4.05331 15.4059 0.534553 0.0219257 5.96281
443 1 20.221 24.6785 15.9094 0.501879 2.6503 -3.26125
444 1 -23.6758 7.35082 -17.8517 5.7952 -0.0893056 -2.44387
445 1 18.9889 -10.6121 -11.5789 3.22173 -2.50636 -1.69981
446 1 -24.1873 -14.3596 -8.28967 -0.174386 -0.158581 -5.11804
447 1 7.87472 19.8324 13.2346 0.486677 1.53491 4.8102
448 1 -18.282 0.650502 16.0284 -4.99444 3.52132 -3.61365
449 1 13.8407 -4.82011 -2.27776 2.133 -0.122553 2.47271
450 1 15.8049 -19.3 6.80314 -4.23704 -0.080445 -2.76035
451 1 -23.5731 -12.446 -19.7626 -3.41356 -5.09121 1.4063
452 1 -23.9395 16.5444 -0.789542 3.25413 -1.59233 3.15709
453 1 -16.3846 11.8972 7.70749 0.856187 -4.24493 2.70789
454 1 -3.47413 2.16378 -15.0266 0.554499 1.3809 -6.16999
455 1 12.4731 -10.8207 14.4032 -2.56996 3.77097 0.282592
456 1 -4.69334 17.7898 19.9039 -1.65982 -1.19371 2.21769
457 1 5.18475 19.0287 17.0333 -1.4546 1.41963 -2.904
458 1 21.4643 22.0808 19.3954 -0.848064 -0.598416 -6.47874
459 1 0.191454 6.39369 -14.0043 -1.41352 -5.4332 1.56813
460 1 2.65363 10.8659 -22.4357 -3.92307 -1.33293 -0.27555
461 1 3.01814 0.185665 -22.0584 -4.76712 2.19752 2.56462
462 1 -6.76881 -20.8499 18.3891 -3.88284 2.42528 1.61974
463 1 8.34771 14.0694 11.9961 -0.848177 -1.80705 1.98091
464 1 -13.9162 -23.3824 6.45727 -0.680668 -0.0278677 0.882167
465 1 -4.77745 -12.7522 4.04464 5.71154 0.938804 -1.5722
466 1 11.8267 13.6689 -21.2827 -1.34408 5.85813 -1.05399
467 1 -5.78286 -9.38059 11.1323 -0.0799459 -3.45304 -2.87179
468 1 21.1939 15.0376 -9.21818 -1.091 0.528879 -2.25352
469 1 23.0099 -10.5842 12.2656 -3.51125 -1.70592 1.3881
470 1 -20.1169 7.19403 -11.2481 4.60271 2.14533 0.680028
471 1 22.6518 -9.73176 -9.30525 -1.73983 0.878187 4.79299
472 1 -13.0308 -3.29865 19.6602 3.48863 4.87304 1.75393
473 1 5.73146 12.5047 11.8011 -1.51889 -0.0651734 2.71351
474 1 3.5914 -4.59271 -12.0884 -2.56188 1.828 0.347106
475 1 20.1515 9.11165 -20.2548 -0.156089 -0.0324736 -8.61446
476 1 -12.7396 -5.09378 -3.53164 1.99938 6.39195 -1.82966
477 1 -11.2844 -10.531 -17.2152 2.82522 -2.65569 6.73123
478 1 2.10835 1.39987 23.4632 -5.68608 -0.131603 0.790436
479 1 17.3724 -16.5168 14.7706 -1.33514 -0.345166 -2.92136
480 1 1.8776 -9.56854 8.13386 2.99343 5.805 3.33186
481 1 -3.70912 9.46129 -18.8739 -0.584367 4.94304 -3.00537
482 1 -22.6338 -2.5822 19.1986 0.875324 -1.45357 -0.0375378
483 1 4.10096 -17.081 3.08398 0.940461 -1.52397 -2.68453
484 1 -21.7536 -15.0594 -13.6291 4.11683 -7.78811 -0.491892
485 1 20.812 -23.1626 -19.8991 3.59367 0.256742 -5.46523
486 1 15.2474 1.30046 -4.53482 -2.09476 8.27829 -0.515416
487 1 3.80081 22.7916 16.899 4.4112 -0.773776 -3.21442
488 1 1.32946 -15.6253 20.2256 2.33896 0.508707 -3.23885
489 1 -11.922 23.5928 -12.1422 -1.63556 2.47539 5.25065
490 1 15.3389 -18.0243 -11.5728 2.45982 0.243359 -0.439221
491 1 -19.1305 -12.3714 10.3551 -1.59214 -0.367979 -1.8445
492 1 -14.5141 -17.0309 -13.0232 4.25721 1.14916 2.84483
493 1 13.4792 -0.519676 -16.2034 -1.02961 -0.719288 1.30269
494 1 7.52148 2.11207 4.60187 3.84371 0.0730534 -5.83319
495 1 -1.9402 -10.7552 -1.83902 0.938268 2.68002 6.99618
496 1 4.22536 5.81493 -11.8654 4.48505 -2.01687 -0.343292
497 1 10.7902 15.8681 -23.1462 -4.04385 2.32169 1.75453
498 1 23.2285 1.24585 -23.4002 0.286976 -5.81065 -4.25005
499 1 -23.9478 1.47558 -10.9996 1.13269 3.7239 -7.55192
500 1 -5.02053 -15.6561 7.45761 -2.26179 -2.94433 -1.12853
501 1 -14.4305 -13.6281 -6.90391 -1.35972 -0.2072 -0.318646
502 1 13.4784 -11.9533 16.9017 -1.90196 1.00099 3.03365
503 1 8.50091 0.16503 -13.4832 1.0124 0.879828 -3.47054
504 1 -0.585078 5.46248 5.91622 1.38623 -1.10719 2.91277
505 1 -2.56125 7.63293 -20.9945 0.268019 3.83627 0.939059
506 1 -1.83316 -18.3879 -16.2418 2.87388 0.413886 3.61852
507 1 9.6833 22.3051 -15.9358 -1.69139 -1.08735 -4.3126
508 1 -3.22054 23.7363 -11.1236 5.16997 -1.1039 0.163211
509 1 22.5639 13.8717 -17.2868 6.38064 -0.450093 4.81237
510 1 8.32306 -18.7219 18.0692 -1.3849 -2.36295 -3.30875
511 1 8.29527 -13.2376 6.14348 -5.48033 -0.398637 -0.747062
512 1 2.95928 -3.26263 18.5754 3.37443 0.247562 -4.85794
513 1 -18.9386 -12.8006 16.0396 2.89734 2.70323 -2.72083
514 1 -14.2961 20.8026 21.0473 0.0814505 -1.80443 5.65633
515 1 -2.55366 6.88768 16.6344 7.8401 -2.81871 1.24184
516 1 10.2264 -22.6416 -1.7117 5.81364 6.26919 -0.867109
517 1 -14.1795 0.462674 -21.293 5.27929 -3.11256 1.76912
518 1 -24.1448 -23.8496 2.58758 -3.51743 -0.424206 2.39055
519 1 -19.4929 -14.3814 -9.38347 -7.61775 3.34673 -1.93033
520 1 -4.84462 -23.3701 -12.759 -9.20685 2.3359 -1.54758
521 1 -10.6732 23.3555 -5.69021 -3.14312 0.729264 1.76238
522 1 2.2706 -16.4372 6.48731 5.1573 -1.33212 0.37282
523 1 -9.22413 -14.798 -9.05218 -0.0595192 2.15157 1.404
524 1 0.542927 -2.32503 19.6544 1.86357 3.38733 -0.784021
525 1 -8.33309 0.302505 -3.3588 -1.67603 3.15883 -1.66281
526 1 -18.1967 13.8224 -3.89218 4.7083 -3.02668 1.86904
527 1 -3.74862 13.9674 -8.6957 -4.37016 0.786856 1.80263
528 1 -15.0267 17.519 -12.5726 -5.17746 1.45591 -1.71508
529 1 -9.71691 -13.0547 5.48635 1.05982 -1.21208 -1.80171
530 1 -10.1195 3.67135 10.1204 2.46696 0.149497 -1.64899
531 1 20.5976 -6.86571 10.6028 6.85878 -2.7454 -1.28272
532 1 -8.94935 -2.39755 -3.19737 -1.0766 1.92631 0.510993
533 1 -10.3904 -18.8969 13.1989 0.0772963 -6.36804 4.46727
534 1 20.027 7.45538 -9.60365 -1.29167 3.25208 -1.40315
535 1 5.8584 9.54757 8.67254 4.29244 -2.09415 -0.140112
536 1 -1.08239 -6.33646 4.5959 -0.392498 -0.282818 2.33753
537 1 8.56776 -7.15447 2.80817 -3.1784 1.77265 1.57501
538 1 -21.5282 -9.0006 12.8897 1.91711 4.26363 1.86654
539 1 17.3072 11.3505 -6.67551 3.2162 -0.0996842 0.0916251
540 1 -12.98 -12.1063 2.38545 -2.90106 1.7264 4.66739
541 1 -13.692 0.912315 13.6123 3.46651 4.56872 5.04035
542 1 -24.0585 3.92463 -8.48647 0.44823 -0.900522 -2.51242
543 1 20.7549 -18.9037 -15.3422 1.80317 2.48605 3.10685
544 1 -5.54975 -19.9358 -19.6351 -0.706511 1.77352 -2.94824
545 1 23.681 -13.9306 14.0857 2.43382 3.92925 -1.05572
546 1 -8.95786 -16.6278 -16.3487 -4.57815 0.452991 -0.969234
547 1 15.999 -16.8241 -21.4676 1.41832 -1.19411 2.76093
548 1 9.35677 2.65441 17.9898 -1.28571 0.516589 -1.36254
549 1 -21.4556 -4.11419 8.89899 1.84103 -0.385278 -0.258343
550 1 1.04258 -19.9759 -12.9342 1.59068 -1.79586 -2.06157
551 1 8.11973 8.19805 -17.794 -1.91243 -0.31351 4.12222
552 1 2.54473 -18.5478 -0.551854 0.774858 -2.3757 0.0527396
553 1 -12.9845 7.18457 -0.447828 0.0648184 -0.2442 -3.61085
554 1 2.36072 18.5821 -19.9154 4.55424 -5.38464 1.29494
555 1 -14.7954 -16.9691 -0.424033 -6.04107 3.05274 3.70466
556 1 -12.1596 17.0382 -3.48187 0.467692 4.34755 -5.53692
557 1 11.2188 -23.54 -8.90483 -0.552525 -8.77949 3.08135
558 1 -3.9137 -13.2019 16.2497 0.434748 3.49553 2.13322
559 1 -8.68028 -22.1909 5.95021 -1.96706 -1.07076 -7.57994
560 1 23.427 -22.5242 -4.38104 0.234886 0.404686 -2.98279
561 1 7.07055 -22.0705 20.6183 2.33104 1.05767 0.608208
562 1 6.0285 8.02373 -19.8176 2.98909 -0.0299975 2.28816
563 1 4.89532 -19.5224 7.4272 2.08743 3.50822 -1.72161
564 1 -7.58559 -18.56 10.5427 -5.92052 -0.181644 -0.762345
565 1 13.5101 -22.0096 16.9373 -0.499894 3.31991 0.745612
566 1 20.0406 15.8104 16.2604 3.49556 3.57785 -1.46651
567 1 -19.6711 22.4943 -3.04404 -0.807545 -0.628258 -3.70263
568 1 5.41398 -4.30333 6.939 0.842303 -3.8609 -1.99022
569 1 -6.43953 22.8904 -15.2523 3.75515 -2.77408 3.43091
570 1 -23.0427 11.7355 18.6654 -3.22084 1.87746 5.74173
571 1 0.523683 -12.7139 19.0165 -2.84493 4.52287 3.63643
572 1 11.4154 -23.6407 5.19255 1.09405 3.74253 1.26875
573 1 17.056 -6.53571 5.2153 2.14585 4.69887 -0.812602
574 1 14.4911 47.077 -6.82114 2.57819 0.295041 -4.02163
575 1 -15.9548 6.03478 -3.2652 2.92356 -1.85885 2.07255
576 1 18.633 0.513491 17.6249 -0.567181 1.7602 -0.891644
577 1 -6.4924 22.0955 0.637723 3.97594 -2.5699 5.31406
578 1 -22.895 21.9034 -19.0071 -0.942124 -5.31267 -5.58738
579 1 2.49024 -19.2017 -10.8548 -1.63837 0.430206 -1.88946
580 1 -4.93996 6.15659 -20.8854 -0.612144 1.79114 -1.22063
581 1 -15.1019 -9.67008 15.1271 -4.36815 2.63415 -3.12201
582 1 -2.01807 -13.6863 -18.4006 0.936557 -6.83471 2.52646
583 1 -21.1688 24.3912 11.653 5.85463 -4.53208 3.58147
584 1 14.4458 4.92792 -7.68325 0.3872 -2.70611 -4.97407
585 1 -8.07131 12.8043 15.3457 0.474831 -0.484467 -3.595
586 1 17.1444 22.8599 -19.4256 -0.188297 0.234927 -5.77461
587 1 -18.2092 46.4802 -9.97861 3.22004 -0.0889812 -2.26722
588 1 -18.6575 23.3613 5.77672 -0.833696 2.35811 -4.25778
589 1 -1.92699 4.38461 -1.14941 2.33105 -0.854134 -2.12609
590 1 -3.73194 19.4634 21.8429 4.70353 1.46351 1.04791
591 1 18.6917 -19.1269 12.3663 1.4936 1.87721 -1.6041
592 1 -14.1757 -12.953 11.5768 4.24642 2.96967 -0.176784
593 1 -12.2087 -21.6259 15.3945 -0.753449 1.56658 -1.63338
594 1 -19.8374 -0.364189 3.78863 2.08476 -0.292561 -3.08739
595 1 8.82077 -17.7148 -23.5935 2.36339 -3.26456 0.691476
596 1 -11.8855 -19.7661 4.96286 0.892759 3.27812 -0.301368
597 1 -23.8746 46.8578 -11.2295 0.954542 2.63492 -2.23413
598 1 17.2978 -13.6324 5.23982 -1.37914 -2.75677 0.519573
599 1 9.97925 -15.8982 14.2365 0.166467 0.146415 -7.06597
600 1 -21.5536 24.2926 14.71 -2.13937 1.60119 -3.52003
601 1 3.61097 -4.23863 21.4367 -1.56974 -1.20544 0.990367
602 1 -8.93441 2.66133 21.8633 -6.91949 -0.221631 0.714855
603 1 -6.24379 7.25613 -4.20993 3.24732 4.83363 2.92295
604 1 -0.227439 23.2103 23.5811 6.0481 -4.07708 1.09712
605 1 -21.3854 -0.27533 20.3198 -4.69071 -4.40518 -2.8762
606 1 3.14085 -3.84483 -23.5678 -0.494774 9.01142 1.50908
607 1 -0.994192 -1.4472 17.3955 1.2694 2.67553 2.05009
608 1 4.39973 8.44557 -10.7287 -4.54607 -2.28371 -1.07971
609 1 10.9896 -19.3733 21.049 -3.21578 -1.94385 -0.177186
610 1 13.6496 -4.95931 13.9639 -3.21827 -6.2312 2.55332
611 1 -4.31252 -7.39663 -7.2176 -2.48901 1.85354 -0.589791
612 1 -3.72539 13.4537 -13.9397 2.40858 3.83326 6.06542
613 1 11.9646 9.87612 -19.1425 3.01391 -1.32629 2.28545
614 1 -16.9716 -9.59918 -4.15438 0.514299 2.32998 -1.37482
615 1 11.225 -0.992167 21.5758 -7.4584 -1.487 0.677119
616 1 16.1031 -1.54048 20.9067 -3.6555 4.74426 5.89563
617 1 -11.0809 21.7588 -16.7505 -3.95897 2.36107 0.00948535
618 1 13.6821 5.17796 8.58068 -4.17063 4.64355 1.96207
619 1 15.7871 0.772684 12.17 -1.91994 -0.774226 -1.81003
620 1 19.7465 -13.9615 -8.35916 0.87871 -0.837275 -0.0684119
621 1 -6.56184 13.2881 -14.9637 1.39386 -1.79729 0.219401
622 1 -21.317 -10.5048 -0.786886 -4.6539 0.795777 5.49357
623 1 22.2393 -14.2749 4.74541 -2.21273 -4.3487 4.18883
624 1 -7.53937 2.03609 -20.084 1.13904 -1.31729 -0.845145
625 1 -2.55457 -8.03794 -3.30638 7.02796 -0.301051 -0.453137
626 1 -2.15402 3.95236 -18.8249 1.02341 -0.953586 0.0247665
627 1 19.5719 17.5595 13.7739 -1.76155 5.54135 -3.80093
628 1 -21.3008 -14.591 1.35089 -0.184136 1.05714 -0.773864
629 1 -6.38274 9.31612 -8.71888 3.55389 -0.384844 -2.53165
630 1 -22.5 23.1147 9.71963 -3.63392 8.57734 0.813403
631 1 -4.7487 -19.1675 17.3515 1.80419 -0.638039 -0.352118
632 1 -15.6849 -19.6438 4.41605 -5.44396 -5.26514 -2.92817
633 1 7.07676 9.77294 -23.752 6.26382 1.28865 -2.553
634 1 -10.6278 -1.91455 16.9753 3.25445 -3.33389 -3.95212
635 1 9.10219 12.5023 -2.84156 -1.83528 3.34854 -0.377273
636 1 -23.851 0.375816 -18.1504 0.378136 -5.23777 0.729987
637 1 -10.9181 -23.1713 -23.4587 3.28186 -1.44805 2.60748
638 1 12.5868 17.3087 -2.76775 -4.62558 -4.44821 0.655422
639 1 -9.92222 -18.3229 -22.6411 0.464414 -2.64338 -2.9418
640 1 0.0638504 -0.390589 3.30535 -0.337825 1.89833 1.51172
641 1 -14.3268 18.0629 5.98318 2.86686 -1.28135 1.22326
642 1 -9.01119 -4.10258 4.20376 0.446246 -0.512631 2.53747
643 1 11.8552 -19.5678 7.58597 0.627591 3.9568 3.4882
644 1 -5.38607 11.6222 -5.6166 -1.57154 -0.185479 -2.316
645 1 -9.10532 -7.32649 -19.5607 3.72674 0.390725 0.88477
646 1 14.8963 23.5658 14.8558 3.66247 4.92604 1.03391
647 1 3.40149 3.3454 -3.65576 6.51301 4.85202 -3.26311
648 1 19.2568 -15.4587 24.0155 -0.198034 -3.68946 0.85399
649 1 11.1074 -15.0711 18.816 2.1985 -2.00418 0.421237
650 1 -8.03815 -2.34413 18.2415 4.52672 1.29876 -0.775021
651 1 -23.1906 3.64314 -14.5795 -1.67806 -0.199411 -1.37367
652 1 -8.64676 -4.59604 -18.7684 1.64893 4.97282 -3.30384
653 1 -22.589 -22.3849 -12.4345 -0.433968 -5.22848 2.19714
654 1 -10.2299 0.799178 -20.7091 0.729996 -2.4772 -0.782512
655 1 -2.67414 -10.0583 -13.3446 1.19963 -0.365458 1.46872
656 1 1.14349 23.3136 -11.2629 -6.96623 -3.12394 -2.40948
657 1 -0.608249 -4.70866 -14.0805 -1.51756 -5.75945 2.75419
658 1 21.5452 13.2698 13.9387 1.6467 5.12494 1.57895
659 1 3.21541 0.368058 20.0459 5.71026 -3.16628 1.12977
660 1 9.96276 2.70914 7.85483 2.23916 2.93685 8.89761
661 1 -17.02 -7.91533 -16.2874 1.40259 -1.77633 0.984984
662 1 3.33597 -6.04821 9.51844 1.47549 2.38296 -7.12406
663 1 -11.1816 -19.7396 -8.44959 1.28688 -0.0480463 3.47088
664 1 -15.6975 -19.2637 12.1491 -1.95222 2.15075 -2.43877
665 1 0.334931 -6.23838 18.7748 1.99937 0.766412 5.47264
666 1 -8.48077 -6.80756 -11.2293 -0.479491 0.983208 -1.25731
667 1 -22.2572 -19.5201 22.1195 -1.33792 -0.394067 -0.852062
668 1 -10.2053 13.45 17.1581 -6.57488 -7.06814 6.15144
669 1 6.90136 -16.3407 14.6903 -0.594897 0.070751 0.938498
670 1 2.36609 -14.7659 -0.863008 -1.13608 2.69138 5.66096
671 1 20.9661 15.8732 3.35745 3.16506 2.17474 1.16908
672 1 23.1758 4.16523 -11.0653 -2.10496 3.06243 1.18877
673 1 -0.992023 18.0191 -19.9333 -0.0947958 1.54854 0.427234
674 1 -8.029 -0.542303 -21.8661 -0.8897 -3.01877 1.41677
675 1 -22.7355 -9.94056 -8.12435 2.23912 -2.60688 1.11358
676 1 6.31009 2.99918 17.8807 1.98171 -5.51879 -3.66961
677 1 -22.1165 -12.5837 -9.60932 1.13352 3.30605 -3.08257
678 1 -21.1076 -6.65106 0.217336 0.172908 0.0410885 2.7229
679 1 -20.0141 2.62198 -9.36343 -3.63697 -1.08063 -1.85313
680 1 9.57148 21.8831 -6.23849 -2.34386 2.02635 -0.958682
681 1 0.332344 2.07065 -9.69377 -4.82078 -5.10339 1.64922
682 1 -3.34725 16.4784 -9.82462 -0.704451 1.15381 1.35019
683 1 -1.26248 10.8932 -19.1737 3.62007 -1.23418 0.0959609
684 1 10.9825 -20.9416 -8.99499 1.0215 5.08412 0.919445
685 1 19.8539 1.10815 8.69249 -2.09888 -1.33844 1.10088
686 1 -15.5447 -0.191685 15.8334 -3.06834 3.43886 0.955594
687 1 -15.8473 7.34159 9.4811 1.09046 2.26558 -7.26878
688 1 -12.8523 -9.78106 -13.2566 0.437687 -5.65491 -2.16226
689 1 -1.36051 -1.30336 -3.58556 1.62971 0.851061 -1.39846
690 1 -0.291497 23.5014 -5.63139 2.21915 -1.16142 -0.976175
691 1 -1.0063 6.94669 14.1857 0.90772 -5.30978 -2.4673
692 1 -11.1828 -7.40072 3.11076 -2.89257 0.509653 1.53051
693 1 -7.0966 22.3687 3.38049 -2.57592 0.530258 -1.57025
694 1 10.4603 -18.4251 3.26865 -1.93805 -1.94998 -0.870882
695 1 7.61356 -10.6044 -7.49716 -2.03554 -0.017071 -2.87701
696 1 -6.78366 -21.0383 9.28079 1.45652 1.14649 -0.302408
697 1 -21.8893 16.5931 -19.5919 2.51277 2.82723 1.8451
698 1 23.702 -11.1826 -6.00512 -3.08097 -1.68052 0.885354
699 1 -14.8317 -11.8041 16.7482 0.068206 -2.49487 2.642
700 1 0.238354 6.79346 23.8586 2.21906 -0.360533 5.91604
701 1 17.7333 -0.565349 9.47723 -1.23731 6.67511 0.520244
702 1 -16.4825 -1.49553 13.6149 -0.694356 -4.99129 0.778264
703 1 6.38314 25.0719 -22.9394 2.0123 3.14658 4.3062
704 1 -9.07819 -11.8849 12.9917 0.355652 -3.49256 2.60374
705 1 6.86649 22.2235 -16.2849 2.037 -2.02358 0.0237393
706 1 5.2569 3.75856 20.2892 -0.150125 -2.78465 0.267636
707 1 -17.7525 1.74517 23.0124 -2.0659 1.71236 0.29079
708 1 11.3521 -6.06897 -17.304 1.67307 -1.04984 -1.58905
709 1 -9.63816 -3.40819 -9.52535 2.07027 -1.09291 -0.953626
710 1 -2.88612 -8.26438 14.1715 -7.42079 -1.98124 -0.223266
711 1 -12.0674 -6.75004 -15.8855 2.70206 -3.01924 2.74666
712 1 5.75493 -10.0045 14.1147 2.51271 -1.19317 -0.23289
713 1 2.70526 4.99478 1.05027 -0.537501 -0.358373 2.44045
714 1 18.9126 -7.94895 -12.2449 -3.96666 -1.07555 4.97176
715 1 4.82004 16.9586 9.90388 -3.50499 3.89043 3.64439
716 1 -0.994984 -21.1837 10.406 -1.68787 1.01455 -4.40573
717 1 -11.2905 -5.32536 -13.3874 4.59236 1.8434 -2.9614
718 1 -12.4199 -5.89937 5.27066 3.81514 -0.408551 0.945459
719 1 12.3125 -6.68933 9.73308 4.229 0.103564 5.96574
720 1 4.91719 -2.62083 -19.8556 -2.14842 0.590945 -1.31648
721 1 -7.79362 -9.3161 -15.8334 -2.31131 0.802111 1.3747
722 1 7.81254 -22.0127 -12.8829 -2.58924 -1.86009 -0.0260939
723 1 -23.3055 13.0828 -4.37045 -2.27007 -3.68804 3.70528
724 1 -8.83235 23.5114 -7.83787 0.427546 -0.206086 -1.21417
725 1 2.88654 18.805 23.7808 -1.36327 -0.373858 3.61238
726 1 -4.63556 -6.72179 22.2533 -0.142667 -1.89955 -1.56012
727 1 5.14742 -2.64356 -13.8659 8.29824 3.38756 4.84848
728 1 -12.6842 15.7523 -8.31548 2.22153 -4.32692 -0.682885
729 1 -14.7297 14.3992 14.4267 2.29927 1.1623 -3.57041
730 1 15.7132 -21.3825 -18.1062 0.0396076 5.92108 5.02948
731 1 -12.6977 12.5858 23.9428 0.0094032 -2.95493 -0.624541
732 1 11.4568 -24.114 -6.11426 -1.10485 -0.209356 1.32147
733 1 -14.124 -18.1321 6.31154 -3.53713 0.579227 1.52369
734 1 -19.0549 24.7264 20.0175 1.46858 -3.13495 3.96784
735 1 16.7436 7.61128 8.82267 -1.56477 -2.19022 -3.69666
736 1 6.49197 19.8744 -7.72516 3.76197 1.80537 1.43731
737 1 20.9932 -15.2715 7.06277 -3.14205 0.988964 -0.926418
738 1 -9.40563 5.49525 14.7552 -0.821416 -1.75161 -6.02189
739 1 -19.4989 -21.5866 1.64217 3.72922 -1.01508 -2.27057
740 1 17.2883 13.2236 20.2386 2.03697 0.857975 1.58655
741 1 -16.8447 -20.8812 -10.4201 0.00165785 -0.899364 2.96322
742 1 -7.03862 46.9295 22.9323 1.09711 0.314311 2.44295
743 1 -23.1935 20.8964 0.736119 1.89951 -3.9234 4.4036
744 1 9.01439 -9.75138 -11.6028 -2.75922 4.30019 0.418837
745 1 -22.3094 3.80769 20.0622 -1.44164 2.99461 -0.995083
746 1 -17.3186 -7.4799 22.5136 -1.4754 -1.08759 -3.301
747 1 11.8313 -11.0859 2.66547 3.96481 -0.891644 -4.88045
748 1 -11.5906 -21.0181 21.2674 4.5553 0.416968 -1.15233
749 1 -0.301759 11.858 7.2512 -1.38462 2.23676 -3.90289
750 1 16.9116 -6.34153 -11.5819 -3.1835 -2.82746 -2.93557
751 1 -21.026 10.377 -13.7507 -6.10772 -2.53691 -1.21299
752 1 23.2695 -19.315 5.42884 1.61253 0.354711 6.136
753 1 -17.5455 -16.9372 21.6923 1.853 -2.90219 -3.5352
754 1 -14.6796 23.3866 15.201 -2.26524 -1.2314 1.67115
755 1 7.80628 10.127 -20.7747 6.87973 1.73872 0.679277
756 1 -6.28935 -5.74881 -3.02269 2.87978 2.99529 -1.89972
757 1 -18.7465 12.6477 -6.57669 -4.55497 -1.5931 -0.858171
758 1 -14.272 -19.1577 18.9082 -2.59318 3.71451 2.37705
759 1 -1.27029 12.9874 -12.5898 3.8359 2.53633 -3.44548
760 1 1.47437 5.88436 13.6316 -0.915716 -1.27814 -2.97132
761 1 -10.244 -13.2041 -6.6523 0.513473 3.12557 2.11888
762 1 5.12216 17.094 23.3995 0.981423 -2.04518 -1.6801
763 1 16.5602 4.62563 9.29791 0.519172 2.42401 1.04581
764 1 18.9522 5.77236 7.88681 -1.78196 -2.26399 -0.457948
765 1 22.2522 12.7607 11.1678 4.01267 -1.60579 -7.11867
766 1 -9.20071 18.5816 -17.5294 -0.396917 -4.4702 -2.24703
767 1 -3.87764 -12.5765 -0.329899 -0.852303 0.322021 1.36988
768 1 -7.06161 9.19715 8.77092 -1.70189 3.23412 3.19732
769 1 14.0224 26.0837 18.317 -0.658085 0.228775 3.4218
770 1 -6.49642 21.8698 23.2029 -2.0375 -4.92452 -0.688669
771 1 7.65595 -17.744 10.5158 2.89795 4.74258 -3.64418
772 1 7.20616 7.58501 7.04609 -2.67247 -4.67482 4.26759
773 1 12.1081 -20.5941 13.3735 -2.05387 2.92289 -4.45629
774 1 16.8904 18.4266 13.6132 3.12254 -0.184713 -2.06424
775 1 21.1466 -21.5356 -11.2387 1.23773 -0.0740142 0.390817
776 1 7.9881 0.706545 23.1097 2.40334 -4.28363 1.40264
777 1 21.6969 -11.2535 -11.3841 -3.76524 6.26515 6.71515
778 1 1.02841 -18.8521 -15.3926 -3.66303 -1.78791 -3.09522
779 1 6.00389 4.52845 -7.49088 -5.43594 0.931599 0.79321
780 1 -4.44664 -12.4728 -19.489 1.73746 3.53482 -0.628901
781 1 -19.3068 1.69325 7.32099 -1.36926 0.03236 -4.37306
782 1 19.1577 -7.92644 -15.0154 -2.08428 -4.96228 0.245012
783 1 4.63157 -15.2208 22.2913 -1.21988 -3.16262 1.94331
784 1 11.8845 12.5977 -3.77078 -0.576371 6.01716 0.665998
785 1 -1.66164 21.3203 20.4154 3.66748 2.01994 -0.06711
786 1 -21.5255 21.0447 21.1574 1.19125 0.215981 -3.32659
787 1 8.93687 13.8046 -12.108 1.73569 6.27429 5.3437
788 1 -19.769 6.96333 8.04443 0.620347 -1.5381 -1.35512
789 1 -13.7575 19.9212 -0.92913 -3.32722 2.5005 -5.45395
790 1 2.92931 2.91971 14.6838 -2.05252 -2.88374 -0.466028
791 1 -3.90772 21.3711 13.728 -0.17284 3.88602 0.51884
792 1 -22.6082 14.5651 -6.76932 3.7716 6.04645 -0.971727
793 1 -24.3394 -10.9532 -0.805918 1.10781 -2.89574 0.00678013
794 1 5.8724 17.0935 -22.0637 0.56563 -0.211034 -1.63371
795 1 18.9753 -8.05491 21.4184 1.31018 0.823889 3.32033
796 1 -11.639 -14.0713 -14.3444 -1.8 -2.66638 1.03598
797 1 -17.7221 -13.7796 13.4701 -6.04171 -1.67166 -4.16167
798 1 -14.7099 1.25644 -8.68563 -7.77239 5.67576 -0.165676
799 1 -11.2088 19.5467 -2.40256 0.120656 3.40822 0.759483
800 1 -17.563 -11.0849 17.5979 1.85767 -1.23756 0.924951
801 1 20.0573 14.8723 -2.171 -0.343154 4.70381 -3.28077
802 1 -20.1915 -18.7361 14.017 1.02284 -3.14501 -1.91467
803 1 18.1344 -9.9152 -8.84665 0.225184 0.873547 -0.138563
804 1 8.31691 -20.6201 -8.0843 -2.86435 -2.9439 0.19671
805 1 10.8704 25.2667 22.3478 0.716329 3.0274 1.02888
806 1 -3.32749 -12.8606 12.2201 2.3095 -0.772812 0.662776
807 1 16.1856 22.5586 -22.113 7.06544 2.54976 -1.06391
808 1 -1.1486 -18.2171 -11.8259 2.29669 -2.9375 0.755536
809 1 -5.90407 23.8252 -18.134 -7.3744 11.7595 -0.439832
810 1 -20.7284 -17.8998 -4.73336 1.83944 -1.48011 -1.97358
811 1 -14.9059 -7.06364 -6.32688 2.42376 -4.42134 -4.05909
812 1 4.79512 -12.3888 -9.48804 -4.80546 1.31951 0.218327
813 1 -13.9563 24.1825 -16.5084 -6.64637 0.00168717 -4.48814
814 1 -21.5876 -1.06892 -1.49581 2.40383 -3.70319 -5.71402
815 1 -21.7716 11.365 -17.5349 3.02416 1.09662 3.88069
816 1 17.4976 -16.9887 17.5389 6.76657 -1.1419 -3.91697
817 1 7.76763 -12.2772 16.4627 2.90316 7.22766 -1.12472
818 1 -11.3486 6.10876 19.5566 -3.42174 -2.52576 1.98993
819 1 9.58301 12.7953 18.9893 2.08347 -0.937461 2.08764
820 1 3.1034 13.8234 9.63348 5.42879 0.805266 5.36499
821 1 -22.7975 -23.1861 -23.5633 1.76021 0.799643 0.54184
822 1 20.8509 -13.9048 17.4031 -2.81944 9.81154 1.44573
823 1 6.64433 -10.9385 4.92574 0.765919 5.65766 0.63164
824 1 4.73759 -18.7116 -7.50084 -0.33214 -4.56062 3.75838
825 1 -23.6772 3.00342 4.93046 1.06753 -4.28374 -0.56759
826 1 -13.6718 8.12282 -5.27104 -1.54089 -0.307569 -4.68224
827 1 -3.60566 1.2656 5.37707 2.13619 -4.01578 1.58437
828 1 -7.61191 -17.558 12.9985 -6.25715 0.937444 1.24789
829 1 19.4965 15.0695 20.3777 -0.84663 4.80172 4.33348
830 1 -9.17978 -11.5379 21.4269 -3.73617 0.465662 1.80316
831 1 2.26576 -14.8211 -23.6931 -0.911973 2.12563 1.12705
832 1 -5.97642 -5.35032 11.1553 0.386842 0.757954 2.83102
833 1 -13.4032 -2.69414 -8.06652 1.21157 -1.06232 2.53965
834 1 0.493527 11.3998 -0.823567 -4.00022 0.259844 -0.266961
835 1 1.90867 6.975 -21.5617 -0.529281 -3.97407 -3.69557
836 1 4.78317 -12.419 21.059 -2.19103 1.45051 -1.6056
837 1 -19.7202 -18.0664 -7.37355 -1.00491 4.51276 4.5152
838 1 23.6114 -19.4525 2.28153 0.356909 -1.17736 -2.53582
839 1 -20.9783 21.6405 -11.8116 -5.61716 4.44524 0.416743
840 1 4.93329 -16.9241 10.1941 1.86522 -1.07795 -2.0124
841 1 20.163 3.65513 9.66263 1.58957 -2.1661 -2.85464
842 1 -7.24134 -20.8725 -3.94924 3.29052 3.14552 3.44549
843 1 18.8593 -5.91842 19.315 0.86755 3.50905 -3.22467
844 1 18.1595 -18.535 -22.2609 -3.78479 -2.46602 -4.17283
845 1 18.841 6.08572 -2.1288 4.25271 -1.42554 -2.36119
846 1 9.27716 7.54948 -12.1491 -0.191853 1.22056 2.83563
847 1 -13.2083 46.8635 -14.1049 1.46057 4.92577 -2.60801
848 1 -4.34294 16.287 -13.6858 0.448662 -1.52306 -3.46618
849 1 22.0744 -13.9504 -12.3356 -6.56603 0.317746 2.13613
850 1 16.7819 -20.5947 -23.7173 0.784214 2.33281 -3.08261
851 1 -23.2476 14.772 -11.7718 -1.04545 1.01505 -2.81892
852 1 11.465 -1.05618 -1.09421 0.594678 -1.74775 -3.65602
853 1 13.1158 9.72811 -14.3606 -3.70433 -1.35739 -4.26573
854 1 -23.9543 -14.0102 2.38223 0.514349 1.16335 -1.65133
855 1 -17.2208 22.5063 -19.1833 0.494321 -1.66967 -0.402651
856 1 -19.7402 -3.33493 -7.65352 -1.73685 0.343415 4.70919
857 1 -23.8858 -5.75448 9.58779 2.40412 2.39481 2.68612
858 1 16.151 -12.8679 15.6881 1.83129 1.49006 3.91517
859 1 -14.1294 -9.50754 1.82097 -0.724978 1.01148 -1.68546
860 1 12.9887 -11.6364 -16.3259 -5.22413 -3.33074 -1.13583
861 1 -22.8801 19.4791 -12.0034 -5.89196 1.51613 -2.64361
862 1 0.176608 14.4432 -10.6272 0.380763 0.674458 -2.22303
863 1 18.623 -16.0841 5.62258 4.65535 8.10799 2.90834
864 1 -15.2543 4.67887 19.3347 0.813055 0.96484 -2.57387
865 1 -0.206521 -20.691 13.1795 -1.87324 -1.9159 2.87364
866 1 12.8247 -3.00509 22.9331 -3.91713 5.70788 -4.24832
867 1 -2.24208 12.1111 20.6478 -2.22994 2.01253 -1.81931
868 1 1.57014 17.1739 -5.14303 1.65859 1.05649 0.541364
869 1 0.314557 18.5182 4.0387 -0.219388 -3.50489 -3.85528
870 1 15.8838 20.5891 19.9368 -0.924829 -1.39736 1.17528
871 1 4.06232 9.15932 -17.8594 0.664001 0.435151 4.60552
872 1 -2.17159 -7.6358 -22.8224 3.67058 1.12153 0.774039
873 1 -4.90649 -0.608682 -22.3712 5.09659 3.2234 2.59951
874 1 11.6825 1.12591 1.58106 -1.1778 -1.07346 3.8055
875 1 21.2629 15.485 11.0351 -0.0178901 -2.01307 0.809169
876 1 13.6437 -15.5943 -8.39391 3.39532 4.15469 -0.655294
877 1 0.842616 -19.827 18.6699 2.57728 1.05177 -1.30638
878 1 5.78533 12.15 23.7226 -1.6682 2.56527 0.704456
879 1 14.8299 4.46415 -18.4143 1.35091 -3.37208 -0.391046
880 1 3.31336 14.9862 20.577 2.42876 -0.0407095 -0.917587
881 1 -2.52754 -5.42757 19.0714 -1.54895 -1.68352 0.224436
882 1 -12.0996 -2.42401 -2.61008 6.96043 1.51645 1.96483
883 1 15.8645 18.1774 -6.96045 -0.458062 -3.19218 3.40506
884 1 17.9864 -19.6281 -14.8682 -0.602384 0.13606 -0.512934
885 1 -5.38602 -18.985 -2.59229 1.41568 -1.42363 1.07984
886 1 -4.68374 23.4852 4.2447 4.47377 1.10814 -0.347515
887 1 9.54188 -23.365 19.6364 2.50305 0.515726 -0.78726
888 1 -8.83511 11.1945 -17.4671 7.5849 1.71306 -2.39038
889 1 -15.3165 -4.60319 15.7313 -0.437651 -1.6122 -1.5179
890 1 12.285 -17.4011 13.8367 -0.313495 1.09989 -0.0257986
891 1 23.4927 -2.96164 4.47026 -2.17288 -2.29772 -2.38541
892 1 4.30098 -9.04251 -3.54711 2.12361 0.359023 4.63429
893 1 20.3882 -4.86116 0.838447 0.979207 1.39763 1.45749
894 1 0.0451695 10.1097 20.5112 2.58341 1.45813 0.130746
895 1 2.14381 -22.9622 6.18687 -0.630834 -0.00842876 -0.983472
896 1 8.56355 -3.31725 19.6837 -0.0892412 0.0157745 1.05139
897 1 -12.902 -23.6126 9.13862 4.63074 2.22103 3.79677
898 1 16.2384 1.15197 -23.6826 2.68666 -1.16343 1.07666
899 1 15.4254 -19.48 16.9638 4.37571 0.220696 0.72348
900 1 -14.496 -13.9208 -13.5289 -1.58547 -0.571643 3.69603
901 1 2.97959 -21.6764 10.0918 -1.0903 -0.544257 2.90247
902 1 -6.43746 17.6376 -2.2244 -3.03889 1.7091 -2.68316
903 1 -5.70332 24.1366 -20.7739 -0.167236 -4.14 -1.56168
904 1 -10.6113 -6.95424 -7.0654 1.78758 -2.96422 -0.0129689
905 1 22.4084 -7.59037 -24.0317 0.272698 1.10208 -0.70773
906 1 -6.51397 -23.9934 16.4735 1.33473 -1.72264 -0.990778
907 1 -13.2741 4.42665 -12.6366 -3.65843 2.98532 -3.93496
908 1 -9.96195 -15.8632 13.5742 -0.10795 -3.14333 1.12224
909 1 16.1691 -20.4863 11.3626 1.23092 3.34545 2.88868
910 1 -11.1244 6.41871 -4.7229 0.564437 1.68251 4.34214
911 1 -2.61262 13.0919 23.3688 -3.46313 -1.23072 -0.531336
912 1 -15.3041 21.1862 -10.283 8.14386 1.75402 1.00307
913 1 -4.07853 23.0876 15.9594 -0.360853 4.12253 -1.55915
914 1 -22.6887 16.4772 10.519 2.58766 -2.54343 -3.16765
915 1 15.4407 -8.57205 -14.3336 -1.44341 2.98272 1.24683
916 1 -16.7405 -15.0339 20.0173 -2.15762 -0.293171 3.49097
917 1 22.885 3.13526 -21.2569 2.49516 0.878502 1.14107
918 1 -6.0616 7.19972 2.27449 -1.25593 1.50487 0.262883
919 1 -10.1704 17.109 10.4 3.10876 -3.06093 -2.29849
920 1 -0.175864 15.5309 -21.5841 2.23855 2.67295 0.553358
921 1 9.38015 -9.99886 -19.5856 4.59807 0.906575 -0.359194
922 1 -11.3142 3.50055 -20.9834 3.26842 2.11736 1.30066
923 1 3.66035 -10.4503 1.71493 0.22382 1.04738 -0.00696639
924 1 -5.37517 16.0513 5.59 3.7747 2.70605 -2.7191
925 1 1.20636 12.5732 -3.6445 4.08823 -4.08493 2.75888
926 1 0.778443 -14.7564 8.42216 -1.99683 2.44292 -4.89345
927 1 5.48409 13.3019 17.4755 -0.989064 0.154083 -6.01761
928 1 7.1232 -19.8014 12.4215 8.16106 4.055 -3.75743
929 1 -7.9886 -14.4305 -5.49669 2.71733 -0.898652 -3.33141
930 1 -18.6169 -21.2513 -14.8872 -4.96611 -3.96915 -1.49988
931 1 18.1817 -1.92427 -8.61773 0.836573 -0.890048 -1.87843
932 1 -19.1401 16.2947 14.7011 -3.02999 -5.97131 5.00255
933 1 -18.5667 -21.3173 -22.8842 3.75732 3.08791 -4.64277
934 1 -3.09505 17.569 -21.8952 3.46546 -3.08203 1.77143
935 1 -23.9638 -12.4112 -3.21941 -1.82874 -0.381293 -0.24252
936 1 9.27586 12.1096 13.7462 -2.93804 -5.34382 1.41684
937 1 0.659089 13.3855 20.7529 -2.39536 -1.6101 -0.477988
938 1 19.2398 8.2801 5.65925 3.27157 -2.41349 -0.394373
939 1 -8.13599 -12.2702 -15.6971 3.84516 -4.17467 0.0662061
940 1 21.2701 1.28587 -8.0707 0.648885 0.714126 -1.7695
941 1 -21.0912 22.6764 7.2444 -1.23691 -2.06466 -1.13316
942 1 -5.83231 -16.3081 -20.3387 1.63733 0.710907 1.06307
943 1 17.684 -4.71921 1.66014 -1.31279 -0.757449 6.47152
944 1 -15.8641 -3.56606 23.0189 3.03705 -1.63128 -0.167026
945 1 4.93913 -23.4329 18.9714 -2.62392 3.43697 0.382217
946 1 -15.2607 -7.5667 6.86428 1.87802 -3.44631 -0.450357
947 1 -9.20551 18.4731 19.1611 -1.47254 -0.396509 3.19846
948 1 -21.0687 4.85408 -7.78079 0.811123 -0.744333 5.2446
949 1 -3.37182 14.864 20.3022 -3.13411 -4.23439 -1.02315
950 1 -22.213 6.0995 11.1919 4.55637 7.51287 -3.4924
951 1 -9.89356 -23.882 -14.7776 -2.79482 -3.83563 -1.23289
952 1 11.147 -13.5882 -10.6007 -0.0382929 0.715167 -0.660939
953 1 16.4455 -2.2966 2.34807 0.741293 -1.05822 3.15682
954 1 15.3681 8.87495 -9.0003 -2.80619 2.08759 -1.31088
955 1 -11.1513 18.804 -19.3738 2.12309 0.924827 -0.85167
956 1 -12.0406 -7.00834 -9.58953 2.54127 0.186034 0.427491
957 1 -5.87421 -1.32327 14.6656 1.66603 1.24122 0.820417
958 1 1.40056 12.2336 18.4088 1.99309 -5.71697 -4.37093
959 1 -14.1191 -15.791 -22.9489 -3.2778 -1.19208 6.24528
960 1 -2.07901 -21.8292 4.7386 -3.57988 -0.442528 -2.5448
961 1 -4.77273 13.9356 -0.776598 -4.30848 3.04153 3.23259
962 1 -4.51608 5.24529 -6.11626 -3.18348 -4.15508 2.74329
963 1 -15.7958 24.9082 -12.9604 0.873438 1.05061 1.74615
964 1 11.7527 -16.7525 -23.3254 0.117314 7.87809 5.02778
965 1 -11.6498 11.9819 6.01403 6.13217 -0.253013 4.13949
966 1 -19.2147 -6.90794 13.4066 -3.91868 -0.446973 2.6119
967 1 20.2619 -5.08293 -15.8382 0.120451 2.91796 4.69115
968 1 -1.98729 24.5077 -15.2194 1.32885 -0.533123 -1.87892
969 1 15.5408 -22.0439 3.44324 -3.3716 -0.48909 0.0242531
970 1 -4.45858 -22.7808 -8.14284 0.533011 5.02503 -1.42025
971 1 14.43 -4.66428 21.498 -3.62999 1.16481 5.07487
972 1 -9.4967 -19.2105 -0.154396 0.552477 -1.39679 0.138244
973 1 -11.3093 -4.47293 17.6702 -2.53932 -1.41268 1.4393
974 1 -1.18646 22.825 -13.0064 -0.0517154 5.09861 -0.827569
975 1 -11.7036 -11.0441 4.60819 -1.33073 -3.85495 -2.06265
976 1 -19.9462 -6.88368 8.49602 0.771443 -4.07092 -0.316807
977 1 4.03125 -23.333 14.0999 0.74406 -5.12363 0.814899
978 1 3.63379 14.497 23.362 -4.12485 2.07804 3.96561
979 1 6.06396 24.7506 -19.9816 -1.3282 -0.935489 -1.29866
980 1 6.33982 20.4956 10.7259 0.0314805 -1.3458 -0.686131
981 1 4.83407 -3.70397 -5.19249 -5.42301 2.27909 3.44458
982 1 -5.98352 -7.11507 5.48017 3.55659 -3.87931 -5.71128
983 1 -21.651 7.94079 17.3019 -2.53583 -1.95058 1.63183
984 1 -14.3672 17.684 -4.93468 0.273547 2.2501 2.03612
985 1 -17.5424 18.9251 11.8082 1.18051 -1.5891 -2.35446
986 1 -0.542454 5.02665 10.1755 0.00739981 3.62463 5.16132
987 1 -23.5897 -16.165 11.1642 0.414844 5.1841 6.51142
988 1 -9.79218 -23.8266 8.20834 -1.43602 -3.04595 -1.77755
989 1 7.20679 2.12567 -6.11797 0.0375186 -2.48139 3.29281
990 1 11.2359 -8.11614 13.9276 0.37143 -0.058982 -2.45391
991 1 -8.27965 -6.17169 6.9798 1.62503 0.806791 1.83336
992 1 -21.8937 10.3675 3.62403 -0.0605053 2.1084 1.9747
993 1 -22.4286 0.543015 24.0294 1.19752 1.60987 3.59701
994 1 22.1459 -16.7152 17.4365 -6.03622 2.02257 -6.47862
995 1 9.05511 -0.092628 0.267988 -1.75681 -1.82217 1.54774
996 1 20.2268 15.1517 -15.6589 -0.0119585 2.08812 3.68432
997 1 -22.5483 24.7067 -23.7451 3.95746 -5.90451 2.95588
998 1 -2.13854 11.3812 10.8483 -0.251218 -0.536998 -3.71474
999 1 -22.3261 10.5225 6.68567 2.40653 0.0454437 2.59966
1000 1 16.6627 16.2626 -9.11432 3.69677 -2.66416 0.962581
1001 1 -20.721 -3.98773 -4.92557 -5.88902 1.97569 5.26575
1002 1 -13.7517 -16.2344 4.18825 -1.57186 2.23387 6.54063
1003 1 10.6868 -14.4067 11.8493 -9.5782 1.65983 -1.78096
1004 1 23.1604 24.1198 9.00553 5.34155 -1.79864 0.328676
1005 1 -13.9651 18.3982 1.4256 1.28829 -1.46212 -2.99841
1006 1 23.1393 10.004 19.9974 -5.29935 -0.601807 1.53778
1007 1 10.1999 -1.11873 18.9632 -2.07122 -3.98823 -1.58857
1008 1 3.66817 -2.07255 14.6269 -3.75533 6.24218 4.64534
1009 1 11.5976 -16.6945 7.58761 -4.83953 -1.99995 -0.579684
1010 1 -12.031 2.80445 -9.01378 -0.94572 -2.63594 -0.481065
1011 1 -18.3803 0.981848 1.64376 2.64194 3.00748 3.28595
1012 1 0.27618 2.52911 -1.51025 2.23811 3.2851 -6.24321
1013 1 2.93275 -14.7681 4.25596 1.91106 3.44291 2.61306
1014 1 -21.4457 -23.384 3.08407 -1.51905 -1.69643 2.48314
1015 1 -1.15514 5.39196 -22.1223 0.0781944 1.15975 6.31761
1016 1 -22.372 1.94291 7.21628 -8.69649 -8.55906 0.758376
1017 1 -8.1235 4.6559 12.0407 0.473661 -1.04816 0.887737
1018 1 -19.8571 -18.9024 5.01276 -0.341803 -0.206034 -3.41837
1019 1 6.63462 15.3275 3.52437 -2.70933 -0.508489 1.28313
1020 1 -19.2479 46.2893 9.92903 1.67172 5.04788 3.88234
1021 1 19.9744 -18.9906 -3.66746 3.32142 -2.08724 2.0994
1022 1 -8.3114 -21.6257 -9.48736 1.32396 -0.618042 1.2229
1023 1 11.6564 -0.612753 5.82746 -4.50159 -1.12975 1.48236
1024 1 -3.84106 9.97095 21.6805 -3.9887 2.92964 0.412007
1025 1 6.29891 5.21021 -19.8519 -0.40541 3.05591 0.886992
1026 1 2.74434 13.363 -9.52237 -5.41412 -1.55258 -3.48154
1027 1 -22.9935 -6.37118 13.3693 -4.07335 -3.65731 -0.416526
1028 1 -5.83799 -12.73 -12.1327 -3.68868 5.89312 -6.6023
1029 1 10.4974 12.6613 2.79117 0.160995 1.11621 0.684425
1030 1 -15.2501 -17.8055 23.1282 1.51675 -3.3767 0.516185
1031 1 -4.12469 -12.0798 -3.41237 -2.18339 -0.804145 1.99567
1032 1 9.53662 8.25039 17.9542 0.751571 2.13732 0.550768
1033 1 -6.20197 -18.2493 2.53429 -5.6228 -1.33141 2.34354
1034 1 -14.7594 12.1997 -11.9373 0.289933 -4.4195 0.571657
1035 1 11.9614 20.0789 -2.76222 -4.28592 0.811453 4.15236
1036 1 4.23035 -12.2897 17.9121 2.76458 2.0414 -5.05794
1037 1 -12.9252 -16.6248 19.2959 4.10434 -1.04298 -0.603164
1038 1 -2.15698 7.46864 10.0516 2.28651 2.62315 -1.28205
1039 1 23.2208 19.3219 -10.181 -2.93342 0.977045 5.85542
1040 1 10.0876 -0.975732 -23.5782 2.03527 -6.33617 -4.50305
1041 1 -1.99362 8.00183 -12.7408 -1.11011 7.36158 5.48025
1042 1 10.9324 -5.41792 23.4747 0.230357 0.0191064 -1.43196
1043 1 15.4357 10.9538 -4.1828 -0.135388 8.20303 0.790663
1044 1 -5.6899 22.6425 -10.3671 -2.45095 -2.31269 -3.67717
1045 1 -5.45243 -2.9836 21.9003 -2.2859 -0.0252243 -2.44932
1046 1 17.4089 15.1716 -15.7228 -0.00510783 1.69566 -3.02771
1047 1 -17.4679 2.71075 20.0609 -0.188997 0.247119 0.693976
1048 1 -0.769325 1.12678 18.6055 -0.919255 -2.32103 0.0504408
1049 1 -24.1523 -1.08051 -12.1164 0.795708 4.68952 -0.434891
1050 1 18.4807 21.8857 18.8858 0.693772 -2.76832 -4.54995
1051 1 1.94894 -2.46187 11.4623 -1.32263 -3.29046 2.98621
1052 1 -20.6901 -2.496 -20.4052 1.48692 1.01423 -0.59479
1053 1 2.57815 6.80641 -18.7184 3.88432 -0.556172 0.0626818
1054 1 -13.966 22.5721 -0.0481092 6.44664 1.5675 5.56339
1055 1 -8.94216 17.0187 14.8722 1.44439 4.02052 4.6735
1056 1 -8.21727 17.1325 5.01705 -0.0181791 0.449168 -2.26902
1057 1 -11.5856 -16.7666 -15.0598 -2.20363 4.69526 1.11084
1058 1 -0.36974 -1.48108 -9.09304 -3.52627 -2.17093 1.14535
1059 1 3.49801 -22.9345 -15.2418 0.558846 -5.79065 -0.793363
1060 1 -18.4889 -10.9325 7.92856 -2.70631 4.96601 0.195621
1061 1 7.6549 8.40572 -14.6312 5.20223 -5.38701 3.62326
1062 1 -9.63683 -1.10582 8.92211 -3.92416 -2.54576 3.63021
1063 1 1.16135 19.1251 11.0273 -1.06236 8.41384 0.368403
1064 1 14.5242 -16.947 8.6484 0.844778 -5.70027 4.60249
1065 1 14.3229 18.7674 -17.7049 -3.60058 3.40233 -0.0114056
1066 1 16.045 -3.33617 -22.7881 -0.0235736 -3.11849 3.03786
1067 1 -22.3997 5.51108 7.19236 1.18777 1.21974 -3.66248
1068 1 -2.84299 19.1598 0.430181 -4.10302 -4.31952 -4.58021
1069 1 23.2879 15.625 -20.5726 -2.93361 1.19169 4.43452
1070 1 -7.20907 6.87941 10.3334 1.5586 1.81506 1.14364
1071 1 -17.9231 24.9411 -11.5418 3.70441 -3.47269 -0.301348
1072 1 14.3063 8.51423 -18.7895 -3.5055 -2.89358 -5.36709
1073 1 -0.434932 -23.1063 -10.526 2.91829 0.868191 -3.48188
1074 1 -11.427 11.934 -16.3089 4.1752 0.772852 -0.765158
1075 1 -2.0763 10.9254 15.1094 5.43901 1.10184 -3.03667
1076 1 20.3171 4.57365 -23.5393 -3.02712 4.48873 -0.193157
1077 1 15.5141 -8.37171 -8.98606 1.25649 -2.47372 4.78952
1078 1 10.0992 -7.60728 11.196 0.0899232 0.0116794 3.45597
1079 1 -17.2774 -0.184378 11.1843 -0.22783 -3.61441 2.86412
1080 1 -19.1801 -8.65545 -8.34748 1.09893 -4.17059 1.50629
1081 1 8.74841 -8.58642 17.1537 -0.477711 -5.16558 -0.797574
1082 1 -17.708 -19.6333 -6.29633 0.864276 -0.981863 2.98262
1083 1 -1.01842 21.8934 -18.8694 1.02017 -0.0908247 0.322358
1084 1 -0.262774 -13.2126 -6.08589 -2.89796 1.75625 -3.98394
1085 1 -11.2133 -16.5937 -5.22482 1.9071 -3.52868 0.00694701
1086 1 -12.7557 9.88343 -2.94421 0.903632 2.17442 -1.54306
1087 1 9.31469 -0.359003 -17.165 -3.30458 -1.99386 1.24415
1088 1 -22.9595 22.6069 5.19895 -2.32854 -0.797401 -3.65183
1089 1 -15.5432 9.0949 14.1526 -2.16345 -1.6554 0.920263
1090 1 -20.7477 -20.1151 -12.973 2.56643 1.16202 -0.787888
1091 1 -14.1682 10.7384 5.96821 -3.63921 1.45727 2.71172
1092 1 -18.4036 -19.5024 -3.31205 -2.14216 2.07232 2.90876
1093 1 23.141 5.6991 5.56007 -0.495963 1.8959 4.75042
1094 1 23.5803 20.4502 -21.1248 0.288897 -3.63939 -2.31125
1095 1 -7.41356 23.0219 -12.6359 -1.76619 0.431046 -1.67193
1096 1 9.94083 20.9842 -11.3166 3.34442 3.59754 1.01115
1097 1 19.0055 23.045 13.9869 -2.40245 -1.21254 1.53004
1098 1 -13.1416 -0.253649 19.9179 -3.4083 0.34651 -0.539658
1099 1 17.8981 10.4367 15.5226 -1.14687 1.72469 0.0288729
1100 1 9.89081 -8.90891 21.1023 0.277186 3.92026 1.00595
1101 1 7.66876 -15.2264 12.0897 0.543487 2.73168 4.20782
1102 1 14.3732 -13.1442 13.4658 0.807778 -0.54822 4.29949
1103 1 23.484 7.55894 14.781 -2.28346 2.28354 10.7978
1104 1 -23.5151 -0.58375 8.8024 5.53246 -1.2952 2.23787
1105 1 19.5608 2.13521 -0.637743 -1.12461 -1.94724 -0.527048
1106 1 -17.4308 -17.3902 4.95785 1.76553 4.95538 2.66082
1107 1 2.31068 -13.6578 1.73023 3.84574 -1.2544 0.763955
1108 1 15.2764 12.5441 -23.2503 4.40205 0.678528 1.63436
1109 1 -18.0006 -10.5614 4.95061 2.23642 -5.09266 -2.57379
1110 1 -9.69091 23.141 8.91532 1.60237 -2.39739 1.36141
1111 1 12.7025 -9.26021 7.05907 -2.44575 0.8287 3.94367
1112 1 -2.08578 -15.387 16.6913 -5.14358 1.34644 -3.39306
1113 1 -19.1846 19.8731 -23.0576 -3.38095 0.970197 -2.2099
1114 1 -19.2748 -4.17702 12.5367 -2.27826 -4.79105 -2.52849
1115 1 23.437 22.7622 -22.8586 0.282702 -1.61629 -0.604971
1116 1 -15.4678 1.67078 6.82773 5.33884 -3.46025 3.67098
1117 1 -4.27883 13.8494 7.47365 -0.902019 -6.30788 1.08142
1118 1 21.439 -2.03684 -13.4003 -1.27785 -0.629185 1.22867
1119 1 7.86892 -9.61942 7.07708 -4.1346 -2.11929 -1.31169
1120 1 -6.84491 -16.5879 -2.91192 -3.52486 -1.24996 0.581272
1121 1 13.0917 -3.88965 -18.0746 0.394954 2.7146 3.30612
1122 1 -7.89071 23.0958 -1.5741 1.64493 0.111547 -1.85634
1123 1 15.4955 -7.39726 -3.03269 -1.57921 0.340041 -2.2887
1124 1 -2.23872 13.1839 -16.6518 -0.442136 -1.44867 2.30518
1125 1 -20.1431 6.25727 5.27755 -5.77721 -2.93062 0.161878
1126 1 -0.925044 -10.1707 -10.9424 2.64673 1.23326 0.392967
1127 1 13.8642 19.9627 -8.65209 4.24225 3.0926 1.4606
1128 1 2.18332 13.5895 0.525416 -0.250393 0.170247 -0.310763
1129 1 1.96933 -9.11486 -23.5286 1.06362 -2.83161 -0.15345
1130 1 -0.123873 14.6138 -14.7907 2.99029 -1.39938 -5.23159
1131 1 17.6207 -9.36042 -3.45979 -4.99006 2.22889 -0.13042
1132 1 21.3319 -4.22767 19.1485 2.0759 8.13797 1.11726
1133 1 12.2085 14.4479 18.4419 -6.112 -3.50219 1.53788
1134 1 13.2566 -17.665 16.7123 -0.51342 -2.55747 1.73273
1135 1 5.39937 -2.00848 -23.7235 4.09906 -1.88445 1.8978
1136 1 -20.3553 -20.8138 -20.5715 3.65098 2.57807 -2.4393
1137 1 5.16264 4.98918 2.63036 -2.09219 -1.76798 4.02698
1138 1 -21.7488 -21.3346 4.96876 2.36386 -2.88082 2.35606
1139 1 -4.99334 9.64628 3.18564 1.54571 -0.117167 1.29083
1140 1 13.0591 -8.44384 -18.4435 -2.24037 0.196074 2.9992
1141 1 -19.3516 7.12797 11.1176 3.11584 2.02127 -0.184569
1142 1 9.93502 14.4946 5.976 -1.85232 2.65779 -2.92904
1143 1 1.61818 -6.3744 -13.0377 -3.76514 -1.73885 1.98787
1144 1 16.4884 3.0091 -12.2621 0.365601 2.60011 2.73803
1145 1 2.92737 20.0744 21.2775 4.91231 0.888741 -5.97146
1146 1 11.1107 16.2001 20.5335 -2.11233 4.56638 -1.11852
1147 1 -4.9466 11.7026 1.21763 -3.85978 3.39686 5.71519
1148 1 -12.2408 8.81132 10.9792 -3.20054 3.75918 -3.61896
1149 1 3.55791 -15.4159 12.1261 0.29277 2.20703 6.63384
1150 1 -12.3309 14.0713 7.8017 2.68129 1.50117 0.479347
1151 1 22.5285 -23.3822 18.4707 -0.676967 -0.619963 -1.76017
1152 1 -14.113 15.2859 18.566 2.35961 0.873642 -5.21527
1153 1 -3.23907 -21.7785 -0.270006 3.18274 0.656285 -0.972105
1154 1 -2.1667 12.1847 -21.7371 1.61512 -3.27269 1.2443
1155 1 5.90074 -19.8052 17.1367 0.0586733 1.85618 -1.13022
1156 1 -17.5046 -11.8767 23.4552 -3.38728 1.7187 0.424216
1157 1 4.23934 3.57694 -9.64751 -4.01053 1.16936 -0.544567
1158 1 -18.7217 0.140468 18.8223 -5.69347 2.05175 1.38609
1159 1 17.7011 -4.14399 13.5556 -2.75616 0.252297 -3.08063
1160 1 -8.35738 5.19014 -8.33424 -1.79594 1.7627 2.17976
1161 1 -9.42254 -24.3789 -20.087 -2.2027 1.63603 2.14792
1162 1 8.38582 10.4089 3.47828 -1.96858 3.37706 -4.49228
1163 1 -17.7266 -23.4032 11.6361 -2.12376 1.96861 -2.69831
1164 1 -17.9087 -14.3215 8.67163 -1.63416 -2.71379 -0.948927
1165 1 17.8906 22.8964 -0.588657 -2.53748 -0.35887 -2.31277
1166 1 -14.7633 24.0112 17.9844 0.995434 -0.0276761 0.657662
1167 1 -0.926432 13.7675 17.1949 -1.96563 -2.74433 2.36504
1168 1 10.594 -10.1259 -0.863149 -5.37696 5.73038 2.40819
1169 1 13.9135 -7.86792 17.8231 5.53795 0.890909 -1.36958
1170 1 4.1164 11.1675 9.98413 -2.10492 -2.03906 0.17115
1171 1 22.0605 -1.1124 -6.90024 1.92754 -2.32581 -2.69855
1172 1 -19.8818 -18.5778 -15.2714 0.0484319 -0.823 1.63887
1173 1 7.11111 -19.175 20.8925 6.47705 0.0489693 0.810993
1174 1 23.4165 -20.5829 -16.1064 0.473167 -1.45196 -6.33769
1175 1 -10.1439 14.1961 19.8501 1.7589 -1.48656 -0.807386
1176 1 -1.07787 -9.77053 11.9906 -5.72068 0.369175 -5.03268
1177 1 10.0106 2.76113 -17.9363 1.9196 0.733296 -2.44727
1178 1 -3.83342 7.42003 7.49418 -4.37143 1.79337 1.02314
1179 1 7.89524 -7.90919 -8.86695 -5.05997 -6.26007 -1.81142
1180 1 -9.48513 46.8456 -12.0416 -2.20671 2.07109 1.63101
1181 1 11.3217 18.1581 -11.856 -2.99941 -2.64323 1.54519
1182 1 19.5338 7.23019 0.233589 4.15672 2.19981 -0.522201
1183 1 2.32872 -4.21244 -17.2551 3.14436 1.49646 2.45445
1184 1 7.40843 18.9339 22.8051 -0.625969 -2.45747 -3.60976
1185 1 14.2995 8.56716 -22.8246 -0.916831 4.01643 -4.27502
1186 1 7.54129 -9.71234 2.37162 5.97522 4.57297 2.06393
1187 1 -12.6979 18.6074 -7.44982 -1.81431 0.409555 -3.53038
1188 1 2.5946 2.28709 -0.178588 5.08483 2.22377 -5.93003
1189 1 13.8674 14.8421 3.8866 -0.0624857 3.067 0.472586
1190 1 15.6024 -2.10024 -19.0148 -2.04013 -1.26227 5.93604
1191 1 -2.53664 -2.9122 -19.4098 1.88341 2.64012 -3.1259
1192 1 -15.7302 2.02273 -11.4068 -5.13776 0.621914 2.98056
1193 1 8.81137 -1.3294 16.3729 5.11598 -2.08501 1.2436
1194 1 9.02748 17.4014 -9.10377 0.918663 -0.786938 -1.45575
1195 1 13.1728 -14.6834 -16.5501 -3.58409 -4.05199 -1.158
1196 1 5.58314 17.7682 -12.5095 4.66669 0.596193 -0.389727
1197 1 -20.0418 18.2716 21.7016 0.9217 1.15157 -0.110179
1198 1 20.8604 -21.0507 11.445 -1.4007 -3.31473 -1.3161
1199 1 -14.2516 7.8718 -10.9604 0.350664 2.10912 2.00341
1200 1 12.8607 -9.94116 9.81924 -3.13017 -4.96195 0.446683
1201 1 22.8536 -19.5796 18.3407 2.98651 -2.03138 -2.54273
1202 1 -15.3297 -0.0440698 -4.80751 -0.531122 -1.49299 -1.97169
1203 1 -15.8792 -12.5365 -15.7828 1.42187 -5.05445 -1.46496
1204 1 -2.37745 22.3174 3.21492 5.24569 -2.16774 -1.72026
1205 1 -5.00655 -14.498 10.0005 0.959227 6.29788 0.488893
1206 1 22.3906 -20.1108 -22.3865 0.805194 -0.97689 2.56406
1207 1 15.6041 -5.91227 -15.3582 0.649429 4.52537 1.95115
1208 1 22.378 -8.51495 7.51253 -4.07745 -3.7432 0.549027
1209 1 7.47257 -6.80512 -23.3779 -3.24195 -2.51615 -1.14637
1210 1 -1.48759 18.509 -8.31173 -2.71345 4.26944 3.40684
1211 1 -16.5689 -11.7333 11.6 -0.214515 -3.38072 -1.1601
1212 1 20.296 4.92236 -10.7509 -1.44714 -0.594014 2.90554
1213 1 21.258 -15.3139 20.1086 -1.06408 -0.827878 -4.9265
1214 1 10.3729 1.5729 -1.67613 -3.37378 2.81384 -0.741046
1215 1 4.00602 10.7756 -8.76043 -0.981618 -2.08659 0.142651
1216 1 14.5325 -7.99875 -11.6716 4.18984 3.92143 -2.97525
1217 1 16.1251 -14.5926 2.25161 -1.24119 -0.783816 -1.03072
1218 1 17.3297 -4.94414 -9.4574 1.1467 -7.08397 -2.1867
1219 1 12.1928 9.22767 11.1933 -5.74154 5.80361 -5.09889
1220 1 -18.8459 23.3693 15.0348 -2.59108 4.92415 1.34631
1221 1 0.308371 20.2633 -20.8553 0.35415 -0.128843 -4.29971
1222 1 20.0066 19.7376 11.8027 2.77112 -3.08648 -3.33385
1223 1 -22.7303 12.1247 11.6562 -2.19422 -0.72319 -1.82256
1224 1 13.7212 -7.55959 12.4021 0.0626281 -0.867779 1.21095
1225 1 -2.28058 -20.9631 21.724 -3.77888 -2.36633 -6.64559
1226 1 -20.6439 14.0276 1.92001 -2.78126 4.91446 3.06478
1227 1 -0.722832 -7.83551 1.02737 7.67755e-05 0.965851 0.331948
1228 1 -24.1236 -20.8687 -10.8138 -1.87137 -3.66646 0.17497
1229 1 18.1554 -16.7836 -0.510481 -0.673593 5.42274 2.05032
1230 1 -14.241 -20.0613 -9.32425 2.87725 -1.30429 1.39394
1231 1 -18.3471 -5.61084 -8.56953 -3.04903 -3.08455 3.14881
1232 1 -21.6294 16.7437 -22.3169 -1.04739 -0.472988 -1.14483
1233 1 -3.44016 3.64846 -21.3543 1.51845 0.237496 1.81988
1234 1 16.5506 13.458 6.80087 3.17495 2.86084 -0.906454
1235 1 11.011 19.9879 1.39627 4.08194 -4.87424 4.36144
1236 1 -7.78584 -22.7217 13.1495 -4.86854 0.532824 -5.15494
1237 1 -18.2925 20.7525 15.5285 -0.153665 3.60519 0.267461
1238 1 8.08986 -2.73972 -13.0962 1.75541 4.30282 1.25243
1239 1 -1.35629 -23.1376 7.18731 -0.027253 -2.93891 0.492572
1240 1 -5.17489 -23.391 2.32221 3.47418 4.35221 0.197945
1241 1 13.2558 13.2534 -17.734 0.0969617 5.04946 0.716921
1242 1 6.25973 -17.7555 -13.2122 -1.76422 6.45302 3.50349
1243 1 8.96663 16.8442 -21.2293 -2.59349 0.14963 1.19098
1244 1 -17.1937 2.18092 9.1071 2.08013 1.06309 -5.96972
1245 1 -20.9109 12.0448 -22.091 0.108162 -2.49163 4.35093
1246 1 -7.40852 -15.973 4.03597 -0.530798 -1.38981 -3.29848
1247 1 -2.72457 1.11548 -11.2715 -2.59324 -3.37888 6.26685
1248 1 9.24413 5.51083 19.0736 4.82975 0.917324 -0.832487
1249 1 7.94989 14.0684 -20.9302 1.90536 -2.58555 3.34379
1250 1 4.79581 2.41642 22.9948 -1.67211 4.07062 1.19598
1251 1 20.3237 -0.543546 22.6774 0.170981 4.58538 0.204068
1252 1 18.3519 -18.886 1.29883 0.748153 1.21547 6.77238
1253 1 14.6784 25.4496 -2.62058 4.34059 -1.65047 -0.574566
1254 1 -21.6692 -19.5229 2.75959 0.206979 3.5368 0.177135
1255 1 -5.73872 -12.7268 6.91879 0.98862 -4.92005 -1.82374
1256 1 3.70015 -19.9898 -18.8288 -3.07183 2.41071 4.80781
1257 1 -4.78005 -24.5912 -10.3165 1.64698 -2.89734 0.92466
1258 1 -18.0452 8.58662 20.6205 -2.11357 -2.46369 -4.90912
1259 1 20.4589 -10.7401 6.7383 -2.63303 -2.64236 1.88659
1260 1 3.77349 -5.382 -14.9229 -2.7875 -1.12039 -2.6941
1261 1 13.4201 -10.993 -12.1164 -5.43199 -1.91236 -3.23947
1262 1 12.1582 -12.881 -6.19611 -3.38446 -1.29311 5.64344
1263 1 -14.3645 -6.81711 -2.03227 1.84883 -3.93342 -2.02371
1264 1 -21.5176 -10.8267 -3.71163 -1.68128 -2.30446 0.180544
1265 1 -8.33311 14.5154 -11.0723 0.307154 4.25933 -1.74261
1266 1 14.347 -8.0636 2.34784 -1.22418 3.32303 1.32167
1267 1 22.4097 -17.0403 3.34584 3.62909 2.11648 1.82491
1268 1 -19.2177 -13.0394 -19.4547 1.12622 5.68235 4.85956
1269 1 10.6427 -7.16004 18.8693 -0.119657 3.71286 -1.17785
1270 1 -22.9673 16.5149 13.3646 -2.38215 1.67607 0.994976
1271 1 -0.513147 4.85409 17.2723 -1.22751 -1.17434 6.39262
1272 1 -24.0834 9.51116 17.0802 1.56066 -2.24684 -4.51386
1273 1 18.5544 3.57334 21.0345 1.3194 -2.63926 -5.47086
1274 1 23.699 18.4272 -18.9478 2.80259 -0.89179 2.94041
1275 1 4.23623 5.02863 9.20246 3.05549 2.46779 -1.59413
1276 1 -1.32654 -8.86182 -20.1892 -5.85777 -1.35662 0.826495
1277 1 -9.59648 20.7283 -4.59551 2.09066 2.41774 4.43278
1278 1 15.5561 -7.48458 -20.6536 4.89102 -0.515692 -5.23313
1279 1 -18.2967 17.8482 -12.5498 3.75615 2.37312 -3.52278
1280 1 0.0315174 -3.18483 -5.07632 -3.55093 4.30405 -2.14882
1281 1 13.8523 -9.6265 22.227 0.289455 1.10643 -0.277167
1282 1 10.0553 -18.6741 -1.05221 -0.13924 0.814647 4.18404
1283 1 5.29496 -20.1792 -11.4322 -1.36248 2.3517 -3.49173
1284 1 6.86164 -13.764 3.92307 -3.85964 3.51997 -0.410758
1285 1 -11.987 22.2896 15.0494 -1.85316 1.8954 4.63749
1286 1 -7.8436 5.50261 -15.1402 4.45502 -0.990691 -3.95611
1287 1 10.9454 -17.9248 18.7312 3.99521 -0.0180639 2.08722
1288 1 2.32462 -1.26556 -16.5341 -0.000332527 4.67354 -0.689905
1289 1 21.7781 -12.3627 -8.57298 -4.75003 -0.991311 4.10524
1290 1 2.07691 5.20126 7.05404 -5.28444 -0.641233 0.815275
1291 1 -18.5912 15.7327 2.54557 -2.86246 -5.05765 1.80597
1292 1 -2.61174 20.0151 -3.85074 2.41259 1.35015 -1.34991
1293 1 -6.18553 -2.89003 -2.5731 5.6302 -3.52818 -2.15634
1294 1 14.6063 -12.8854 -7.39674 5.07018 0.393176 -2.43305
1295 1 12.8982 5.99934 -2.08382 -0.630469 -0.136421 -0.156006
1296 1 -6.10301 -9.23021 7.3835 0.441306 0.556778 10.0956
1297 1 14.8233 14.547 15.8764 6.96684 -1.93422 1.43514
1298 1 0.080512 -6.39407 -1.30546 -5.3862 2.03456 4.68561
1299 1 -9.36335 -10.4798 -6.7472 3.17019 1.94894 -5.15981
1300 1 2.40034 -1.42697 -1.86718 -1.24948 -1.93232 -0.686119
1301 1 10.4138 15.1176 -9.89448 -0.836067 -2.71057 -0.821382
1302 1 -3.70229 -2.5444 -23.7864 0.40443 -0.811879 0.929712
1303 1 -5.23136 -9.39224 -17.2011 1.64723 0.779934 -2.16283
1304 1 2.4799 0.623634 -3.9133 -3.03266 2.63569 -1.896
1305 1 -4.31243 3.32092 9.83158 -3.83246 -1.24374 -4.51041
1306 1 7.7198 -21.844 -0.870618 -0.0110507 2.12428 -2.6336
1307 1 -15.885 45.6908 -2.87545 -4.16543 -0.840472 -4.22398
1308 1 -20.6827 -3.92295 6.06366 1.14455 -0.295227 0.368785
1309 1 -0.758609 -9.33095 -5.16555 -0.705092 1.30066 0.696918
1310 1 -2.48699 -15.8945 -0.663312 -3.73096 1.05642 3.95055
1311 1 -1.83928 17.233 -14.4032 -0.258787 3.71384 -2.93025
1312 1 -17.1062 -7.74422 4.87928 -3.84062 -0.46669 0.517489
1313 1 17.4663 19.5849 23.5499 0.830004 -4.26428 3.8538
1314 1 -16.6966 11.3247 -17.8889 -0.303328 5.6484 -1.44635
1315 1 -18.5059 -11.7383 -21.8017 -1.87878 -2.54647 1.01666
1316 1 21.1908 -9.7723 -14.7645 1.12307 -1.79422 1.32611
1317 1 -12.263 9.1215 -12.023 -1.7759 -0.97482 -1.47175
1318 1 -23.8897 20.6615 -2.21273 1.69307 2.85819 2.86037
1319 1 13.7915 23.3373 -0.469605 -5.35725 -3.19963 -0.371488
1320 1 20.9023 -7.42733 -8.64452 0.710107 1.35513 -3.84991
1321 1 8.30332 -21.6935 -5.35088 -1.05276 -0.139644 -1.1429
1322 1 0.811971 -11.3516 -4.05887 0.280791 -1.70704 7.13899
1323 1 14.3974 -10.4846 12.0083 3.12137 -0.847581 2.12138
1324 1 -13.3548 -15.4562 -18.394 1.81746 -1.35108 -1.93809
1325 1 -1.94642 13.5561 5.80175 -3.03044 0.377836 -2.54328
1326 1 -18.7648 -18.3579 -20.1478 -2.10359 1.67836 -0.711893
1327 1 -8.53182 21.4734 -21.7511 -3.27551 2.14475 -2.40043
1328 1 11.2705 12.1141 6.85805 1.0466 -2.04687 -1.34681
1329 1 22.9271 -15.0308 -2.69143 0.334349 4.76409 2.71438
1330 1 -9.93199 15.4428 -7.03665 5.72988 6.22243 2.45072
1331 1 -18.7457 2.64909 -2.39749 3.06846 -3.44795 3.87223
1332 1 12.7356 -22.7999 22.991 -0.137851 3.87479 1.06625
1333 1 0.912834 10.1315 5.36433 1.73531 -0.629913 0.105267
1334 1 11.7206 -9.39589 -8.84115 1.56063 -4.74109 3.27782
1335 1 -16.3291 25.8047 -15.8098 -1.15819 -0.444179 -5.37685
1336 1 1.13637 21.1386 -8.3091 3.54311 -0.192523 -0.27278
1337 1 7.69435 -19.4823 8.28183 -2.30232 -2.89469 1.01515
1338 1 0.172531 6.29946 -0.37731 1.33319 -3.88644 -0.238872
1339 1 0.341273 -19.6606 21.6562 -3.49161 -0.927963 -0.926651
1340 1 -17.5537 16.2614 10.3269 -2.38251 0.174432 -3.52304
1341 1 2.37278 10.3354 13.9005 0.533304 -4.52454 0.824688
1342 1 0.906261 -23.7973 -15.4575 2.27991 -3.21506 -0.761578
1343 1 -12.0009 -9.51887 -7.98904 -4.63388 -1.25663 -1.22259
1344 1 19.8536 -9.07331 3.56841 -1.57123 1.86953 0.702254
1345 1 -22.9015 2.72529 -19.5408 2.24791 -1.82492 2.92136
1346 1 16.7601 -4.21478 -13.2626 2.41902 0.580484 -0.320281
1347 1 -16.3971 -12.2254 -18.7648 2.57741 3.63502 -1.13783
1348 1 1.23141 12.5211 -15.9781 1.69002 5.40543 -0.597247
1349 1 4.58356 -12.8409 11.6453 0.453981 0.0677442 1.27953
1350 1 -14.6061 0.69416 -2.21075 1.21526 1.59103 -2.48828
1351 1 16.5394 -14.262 18.1407 2.31756 2.09998 -3.19363
1352 1 6.86991 22.3005 20.5491 -5.19397 1.38955 4.13553
1353 1 6.99256 20.0927 -0.391977 -2.34813 1.54443 -1.46034
1354 1 -1.77465 -4.63286 -17.3413 1.32881 1.6455 0.352964
1355 1 -8.64988 22.6172 17.7057 -0.136181 -2.16407 -0.199325
1356 1 -19.9769 -12.9976 -2.8342 2.91634 0.726374 0.52788
1357 1 -19.4112 -7.29456 -10.9454 3.79742 6.57034 0.224531
1358 1 -10.0088 24.6336 21.798 3.14924 -3.70177 -3.62626
1359 1 -22.0074 -24.5924 22.1289 -1.79153 1.2826 2.18615
1360 1 19.7952 -13.1315 8.7603 0.977389 0.228441 -4.19461
1361 1 -7.91888 -22.3104 3.01324 1.72288 -0.622395 5.36719
1362 1 19.7878 19.3704 8.09596 2.17031 5.92078 3.7868
1363 1 -16.1278 -10.2614 -21.1725 -1.60522 1.46021 -5.48238
1364 1 13.8903 -14.3317 -11.1561 3.0747 1.26031 0.152581
1365 1 8.43999 -5.78862 -20.5516 1.28214 1.71229 -5.33392
1366 1 20.458 -14.8954 -1.00641 -1.96837 0.345747 -3.46835
1367 1 -10.1986 -11.6945 16.5538 2.56556 -3.72117 4.46499
1368 1 -17.6714 17.2252 -1.41246 3.87491 -1.32752 -0.670028
1369 1 23.4168 2.51205 -4.89899 -1.6726 -0.311883 2.40545
1370 1 1.97689 -13.3144 21.7363 0.78846 -2.2099 -6.81138
1371 1 -19.1291 9.29843 -0.97699 -1.26465 3.05652 -0.511052
1372 1 -9.55805 9.94452 4.83066 -0.828269 -1.19473 -0.43912
1373 1 -13.2775 -9.60533 12.9288 -1.13112 -3.60138 -0.173916
1374 1 -17.4532 24.6635 17.6677 -2.01554 -0.690672 3.21379
1375 1 17.4481 -7.58209 2.53164 -1.81943 1.32131 0.503978
1376 1 5.08573 10.4944 -6.22532 -1.33508 0.572146 -3.89674
1377 1 -11.9297 22.5847 -23.9549 1.9148 -2.32601 1.32481
1378 1 9.34536 -11.3769 1.35507 2.36172 1.45158 0.783525
1379 1 -18.0577 -19.1306 2.5571 -0.590116 3.09826 -2.91903
1380 1 15.3148 21.6542 -11.9797 6.57122 3.0226 2.93475
1381 1 18.619 16.5181 11.0335 0.151548 -2.05419 -1.37025
1382 1 17.0169 -13.3294 8.90882 -0.0246324 -2.58238 -3.37221
1383 1 -7.08604 -22.6769 -14.4954 -2.36364 3.10187 1.00477
1384 1 3.02878 21.0229 -13.3766 -6.44615 0.0838055 -3.63941
1385 1 -15.6525 24.2414 12.8662 1.57687 1.03649 0.719283
1386 1 -12.6956 9.7401 0.894763 -0.868732 -0.917299 1.10458
1387 1 -19.763 -1.56696 0.539218 -1.54025 -2.6813 -2.13428
1388 1 15.5592 -3.94236 18.1471 0.102266 -0.0234597 -0.214298
1389 1 20.1561 -6.04191 -1.73996 -2.05944 -1.79116 -3.75296
1390 1 6.92142 -1.26235 11.4788 0.459483 0.364657 1.79586
1391 1 -11.6206 20.884 21.7887 -0.219262 0.81524 -4.90558
1392 1 23.1641 2.54261 2.39019 -3.13815 0.778533 0.659003
1393 1 -1.28978 -5.36017 1.97552 3.52652 -2.70015 1.98745
1394 1 3.63113 7.40271 -0.357889 -2.28949 -0.462684 0.600934
1395 1 0.932872 9.71827 -6.56583 7.28187 -2.20294 2.08205
1396 1 -17.5052 -8.26344 8.6537 -2.84162 -1.98539 -5.42081
1397 1 5.88372 24.1994 -7.36547 2.27482 4.07969 1.84794
1398 1 2.70265 22.4862 -6.44711 1.31104 -2.04032 -0.313878
1399 1 -1.24816 -22.9313 -1.87712 -2.29358 2.34086 -0.758949
1400 1 -12.8886 15.1259 -23.1872 -4.64508 4.01962 -0.346322
1401 1 22.015 -22.6658 21.2607 -2.11903 -2.68745 -0.571569
1402 1 -18.6855 -5.40807 -17.0744 1.31242 3.46075 -5.44443
1403 1 15.47 -23.4449 15.8476 2.9998 2.58309 -4.75333
1404 1 21.2659 -10.5107 9.7452 -4.21957 1.64896 -3.33467
1405 1 20.5437 21.0694 -21.3448 1.73027 -5.84952 2.48096
1406 1 -9.0011 3.80234 -12.7932 5.57549 0.808917 0.417371
1407 1 -24.3947 10.0725 0.478155 -3.37541 2.0938 1.1452
1408 1 -4.37679 -5.48551 -13.8055 -8.85917 -1.75814 -6.13712
1409 1 -2.27435 5.63432 22.6776 -1.50148 -0.922978 2.17045
1410 1 -2.55346 -16.6704 -18.4226 -0.30532 1.96969 -2.48276
1411 1 18.5479 2.79291 -22.1952 0.212137 3.05682 0.390596
1412 1 -20.7112 9.28202 -9.33595 -1.23921 5.95061 -0.370597
1413 1 -16.5336 3.811 -21.2896 0.0791867 2.66535 5.07101
1414 1 6.96126 22.8708 4.78113 3.87251 -0.726741 -2.79466
1415 1 -5.58688 -23.1782 -0.729554 -2.64971 -0.184288 -2.07206
1416 1 -21.935 -8.70591 10.1306 9.78985 1.22914 -3.26542
1417 1 11.505 4.18602 13.6741 -0.250327 -2.86367 -6.29389
1418 1 14.0679 -8.28729 -0.453722 3.86729 -1.7141 -1.577
1419 1 8.28767 22.4898 -1.67809 1.63788 -1.30388 0.977359
1420 1 -13.3567 19.3035 -22.5436 -4.27178 0.392108 4.30399
1421 1 -24.1661 -9.61038 5.2116 -0.433011 3.66859 -1.23169
1422 1 -12.7621 -21.0896 -16.9317 -2.27877 1.56514 -2.83668
1423 1 8.52722 22.9174 -20.0909 -3.22999 -4.07997 -0.242079
1424 1 21.3594 11.2158 -7.25828 -2.39413 -2.30682 0.20362
1425 1 -3.39728 5.67052 -11.3987 0.895898 1.86717 -1.85482
1426 1 8.15231 -20.0789 4.01237 0.994524 2.20018 -2.65842
1427 1 20.2661 -14.1054 -3.71258 -0.594396 -0.776424 3.5794
1428 1 -4.34506 -17.5201 19.7002 -0.97559 -5.68689 -1.11966
1429 1 -19.9223 -15.3622 6.98888 -3.97515 -3.64354 -8.02224
1430 1 2.17144 13.3368 6.91177 -0.519006 0.404267 1.61794
1431 1 -8.38563 0.761885 -8.87846 -1.68639 -0.180003 -2.4389
1432 1 -12.6886 8.56966 22.4808 5.58932 -4.34295 0.586332
1433 1 -18.6959 -12.4497 -16.8033 -4.11224 2.26718 1.2493
1434 1 -23.6094 4.11317 22.8049 1.54983 0.393103 -2.13285
1435 1 19.3295 21.4304 -5.45524 1.7282 -0.744574 -0.846602
1436 1 -16.5294 -4.25664 -15.3285 -0.0582926 0.49555 5.83552
1437 1 5.39731 14.4502 -22.0998 -3.76049 -4.15033 3.41767
1438 1 -1.1286 -0.97337 -14.5143 -1.31343 -0.300979 -1.33805
1439 1 -18.6238 8.85663 -13.0334 -2.07936 -0.937424 0.522969
1440 1 -20.7925 13.8963 -2.90547 2.10686 -1.26543 -0.140212
1441 1 -17.4093 -16.217 17.6075 2.62618 -2.29089 -1.1873
1442 1 -19.7482 -8.54301 -4.65415 -2.75459 -0.693351 6.22285
1443 1 18.6349 -12.9294 19.4868 4.39347 1.21024 2.04956
1444 1 13.2792 20.0053 -23.283 1.33713 0.586877 0.372738
1445 1 11.8932 -19.2424 10.768 -5.08945 -1.43064 0.75006
1446 1 3.46154 -8.66311 -9.78845 -1.25891 -1.53921 -0.978355
1447 1 22.8986 -5.07853 -17.2754 -1.63121 2.16451 0.469785
1448 1 -15.0501 1.96531 4.11987 3.06832 -0.58501 0.199168
1449 1 10.5021 -3.47711 0.299202 -3.6498 -3.1385 -3.48666
1450 1 -7.92501 -3.80249 -7.14914 3.84346 -1.70475 2.76683
1451 1 9.15112 23.7184 -12.0777 -1.26272 -1.22973 -1.08935
1452 1 -6.71153 -23.6663 -17.069 -8.13792 2.73002 1.1407
1453 1 0.146034 -21.4362 -6.19279 6.97604 -6.65653 -1.80291
1454 1 7.51688 -12.7729 -0.263954 -2.18893 2.05987 2.16267
1455 1 -15.833 -17.7696 -5.15037 1.95921 -2.07703 2.9949
1456 1 -15.6653 14.2279 9.26827 -6.63134 -0.403288 0.918649
1457 1 -19.4262 0.407311 -20.3223 -0.690953 -0.445633 -2.0492
1458 1 -21.2424 12.9905 8.25457 2.56605 4.29861 -2.62615
1459 1 -12.3194 -14.0508 -4.84868 -1.21957 -0.288087 -1.93273
1460 1 -15.4553 6.20292 -12.9214 -0.0838313 -1.93679 1.5055
1461 1 -13.9475 15.9416 22.4524 -2.75448 2.42305 1.65554
1462 1 -8.57369 -16.9573 8.29501 -0.124398 -0.249085 -1.59985
1463 1 6.3483 0.422955 13.6914 2.70613 0.984878 -0.152674
1464 1 3.42581 -18.9992 5.02021 -0.369494 -2.08168 -1.44421
1465 1 -19.7539 19.9477 -14.1227 -0.539997 2.62665 4.25087
1466 1 -17.2976 -5.31076 -1.8289 -2.03287 3.32375 8.87604
1467 1 -23.9846 -16.1939 -14.729 6.61055 -1.06593 -4.44098
1468 1 18.3719 24.861 18.1432 0.869072 3.75427 6.60613
1469 1 18.5951 13.8246 3.98419 3.23427 2.86009 0.382786
1470 1 -2.61422 -11.8271 5.78072 -6.4411 -2.62449 0.386831
1471 1 -4.95424 -5.01739 -11.0258 3.35758 -4.82411 -1.55608
1472 1 22.3276 2.57853 16.6986 2.8413 -1.87202 -3.64542
1473 1 13.4975 -17.7406 -15.3453 -1.47598 0.804524 -0.291143
1474 1 -1.18692 20.9655 -23.1984 2.93235 4.6178 -1.00783
1475 1 -22.2758 46.2157 -4.51176 -2.8464 0.249247 -5.07589
1476 1 -21.658 13.4431 -19.7393 -1.29171 2.13742 -0.140351
1477 1 19.7868 -0.597198 -0.969402 -0.986128 2.35628 1.97163
1478 1 -0.895932 3.73197 3.4486 1.09902 -1.9189 -3.55643
1479 1 8.68313 -6.66414 6.85435 -5.3541 4.34722 1.48599
1480 1 1.097 14.4952 -6.04991 -0.631712 -4.34384 -6.90671
1481 1 -7.23238 15.4206 -3.87039 -2.41297 -0.816771 0.114501
1482 1 4.99928 22.663 -23.3047 -0.586262 -1.89774 -1.10117
1483 1 9.21928 -22.8281 -19.6814 3.69113 0.658554 1.01431
1484 1 -6.58072 10.6692 5.40431 -0.814252 3.03173 -5.22431
1485 1 11.1153 -8.42237 23.6369 -1.8852 2.56564 -5.08201
1486 1 -19.6022 -6.81531 16.3525 0.242526 -3.12865 -0.160534
1487 1 -5.29951 4.07616 -16.2737 -7.00543 -2.10625 0.217053
1488 1 -18.0321 -15.7406 11.4502 -1.52071 -1.74728 -4.00516
1489 1 -22.3294 16.2628 -3.02475 -2.83588 1.11462 3.61384
1490 1 -22.2341 6.3018 -1.9157 -0.769126 -1.56222 0.00729542
1491 1 13.0649 7.68355 -4.36774 -1.10451 3.4428 5.03013
1492 1 -11.8925 11.4524 12.0102 -0.671974 -0.322433 -1.67105
1493 1 -3.79143 -6.6687 -17.9126 0.0489669 -6.21917 -2.46158
1494 1 -9.95211 5.4262 -19.4992 2.26928 -3.05682 0.20337
1495 1 -20.9953 -9.34754 19.6729 2.18114 -5.43278 0.880732
1496 1 -3.72983 10.1236 -9.875 -6.99008 5.82657 -1.31552
1497 1 13.1769 -9.26256 -21.145 -4.64841 -2.49555 -0.898655
1498 1 -14.1146 5.66886 11.2459 0.467581 -1.11631 0.0989877
1499 1 14.3432 4.52105 21.537 -1.40638 -2.24385 -1.16304
1500 1 -19.5497 18.7737 13.7368 -1.33654 -3.59371 -0.290738
1501 1 8.81289 17.62 -15.3587 -1.7705 -0.814503 1.81719
1502 1 -21.8148 -6.85238 -5.33362 0.539086 1.47527 -0.26029
1503 1 9.20769 25.0946 -23.2296 5.26957 -3.6123 1.62321
1504 1 -1.92955 -23.2549 -6.8168 -5.18506 -3.07787 4.2686
1505 1 17.8824 -22.5196 -19.9105 1.35568 -3.47025 2.91614
1506 1 14.1932 14.0601 0.0868715 -0.0963445 4.06897 -1.02724
1507 1 -19.7038 21.4274 -6.37773 3.43992 -0.802886 0.550591
1508 1 21.2114 -11.4062 -2.34096 -3.0767 -4.35274 0.982512
1509 1 13.3577 22.8359 -7.64033 -1.31509 -3.18479 -1.26181
1510 1 -16.6382 -12.2477 -0.708995 -5.31841 -3.45042 0.180294
1511 1 -23.1743 -4.61488 15.6159 0.463019 2.39522 2.15729
1512 1 -13.7814 -15.1557 -2.66005 -5.67501 0.110088 5.0453
1513 1 -20.8433 1.92491 18.2978 2.71916 -1.51935 -0.256048
1514 1 -14.0742 -4.36001 -6.08017 4.9473 -1.20439 0.638699
1515 1 -8.63968 -24.6135 20.424 -4.81356 -0.324429 1.30503
1516 1 -9.19641 23.0691 -24.0068 1.12579 -2.63752 -7.27117
1517 1 22.852 -16.4326 -9.77538 3.37723 0.0340956 -0.479504
1518 1 -4.33066 11.1815 -23.803 -3.16455 0.270124 3.64654
1519 1 -12.6594 -18.8994 -0.589806 -3.58129 -1.45277 1.55602
1520 1 9.82679 3.62442 -12.0114 -0.346211 2.31246 2.25343
1521 1 -9.19057 -7.72433 17.5926 0.945472 -2.71069 0.635904
1522 1 -13.1091 -0.981961 -14.6418 0.791422 -1.16369 -1.95236
1523 1 -7.21106 7.23267 13.2231 1.81578 -3.3439 0.640713
1524 1 1.14194 -18.9573 7.13336 -0.66337 -0.877084 -2.0289
1525 1 -11.8607 -6.1142 0.539147 -5.37409 1.28948 -0.461708
1526 1 21.4678 21.508 3.43579 -3.82961 -7.38207 2.89035
1527 1 2.04909 0.575952 -6.91786 -0.354655 0.955443 3.89726
1528 1 11.7898 14.6451 15.6682 3.42559 -4.77202 -3.44545
1529 1 -7.88057 0.127331 10.4644 -3.44766 1.6656 1.90175
1530 1 16.6133 15.8636 5.19557 2.45172 6.05779 -4.56011
1531 1 7.1777 -7.35313 10.7616 0.694759 1.54813 1.74949
1532 1 17.5572 -5.32605 -17.5278 0.791135 -3.59698 -2.87911
1533 1 13.2716 20.4723 12.1267 3.14881 1.0799 -2.28414
1534 1 -17.2905 -6.87477 11.3308 -4.47879 2.01767 6.99331
1535 1 4.77232 -6.606 15.0324 -1.04853 -0.743088 4.40823
1536 1 -6.55111 0.507002 23.7367 -0.178891 4.14589 3.70608
1537 1 -3.14444 23.4992 -17.5326 -4.4164 -2.64976 2.7652
1538 1 6.92368 17.4265 18.5727 -1.50656 -1.97479 -1.91772
1539 1 1.48608 8.57034 -14.7382 -0.816761 3.10658 0.448287
1540 1 -21.6313 5.01081 -23.6973 -2.97746 -0.712668 0.508284
1541 1 6.677 -15.7056 -7.84338 -3.08313 -5.49044 0.152282
1542 1 -21.1045 -4.60746 17.6012 1.80828 0.359432 -1.42156
1543 1 3.55141 0.645243 13.1034 -1.53508 -0.823119 0.569449
1544 1 -3.29885 20.4985 -17.8905 -0.0963747 -0.176673 3.01178
1545 1 -8.61604 -13.7015 15.1765 1.16249 -2.07222 6.05795
1546 1 -14.107 -14.355 20.5527 2.41172 0.422259 -1.48065
1547 1 13.8988 0.460418 -1.96298 1.82972 -5.93454 -1.05232
1548 1 16.8245 45.0661 -7.64279 -0.475728 1.65675 0.934007
1549 1 -0.0916943 -2.66996 -16.3436 1.29897 -2.92656 0.791703
1550 1 -3.82478 -7.72463 -11.005 3.03281 -1.27844 -3.45875
1551 1 7.47229 -2.97228 -6.4585 -2.675 1.50028 0.209542
1552 1 17.0444 9.64343 -17.248 -0.85807 3.86854 -3.84647
1553 1 -10.7889 19.4011 -11.5229 -1.37649 -0.474365 5.67552
1554 1 -5.03348 -7.67407 -21.419 -4.50934 -3.24999 -1.25764
1555 1 -22.0284 -3.96321 -2.28485 -0.28563 -0.147627 0.327288
1556 1 19.9681 -19.9155 -8.6632 -4.78199 2.40905 5.76649
1557 1 7.18803 -22.3494 -17.7485 5.33236 3.44971 1.60906
1558 1 8.64438 -17.5957 1.2643 -1.80061 1.51168 3.89726
1559 1 23.4164 19.299 2.52047 2.06236 -1.05138 4.92568
1560 1 -18.6113 -19.221 20.5581 3.67627 2.3677 -3.63797
1561 1 20.3085 20.0183 -7.5381 1.16287 -0.607761 0.361109
1562 1 -1.94783 -4.65679 -1.1068 0.621771 0.0775126 -1.85133
1563 1 -3.5822 -5.26957 9.57626 1.68647 1.36435 -1.23375
1564 1 7.71547 13.7133 -7.62437 0.574553 1.05402 3.33801
1565 1 -5.60844 15.6705 -11.2158 -5.51788 1.052 -0.192066
1566 1 4.28013 -8.00634 7.86529 4.21283 3.36946 0.508892
1567 1 1.29394 -10.2456 -20.9556 -1.19516 1.06275 -2.93555
1568 1 19.8448 20.1324 -13.2084 2.4343 -2.02458 -0.545144
1569 1 7.9738 12.9908 4.67243 0.141192 3.37002 0.921727
1570 1 -22.4623 1.2039 -13.4693 -2.25045 1.20694 -0.125369
1571 1 -5.21448 -9.86682 0.716179 -1.59583 -2.37064 3.23162
1572 1 -2.85528 -16.6797 11.7867 -2.5214 0.0153574 0.842885
1573 1 -10.8343 -11.0218 19.2281 -4.4781 -1.97347 -2.09687
1574 1 19.5668 -17.3703 3.29032 3.28833 -2.27296 -1.72838
1575 1 -18.0864 14.9658 5.41107 -1.98102 -1.9846 -1.97007
1576 1 13.6279 20.2687 -20.2555 3.23488 -3.46822 -2.76473
1577 1 16.0808 -23.1771 6.54993 6.60454 -1.76745 -4.07453
1578 1 17.1469 0.0135366 -11.6921 0.255948 4.43306 -7.6852
1579 1 -6.19672 13.6971 -7.27774 -3.03664 -0.688712 -3.39591
1580 1 -15.2775 -24.4818 -5.34172 -1.69066 -0.958978 3.56212
1581 1 -9.00194 -4.98514 10.9199 0.88391 -3.57081 2.45679
1582 1 -13.9301 4.80178 -1.94823 2.42726 1.55647 1.93846
1583 1 10.5994 -2.3131 -3.53722 1.27306 0.186903 1.7097
1584 1 -6.49275 -4.0023 13.7067 -0.962586 -4.52548 -4.46851
1585 1 -8.01077 -13.7701 -22.755 -1.89241 0.00675199 -2.40151
1586 1 -17.0944 -23.84 1.14081 -1.18496 1.16416 -3.07477
1587 1 20.0036 -3.83202 -10.0756 -1.03606 2.86256 -0.974858
1588 1 4.16693 19.4976 -22.0045 -0.63505 -0.988307 -2.03091
1589 1 -12.0685 -22.8326 -2.48369 -0.759669 -0.756237 -3.32349
1590 1 21.0592 8.94795 -14.9987 -1.40437 7.82518 8.05337
1591 1 13.8857 11.736 1.98299 3.58622 -2.66849 -2.66961
1592 1 17.3502 7.76027 14.5512 3.67362 1.52659 -0.339063
1593 1 1.40765 24.9247 -18.4825 4.57341 0.322243 1.51141
1594 1 9.54519 4.09685 0.205503 0.0966716 -4.65451 -4.72104
1595 1 7.69037 16.5185 -6.81886 -6.11018 -1.82026 3.56655
1596 1 -5.02081 -1.57783 -19.6493 -1.92968 -0.122859 0.156294
1597 1 18.7092 -22.7572 7.6754 -0.0739763 -2.30752 0.276666
1598 1 5.57191 9.76326 3.07229 2.12377 3.45852 -5.37894
1599 1 -22.0189 -4.30561 11.6571 -0.422197 0.95482 -1.51498
1600 1 17.511 -15.9563 -17.4745 -0.695823 -3.24609 -1.70013
1601 1 5.70531 16.2649 -17.8414 1.37322 -0.747931 -3.99538
1602 1 -21.0951 -10.9221 -20.5786 3.8998 -5.5885 0.0846135
1603 1 6.30356 -9.0017 -14.0352 2.08907 1.69666 1.12332
1604 1 20.0352 -16.1162 -16.1404 0.368393 -3.45528 -0.637617
1605 1 -1.17471 -2.96799 -12.1626 2.52322 -1.18085 -2.85947
1606 1 -23.0804 19.784 4.91019 -2.75822 3.91374 6.72502
1607 1 11.6067 -22.5002 -15.5786 1.60681 -4.8054 -0.843624
1608 1 -22.6545 3.89043 9.40121 2.9082 -0.718314 0.848633
1609 1 -22.2772 18.0331 -17.0817 -1.19954 1.26736 3.10499
1610 1 -9.40732 20.9757 -13.3032 6.82822 -4.04477 5.12736
1611 1 4.59515 11.0941 -2.25999 1.92139 2.42218 2.87884
1612 1 -22.3639 -15.7385 14.723 3.19612 -3.01668 -2.47284
1613 1 -1.26458 -15.4967 2.06895 -2.02545 -7.50108 -0.505601
1614 1 -15.4479 -14.4422 0.637512 1.42649 3.57951 -2.15056
1615 1 -1.05147 -12.4506 -9.40629 4.48367 1.67706 -0.654267
1616 1 15.7293 -13.5097 -17.7581 0.366167 3.65137 -1.48686
1617 1 -16.2839 -14.8484 -11.206 0.381913 0.210029 -2.22406
1618 1 10.5842 17.3055 15.2556 -0.707858 -3.10662 -1.18095
1619 1 14.4454 15.5721 21.6228 -4.64337 2.40945 -0.837955
1620 1 14.0979 -10.8267 -9.29644 3.73226 -2.99793 -0.988163
1621 1 -20.9868 3.5946 11.7534 3.92652 0.477595 1.58991
1622 1 -15.4861 20.4949 15.7926 0.0986967 -1.42058 -3.03821
1623 1 -12.575 -15.9012 16.5744 2.48918 3.34474 -0.0261475
1624 1 6.41206 21.1373 -21.2321 3.94859 -1.64124 0.404068
1625 1 10.4646 12.7601 -8.05995 1.09809 -4.13702 2.08751
1626 1 14.2817 -0.558841 18.9207 -4.78325 -0.893993 0.852667
1627 1 17.5065 -7.62905 24.0935 1.51396 4.98406 1.34307
1628 1 17.6847 2.64428 1.16232 -1.83426 -2.82754 -4.14225
1629 1 -5.31953 47.0017 13.8586 0.982364 5.05325 -3.98513
1630 1 13.6228 -6.77317 22.8243 -3.18502 0.180501 2.43571
1631 1 -23.4698 -17.5247 7.15655 -2.51776 -0.188396 1.06426
1632 1 -6.65798 9.77932 -22.7891 -1.77591 -1.3941 -5.95033
1633 1 18.5457 19.249 -20.776 -5.93548 1.66155 3.01042
1634 1 -19.9176 -8.89618 -22.359 1.57161 2.51389 -1.11979
1635 1 7.37274 -14.4435 -11.4054 -3.89351 0.510337 -2.43497
1636 1 19.2701 -9.89082 11.869 -1.62479 1.81365 0.266947
1637 1 0.420633 19.6336 -4.06967 3.95134 -3.70048 -2.0987
1638 1 14.8954 -6.20314 -18.1786 1.89791 4.84787 -0.254704
1639 1 12.1188 11.5309 17.9862 -4.58935 -0.555794 -6.44479
1640 1 -15.7886 -23.585 -11.131 -3.33534 -0.048424 2.09089
1641 1 21.0985 -12.4707 21.0924 6.20643 -0.0979345 0.72869
1642 1 -0.940589 22.25 5.79486 3.98118 1.88879 -1.72527
1643 1 -7.16111 22.3147 -5.84523 5.85983 3.79254 -0.574741
1644 1 -19.8705 -1.30772 11.8566 -2.21879 -1.06721 1.0819
1645 1 -6.00525 -5.53527 -8.63398 4.09027 0.230729 -3.79358
1646 1 -22.6719 -6.31114 -18.2763 2.12034 0.41295 -2.806
1647 1 16.6459 12.2691 -16.0962 -2.7752 -0.707271 2.16226
1648 1 -19.8591 -15.6544 23.2405 1.72977 1.92106 1.39257
1649 1 -16.2437 -5.91805 -10.8308 -3.53129 -0.351372 3.99889
1650 1 10.5803 -3.26534 -11.5928 -4.77061 0.43465 -0.861828
1651 1 13.9394 -18.8044 -0.146512 -0.6632 1.74543 0.627646
1652 1 9.20223 6.40487 -19.9703 -5.95446 -1.66247 6.27107
1653 1 11.1328 -22.2959 7.93324 -1.17644 0.776915 -1.20326
1654 1 2.99406 -18.837 9.28258 -1.77 4.69442 -3.7272
1655 1 -0.761529 13.4227 14.2276 0.123187 -3.17076 2.81549
1656 1 -6.05521 11.9092 16.9264 3.69549 -1.63977 1.37103
1657 1 16.5034 8.05919 -13.214 -2.1668 -0.327515 -6.53236
1658 1 -18.3261 19.1806 6.33952 1.12733 -4.00002 -0.713482
1659 1 -6.08089 -23.0143 7.09324 -2.59917 -3.52911 2.27065
1660 1 4.15162 -10.6952 -20.1931 -2.82868 -2.9637 0.220243
1661 1 -23.8967 -0.768067 17.2694 -1.22891 -1.62483 2.89263
1662 1 -8.45241 -19.3341 -7.3198 -1.72901 4.31583 0.955153
1663 1 -13.8385 -1.45979 -0.664126 -0.46862 0.612162 5.2817
1664 1 4.00445 -8.31726 -15.3411 0.591718 6.91831 -0.659767
1665 1 -7.06592 5.58126 16.5016 2.27095 5.7455 -0.431816
1666 1 17.1958 -9.36723 -16.5919 -1.95308 -0.641641 -2.52044
1667 1 -13.2474 0.266971 7.72017 0.434403 -0.904101 -0.106415
1668 1 -9.74486 17.5725 7.56248 2.4587 1.71529 0.636027
1669 1 14.1941 47.2029 -12.008 2.23183 3.73892 7.90247
1670 1 4.42859 15.4759 -2.63238 8.86984 -1.44534 0.218531
1671 1 -13.9462 6.85853 20.7311 -4.98395 0.776106 -0.200171
1672 1 2.43102 12.0128 22.9495 -0.0586693 -1.6804 -2.38129
1673 1 1.64413 -16.4854 1.44167 -1.17026 -2.25793 1.77408
1674 1 2.2245 -2.763 -10.1365 1.32287 3.54118 2.84634
1675 1 0.294796 9.42637 15.2516 -2.74784 2.11959 3.22062
1676 1 -19.6851 1.13781 -4.69538 -1.38706 2.35523 -2.44252
1677 1 22.5708 -18.4992 11.086 2.47601 3.52586 0.536051
1678 1 3.71663 23.3946 -19.1768 -0.564435 -2.74291 0.123907
1679 1 -10.5617 22.7738 19.8988 0.302988 -2.40661 2.12919
1680 1 23.2159 -19.0959 -19.9174 -1.81558 3.8981 1.9951
1681 1 -17.1832 -7.8998 -21.7625 0.686316 4.35923 -0.17745
1682 1 7.63796 9.99791 0.444983 3.69005 0.530546 0.501053
1683 1 14.7454 24.2144 -15.5707 -2.6762 0.276547 2.60837
1684 1 6.52319 15.7915 16.368 3.67283 1.0954 1.70778
1685 1 -22.3603 17.2432 22.9649 1.73914 0.0287358 0.0435618
1686 1 11.3207 -11.5022 23.1634 -5.24053 2.87905 -1.15818
1687 1 21.7257 -16.9711 -13.0538 -0.704396 1.20361 -5.31448
1688 1 -17.637 -2.79275 -12.7817 0.616419 0.248172 1.80132
1689 1 3.2223 -23.4329 -1.20862 -1.88686 -0.622125 0.779937
1690 1 -5.34086 -21.6868 11.7554 -0.700247 -1.67039 2.09081
1691 1 -16.5269 -12.9368 5.5211 -0.5027 -6.53369 -1.17379
1692 1 -1.16311 20.7413 -6.33178 5.1944 1.1932 -0.705147
1693 1 17.6196 7.0068 20.4349 -5.98412 -0.472691 2.69708
1694 1 -14.0361 3.10879 -15.0936 1.22051 1.68225 -0.985815
1695 1 18.2554 46.3644 -10.034 -0.472848 3.87623 2.9803
1696 1 11.8023 -2.68047 2.70875 -0.0761729 2.80394 1.71862
1697 1 -11.5944 46.5355 5.95098 -0.0574441 2.00812 -5.41557
1698 1 -8.18029 11.9294 -1.80449 -2.57951 1.33449 -1.83908
1699 1 14.0138 1.7065 15.3431 0.00979712 4.41597 3.60096
1700 1 12.9123 -1.6314 -12.6276 -2.10667 -1.72945 6.20186
1701 1 12.4017 24.6528 -3.89876 -0.459319 -1.98494 -0.932817
1702 1 2.1182 -19.2066 12.428 -0.669663 3.42279 -3.95391
1703 1 2.58818 3.72717 -13.4509 -3.22127 2.89878 -1.03276
1704 1 -8.532 -11.7474 2.91818 -4.96461 -1.67193 -0.766169
1705 1 -0.627754 24.6046 18.725 7.34659 1.73605 1.07647
1706 1 4.62941 11.7843 -18.5691 1.64492 -1.74844 1.77374
1707 1 -11.6262 -6.82107 16.3198 -0.866317 -0.730687 2.98027
1708 1 -6.08546 22.4582 12.2091 3.28664 0.0512508 -0.177308
1709 1 18.5387 19.385 -3.17467 1.76549 -6.04369 -5.27257
1710 1 -6.14534 -21.0549 -11.5069 3.87937 -0.408492 2.49262
1711 1 -3.20918 3.77279 1.32227 -0.145093 6.30555 1.1518
1712 1 10.3799 13.014 -18.611 -7.64085 -1.59358 -2.27014
1713 1 22.1018 16.2584 14.0195 1.10743 0.185556 1.64341
1714 1 6.5459 2.08699 -10.8094 2.24863 0.149931 1.79041
1715 1 11.7576 25.5257 16.6074 -2.01904 -5.36798 3.44682
1716 1 17.0083 -23.9173 22.5143 -5.76854 4.56365 3.5985
1717 1 9.40578 -15.1811 -0.0678071 1.51627 -5.26307 1.95889
1718 1 8.1688 -19.772 -10.8733 0.245132 1.6918 5.07086
1719 1 23.0153 8.10732 2.83322 1.57404 0.90877 4.67087
1720 1 -3.73117 -23.3041 8.46603 0.573563 -2.49241 -4.13824
1721 1 5.63415 3.06249 10.4148 -1.65984 3.85509 2.65961
1722 1 20.4769 -23.5474 15.9311 5.93714 4.32727 0.722986
1723 1 -22.9266 17.3878 1.59573 -2.15055 7.5448 -2.77598
1724 1 -18.2124 -24.7324 -1.5672 -0.682421 -1.46904 2.62932
1725 1 -17.0096 8.2222 -19.3402 4.46227 -1.39933 2.22683
1726 1 17.9383 22.2519 -24.3789 2.20154 -4.36613 -5.94217
1727 1 22.9316 -3.03764 -19.3723 -7.00997 -3.50498 1.28937
1728 1 23.0429 -5.96662 -20.3418 -2.33726 -2.09761 6.87777
1729 1 -13.2496 7.15814 13.5055 -5.60374 3.62224 -4.38215
1730 1 -2.4377 -10.022 -24.031 1.94925 -3.15192 -1.78103
1731 1 21.5461 4.37395 -3.94172 -2.31006 1.93621 -2.30427
1732 1 15.2073 -12.6745 7.03414 2.3069 0.221873 3.38451
1733 1 -11.3722 -17.3652 7.44332 2.02142 3.23019 -0.409008
1734 1 -7.43956 25.0143 -22.8975 -3.76355 2.77419 -0.459718
1735 1 0.971573 22.249 -17.0545 -0.373303 1.41345 4.43684
1736 1 18.3151 4.42484 11.5779 -0.652836 -6.80103 -2.03803
1737 1 -17.1932 1.15839 -6.47321 1.43849 3.52773 0.0994504
1738 1 0.536551 12.957 -21.9882 2.39641 -4.25051 -3.63183
1739 1 -6.46472 -18.7896 15.0984 -0.523357 0.712026 5.13477
1740 1 3.40186 20.0924 14.47 -5.73795 1.62242 0.997879
1741 1 13.0399 12.0566 23.3193 -0.314495 3.14337 3.14896
1742 1 1.43761 -6.14924 21.4271 1.16069 -0.316025 -0.606026
1743 1 16.9054 -16.2445 10.2503 -6.72508 0.471156 -5.45992
1744 1 15.3467 21.064 -6.11915 -4.18085 4.7389 0.27124
1745 1 5.48768 13.2912 -6.09048 0.806178 -1.51287 0.0817467
1746 1 18.1259 21.0548 -11.0427 -3.15274 -5.08085 -0.619287
1747 1 4.25014 -15.2626 -6.04236 -5.33117 0.309175 -0.859399
1748 1 14.7469 -1.37774 -5.28041 -1.88244 -0.479067 -0.641378
1749 1 21.751 10.3173 14.985 4.03522 -1.61003 -1.07691
1750 1 16.681 23.2553 12.3152 -0.998024 -4.87106 1.5979
1751 1 1.04301 -7.54674 12.5424 -4.16306 -0.589418 5.21244
1752 1 23.1089 20.5546 -17.2029 5.77891 1.13668 7.20154
1753 1 -22.6356 -15.2265 -20.633 -4.40491 -2.31601 -0.404691
1754 1 18.6978 9.43006 -22.9308 -1.91262 2.35535 0.0304495
1755 1 -10.9076 -1.0131 -8.63965 -2.05113 -1.21898 0.594052
1756 1 -15.249 4.47813 6.5556 -0.883169 -1.7727 2.90108
1757 1 17.3513 -12.6068 -8.43933 5.20216 -4.15852 -1.26581
1758 1 21.6385 -23.0922 7.51097 -1.8756 2.1917 1.60231
1759 1 23.2696 10.3222 12.2945 0.242298 -1.23614 6.813
1760 1 -17.8844 -14.4073 -23.3496 0.996059 1.47584 -0.319323
1761 1 22.1938 -16.6753 -21.2946 -2.67289 -2.37864 1.92022
1762 1 5.61893 18.7548 5.69331 0.99144 1.29378 -1.04126
1763 1 -2.12371 4.7126 12.6139 -1.36681 1.0805 0.284462
1764 1 -13.1177 19.7448 -13.4609 1.41776 1.70378 0.714875
1765 1 3.3301 -17.5559 -3.34547 -4.37775 -4.37883 7.23637
1766 1 -19.3135 3.32667 16.377 3.80784 1.09875 -2.59473
1767 1 10.2245 23.7877 18.0582 -2.69689 1.00246 -0.985397
1768 1 12.7774 -3.85538 7.5848 -3.3861 -0.15823 -0.267066
1769 1 -22.8567 16.4787 16.3787 3.50784 -0.000903569 0.445289
1770 1 -9.43535 -5.35438 21.7296 -4.08051 2.42441 -3.56848
1771 1 0.123429 22.5993 8.71535 2.77036 -1.52965 -1.04344
1772 1 12.7613 -22.0075 3.34806 1.21048 0.21721 2.72958
1773 1 18.8994 13.4338 8.21163 2.86544 0.225016 1.31102
1774 1 14.6385 -20.9284 19.5115 0.716612 -4.0727 -1.54398
1775 1 6.80067 13.6917 -10.2677 -2.55469 -2.70956 -1.76918
1776 1 10.0135 12.2884 0.0207756 1.06681 -2.51393 0.318002
1777 1 -23.1364 -11.4476 16.7898 -0.287835 0.545306 2.13151
1778 1 -17.0321 -6.6287 -13.5391 1.13909 -2.94562 -0.589806
1779 1 6.30838 3.67925 -3.78303 2.05833 -2.39185 -1.33048
1780 1 5.50683 7.66416 -5.60916 4.44215 -3.6903 -0.750904
1781 1 7.87618 19.1864 -22.451 -5.84258 -0.0955089 -0.986669
1782 1 -23.3467 -13.0953 -12.0672 1.37864 0.018676 -0.647042
1783 1 16.85 8.22134 -6.34723 -1.94545 4.05104 3.23235
1784 1 -7.80155 14.7748 13.4401 1.75962 -1.29558 -0.187747
1785 1 -5.92047 6.44302 -8.38638 3.58427 1.36433 3.61332
1786 1 -5.41833 0.910303 -7.76833 -0.175242 -3.32714 3.25864
1787 1 5.828 20.0836 -14.1616 -7.73864 0.456571 0.864358
1788 1 -15.1049 -17.4217 16.5215 1.49562 2.46189 -3.14136
1789 1 -23.2813 -1.64297 -5.92707 -2.66211 -3.14427 -0.819489
1790 1 7.74377 4.32364 -13.7086 2.02419 -6.57397 5.32995
1791 1 0.364855 -6.35883 -16.6313 2.24392 -2.90091 -3.0932
1792 1 -15.8795 7.24075 5.77521 1.7412 0.570361 1.38468
1793 1 15.9602 7.21651 -20.9688 -3.64519 2.43164 -1.6495
1794 1 16.2627 1.09983 -19.335 3.50445 -2.97766 -3.46799
1795 1 15.4151 -2.41984 -11.4557 1.09988 -4.6117 -5.505
1796 1 -22.3511 -10.0548 -23.1681 -0.806568 3.25655 1.97802
1797 1 3.88729 15.9751 14.72 0.189893 6.85074 -5.73769
1798 1 18.1361 -7.8841 -18.9852 -8.35904 1.33426 -0.468636
1799 1 -12.6924 9.72352 -14.5021 4.69326 -0.499183 2.81044
1800 1 -1.50305 0.676935 10.4336 2.90365 2.47454 3.94723
1801 1 -11.9706 -20.5234 -5.0405 -1.04122 -2.9831 -0.991738
1802 1 -19.3965 -17.6153 -11.5794 -1.99468 -2.23133 2.89187
1803 1 -15.7024 13.3638 -9.4089 3.84678 -0.34633 -4.31874
1804 1 -3.23646 -21.3895 -13.7087 -6.23193 0.188383 2.22488
1805 1 9.89154 5.16479 -7.42097 -0.277372 0.122091 -2.94539
1806 1 10.8015 -3.38132 16.0366 0.14157 2.08939 -0.0380322
1807 1 -19.2738 -9.40955 22.8125 5.23372 -2.57039 -1.4088
1808 1 19.4536 -8.73349 18.4975 0.349575 5.11002 3.87196
1809 1 9.15718 18.1159 0.141788 -0.211129 -1.62842 -0.810671
1810 1 10.949 -21.6487 -4.42505 -0.376714 -8.77559 4.91525
1811 1 -1.94226 4.84047 19.7626 -1.85089 6.5306 3.70784
1812 1 -11.0868 -3.13688 -21.7238 -2.99782 -2.47309 -0.373298
1813 1 -17.5414 9.62815 18.0313 -3.14837 -4.50465 -0.0950758
1814 1 11.6044 4.69202 -9.89531 3.28038 -4.13253 4.35732
1815 1 13.1727 -3.09509 -22.2507 -6.73971 1.8119 -5.20569
1816 1 1.47984 18.5704 -11.36 -0.581557 3.06014 -0.475842
1817 1 -1.84469 18.2736 -17.1538 -0.585444 2.73135 2.20853
1818 1 -21.9304 -8.16442 6.44367 1.4268 5.29983 0.957051
1819 1 -13.4972 -11.8288 19.2197 3.63933 0.325654 -3.9405
1820 1 15.1937 12.361 -12.3546 2.73137 1.51051 3.47918
1821 1 21.2435 22.1695 12.6392 0.690978 0.444622 2.56978
1822 1 15.1003 -2.31265 -2.55093 -1.17491 3.10461 -5.39065
1823 1 7.10387 45.2742 11.816 0.661533 0.54148 1.13298
1824 1 -16.0447 -18.5672 9.3634 -1.55549 0.938364 -3.93503
1825 1 8.92471 -9.96498 -4.91348 -0.506009 -1.29754 -1.81102
1826 1 18.4785 10.9164 4.70687 3.6902 -1.75173 4.1398
1827 1 15.9089 -22.2893 -2.40701 -0.017941 1.47693 -1.95406
1828 1 -13.205 -20.9829 -22.486 1.7022 2.04195 3.28468
1829 1 5.63594 14.5296 8.26534 -0.941881 2.54596 -5.40855
1830 1 -16.2218 3.37715 -16.8185 4.04053 2.20771 -3.02542
1831 1 13.2641 -15.2412 -4.42543 3.32734 0.79888 3.46473
1832 1 -22.6995 -12.2123 23.3779 -4.59032 -4.131 -2.24905
1833 1 -10.4062 2.15119 19.3833 -5.66403 -3.24562 -6.91278
1834 1 4.43916 -8.37708 -21.7515 0.168379 8.10987 -1.86017
1835 1 6.11911 21.8947 17.8945 -3.02477 -2.93775 -2.1305
1836 1 -9.25235 46.5278 -17.3381 0.833281 -0.320544 4.73063
1837 1 14.3409 -19.9226 9.17614 4.51475 -7.00139 -0.474483
1838 1 20.0759 23.1403 1.22075 0.235582 2.20051 -2.88599
1839 1 17.6052 21.39 5.23113 -3.36545 -0.0595328 2.93708
1840 1 -19.4012 -12.7037 -0.0354391 2.67888 -0.321907 -0.654663
1841 1 9.56323 -24.006 -12.3713 0.736383 -0.4797 0.439414
1842 1 15.8801 -19.5055 2.05132 -4.64161 -2.05245 -3.80584
1843 1 8.70236 -1.50835 -19.7308 -2.28743 -0.697887 -1.16621
1844 1 -6.74237 -2.00558 4.38268 1.30824 -2.7011 -4.37668
1845 1 21.9367 18.0251 -22.0148 1.74131 -2.01173 1.15668
1846 1 12.7435 -19.7238 4.82286 1.8102 -6.30329 0.949392
1847 1 18.2904 -15.8101 20.0249 1.413 -1.44588 1.4315
1848 1 4.85556 8.15611 -15.3971 1.13034 2.16057 -0.138997
1849 1 11.9412 -23.2181 -12.9189 2.6934 4.90119 -5.65742
1850 1 16.7959 -21.1316 -6.60906 1.45631 1.97977 3.97306
1851 1 -7.04767 4.56769 -2.02214 2.31696 1.98085 1.13987
1852 1 1.53339 1.99581 -20.2425 -0.726618 -7.84981 5.88131
1853 1 2.03893 -12.4364 7.09689 -4.22046 -0.64933 2.03043
1854 1 4.35217 46.0758 12.5822 -1.69115 0.573849 0.794841
1855 1 0.693198 24.6098 -15.6839 -0.87331 -0.00959008 4.79409
1856 1 9.36734 -4.13349 -18.1704 1.05156 -0.154616 -0.660511
1857 1 1.05348 -18.7845 3.15998 -2.22558 3.22517 2.08832
1858 1 2.46388 -14.6027 -11.8971 0.264667 3.23255 5.12015
1859 1 4.44972 -15.9179 -16.1647 2.31786 1.77468 -0.644352
1860 1 7.92154 -0.0455478 9.16196 -0.0431298 1.38207 2.18748
1861 1 -15.6144 -23.9279 -16.9205 2.6507 -0.505143 -1.81119
1862 1 -13.0003 -0.771692 -10.6874 0.128036 2.34512 1.40209
1863 1 -3.73525 -13.7391 -8.8391 1.19589 1.49547 1.15975
1864 1 -5.89137 13.6615 19.2644 -1.87375 1.84106 0.902872
1865 1 -11.1026 -3.25389 6.08197 -1.29163 2.26379 -0.456847
1866 1 9.04443 21.9166 11.6063 -1.13241 1.40454 -1.24722
1867 1 7.4049 -7.25858 -1.13871 2.22138 -1.6478 1.19671
1868 1 -7.7789 2.37502 18.5099 1.13672 -2.68734 -4.28208
1869 1 -1.63304 24.4594 16.1139 -0.0434512 0.55247 -2.94088
1870 1 -20.0921 11.6211 14.9951 -7.89901 0.278985 0.83914
1871 1 18.9026 -11.4523 4.34959 0.123045 2.40144 -2.09497
1872 1 -1.97433 -8.68573 -8.75823 0.651553 1.19856 2.03167
1873 1 -9.25566 14.4609 7.17421 -1.10999 2.09171 -1.82597
1874 1 -10.7257 -16.346 -19.5839 4.83836 4.9794 0.98719
1875 1 -24.3781 -7.16479 -10.5537 0.535086 -2.21887 0.777323
1876 1 -23.7908 9.10102 -20.1983 1.98824 -0.50554 -1.07358
1877 1 -18.4427 -4.68012 9.81858 5.46506 -0.528403 5.62871
1878 1 22.252 23.1301 -1.97203 -2.25109 2.03202 5.29507
1879 1 -20.4687 -18.1125 -17.8688 2.09133 -1.21289 0.124144
1880 1 -1.2493 24.9546 -19.8569 -5.38622 -1.27746 4.80567
1881 1 12.2716 5.8741 19.5833 3.51486 -2.27133 1.01537
1882 1 -11.1016 6.83814 16.8748 -2.42833 0.554741 1.75561
1883 1 -5.82746 -13.2524 -7.12735 1.11315 0.503018 3.12674
1884 1 18.0973 13.4598 11.1887 -7.72912 -3.66965 3.01325
1885 1 -7.70563 19.2069 22.6394 0.134039 -0.921628 -2.97115
1886 1 19.6243 22.2736 8.17648 1.41388 -5.92634 -4.57312
1887 1 17.5062 -5.48603 16.515 2.81846 -0.670015 1.19459
1888 1 -10.6973 -19.7472 -15.1924 -6.12209 -3.08311 3.15435
1889 1 -12.4775 1.84032 10.0709 2.52966 -1.16468 -0.575012
1890 1 20.1372 7.28864 24.0096 -1.32327 -4.29153 -1.08601
1891 1 -11.065 -15.5606 -22.4179 -1.39343 3.60402 -1.36262
1892 1 1.58616 -11.9837 -14.8535 6.13193 -2.46864 -1.91246
1893 1 2.68444 -1.47586 22.6719 -1.27519 1.81873 -5.34691
1894 1 -2.64027 -17.036 -5.33994 3.51242 -0.387411 -3.42628
1895 1 -22.057 -7.99968 15.6775 -1.29655 0.959861 0.0866653
1896 1 15.9115 23.8007 1.36457 2.24031 -4.43413 3.32888
1897 1 -12.4132 45.5811 -8.78027 -0.214135 2.14857 -4.12166
1898 1 -22.257 19.5516 12.873 -2.78118 -8.28211 -3.88847
1899 1 -4.61833 19.2597 -5.80935 1.34433 -2.57163 2.01581
1900 1 -11.2402 -0.758494 4.30848 3.37611 1.46816 -5.16392
1901 1 -10.9202 -14.6295 -17.0662 3.19815 1.04785 3.72751
1902 1 19.5086 0.20836 -21.0543 1.13515 -4.66771 4.89099
1903 1 0.104477 -14.5461 -13.936 4.6255 -4.8627 -1.08002
1904 1 -7.76522 -21.4073 15.7912 -4.97213 4.65957 -0.774511
1905 1 -14.5051 9.02605 -7.99204 5.02253 -1.21161 1.37043
1906 1 -21.1302 -24.1555 11.6674 1.79346 -3.16376 3.03746
1907 1 -22.5995 -11.5207 13.7236 1.12526 0.607748 -2.46883
1908 1 -14.6887 -5.85592 0.758764 -2.24139 -0.808736 1.53909
1909 1 10.1231 -10.1172 10.0487 -3.76821 0.288933 5.12509
1910 1 -7.80437 -10.151 16.6713 2.16163 3.40558 1.50258
1911 1 19.6845 -2.43731 -6.11731 6.93851 -1.1099 0.673012
1912 1 -15.2887 3.47137 0.17252 4.83748 -2.00641 -2.07832
1913 1 2.27429 19.2826 -1.80635 2.3717 6.4521 5.09266
1914 1 19.9946 7.43236 3.10532 1.05441 -3.4296 2.21715
1915 1 20.16 -23.7958 -17.1587 2.10266 -1.1803 -4.22562
1916 1 -4.71127 16.0772 2.70386 -0.0362021 -0.70955 2.5719
1917 1 -22.8799 23.9645 17.4623 -4.16277 1.82582 2.94055
1918 1 -17.8437 -2.05579 -19.9987 1.54882 1.26838 -1.0112
1919 1 -24.4537 10.2506 -14.5272 -0.476189 -1.68405 0.719604
1920 1 22.8495 -16.0704 0.741206 0.812642 2.57267 -0.504956
1921 1 17.8416 12.7005 -4.11815 -1.66489 -4.23244 -0.538103
1922 1 8.44489 15.0987 20.1455 0.35025 2.02572 -1.61386
1923 1 12.9546 -0.305059 -9.86822 -1.63866 -1.4315 2.45767
1924 1 23.8586 -18.4745 -0.468006 4.18865 0.628775 -6.06319
1925 1 20.1087 -21.6906 18.1033 0.786074 -0.0422916 3.30126
1926 1 14.8119 -4.26577 -5.98216 5.76575 4.92059 6.88004
1927 1 -8.1946 -24.1938 -22.8053 -2.8069 0.116259 -3.32609
1928 1 21.3435 -4.68912 5.26408 -2.48249 2.54911 3.43731
1929 1 6.76355 18.3326 2.23064 0.977388 -0.520005 -0.33681
1930 1 -7.05623 -14.7461 -17.176 1.71386 -5.86433 -4.00739
1931 1 -10.7117 7.66612 -2.19279 4.21267 4.82448 4.44851
1932 1 -0.142499 17.989 6.82863 -0.420543 -0.475009 3.40547
1933 1 -4.28632 19.8418 -20.4527 1.16275 -4.9127 -0.0405626
1934 1 1.39614 -9.66006 0.088525 -4.04635 -0.187478 -2.13986
1935 1 19.0281 -15.1566 1.78404 -1.37498 2.70627 -0.174065
1936 1 19.0193 -22.3005 23.6955 -4.04255 4.16768 1.2994
1937 1 2.60681 3.22013 19.3334 2.2988 -4.16936 0.467867
1938 1 1.73221 6.56076 17.4602 -0.205615 0.906406 5.60933
1939 1 12.7845 11.9887 4.47643 -1.73686 3.44589 0.092128
1940 1 -19.4998 46.6401 4.59955 -1.74867 4.19925 2.83108
1941 1 -0.463024 -22.4996 -13.1879 3.41939 -4.20517 4.20946
1942 1 -2.15121 8.59559 -3.35409 0.110987 -6.06121 3.39488
1943 1 5.07939 17.3396 -7.17296 -1.46813 6.00693 -3.127
1944 1 -19.9858 -23.7733 -3.74367 -3.83072 -1.77388 1.96413
1945 1 -23.9795 -20.9036 20.4402 -0.0735149 -0.303381 -3.04661
1946 1 7.88035 9.77275 -5.45273 3.03327 0.387963 0.547871
1947 1 -16.6024 14.2177 -14.6116 1.67244 -0.714621 -3.0345
1948 1 13.1494 0.960045 -13.7877 4.67836 2.63258 -3.22968
1949 1 -8.24171 -7.19005 -8.58483 4.623 -7.85961 -0.00537221
1950 1 -24.1571 21.6366 -8.04285 -1.79081 4.13102 0.357605
1951 1 -6.61133 -10.3718 13.9477 -3.4161 -2.66976 -1.31213
1952 1 5.12884 -14.9763 -13.26 5.34595 -1.56308 2.75506
1953 1 15.4391 -19.5009 -2.24781 4.4382 1.88545 -3.71073
1954 1 5.75242 7.42759 10.7026 -0.0524824 -2.44268 -2.72368
1955 1 -13.1717 -18.3734 21.3523 1.5397 3.73829 -0.334844
1956 1 -4.79743 0.998653 8.26049 -0.936626 -0.556426 -4.19623
1957 1 15.0637 13.6152 9.22435 3.22679 0.793156 0.497846
1958 1 13.9581 6.04849 17.3663 4.66678 -3.94084 -3.90644
1959 1 22.6073 -4.87345 -2.82533 3.15097 -2.68229 2.13323
1960 1 -14.4894 -4.81136 -20.2268 -0.105542 1.0278 8.58856
1961 1 16.8394 -12.9715 -5.66456 -1.17064 -1.16951 -0.328614
1962 1 0.416129 -12.1714 -1.21792 2.089 -1.67091 -4.36188
1963 1 -0.345151 18.1962 1.22824 2.8516 1.26713 0.546869
1964 1 21.6242 25.2443 -13.7163 -3.02757 -0.786911 -3.64687
1965 1 17.0169 -4.07092 20.7589 3.35823 4.58041 0.782231
1966 1 -22.1593 -16.7372 -11.3418 3.95179 2.8389 -2.92733
1967 1 -14.0591 -23.952 15.4776 -2.46001 0.940675 -1.99072
1968 1 -21.3648 13.8191 13.662 2.45738 -3.58577 0.173416
1969 1 -4.5164 -5.25812 6.79198 0.396544 -3.60878 -2.85114
1970 1 21.1559 -8.62881 -2.72305 -2.68922 -0.893885 -0.581929
1971 1 21.79 -0.602319 7.94878 -5.45592 0.512011 3.47044
1972 1 -2.11655 -6.96852 7.27541 -3.23534 2.07802 -2.32109
1973 1 13.99 -15.9643 20.9883 -3.90896 2.27251 -0.0162089
1974 1 16.9721 -10.7544 10.7107 1.88795 0.061129 1.07568
1975 1 10.9502 -16.0475 -18.291 -2.60618 -2.31676 2.41326
1976 1 20.4139 -10.9908 -23.1045 2.66746 3.19415 3.36406
1977 1 16.7288 -13.5755 11.9073 3.53698 3.06075 -0.0658941
1978 1 7.40499 -4.2494 23.3432 -2.99566 -1.7779 4.11259
1979 1 -0.460525 21.6453 11.4973 2.28743 -4.01221 -5.54642
1980 1 -21.9216 5.24598 -18.6899 -0.846681 -0.553365 3.92118
1981 1 16.7258 23.6379 -3.31038 -4.08944 3.30844 -0.0661174
1982 1 -19.8729 -3.86527 22.4082 1.441 -1.43889 0.860469
1983 1 16.7939 -6.21753 -5.24101 0.796638 2.79329 0.260492
1984 1 2.7861 18.7084 18.8885 2.32732 0.811214 -0.595073
1985 1 2.06521 -23.4042 -9.1258 0.145802 -0.300428 -2.2942
1986 1 12.8775 -5.30653 2.44583 -3.84927 -0.121677 -0.967677
1987 1 -19.8477 1.14709 10.1564 -4.04996 0.278272 2.68524
1988 1 10.2915 17.9983 9.48033 -1.45531 -4.0553 0.671042
1989 1 -10.7296 -13.0713 9.28608 5.64635 -1.60906 -0.242867
1990 1 19.4458 -15.5548 -6.0056 3.05333 2.18287 2.49441
1991 1 -22.8943 -23.4036 19.4071 -3.77261 -0.826779 3.78313
1992 1 13.4785 19.26 2.8626 -2.51292 -7.04396 3.79825
1993 1 5.21261 13.2643 -13.6575 3.36912 2.19108 -2.97992
1994 1 -20.8676 -16.7194 3.29815 -4.51872 1.18757 2.68161
1995 1 0.396847 3.48695 13.6024 2.09235 0.348958 8.57118
1996 1 -10.11 8.72013 24.0466 0.899422 -4.94781 1.65216
1997 1 20.6696 23.6984 10.3851 -1.40505 -2.701 1.92513
1998 1 -12.7958 12.0447 -0.688007 2.17003 -2.31755 -1.1431
1999 1 -1.16589 -11.0302 20.6638 -4.82892 3.81232 -0.673141
2000 1 3.55543 4.09938 -20.0624 3.748 1.29183 -3.75489
2001 1 -11.6565 -11.3825 -3.66567 5.36447 -1.37359 -2.28217
2002 1 -20.3312 21.9605 -9.13819 3.96057 0.261722 -4.81665
2003 1 12.5272 -4.41631 -9.61327 -0.94577 -2.07534 -2.11388
2004 1 -1.88627 -20.8024 -23.4402 1.80949 1.62687 2.73111
2005 1 5.72445 -5.28032 18.3261 -0.562187 -0.306533 -1.78975
2006 1 9.66403 -11.5004 -9.5491 -1.38756 -1.90196 2.15634
2007 1 -11.2471 14.0361 -12.0818 -1.6558 -3.72645 1.47605
2008 1 -7.99746 24.0698 13.5247 1.08583 3.18455 0.40723
2009 1 -3.97052 0.926841 -1.34392 -0.395403 1.79668 0.148687
2010 1 -4.77571 2.92052 23.016 0.0395214 -1.61341 -1.33269
2011 1 -4.82558 9.61365 18.1526 -1.27498 2.17031 1.15554
2012 1 19.6162 -18.6406 15.0839 -2.92942 -1.74073 3.10858
2013 1 -13.3405 22.8628 5.02185 1.90186 0.324666 4.11055
2014 1 -9.17658 -8.8784 13.4699 0.296504 5.86421 -1.3149
2015 1 -3.09695 -8.20245 -0.533979 0.0107507 0.0376296 0.731149
2016 1 -5.17415 -17.225 -8.04815 1.2796 0.351248 -0.0700356
2017 1 9.68291 9.95529 22.7108 -6.31669 -1.68403 2.28181
2018 1 -16.6578 -1.27006 6.65808 -4.62208 -1.22895 -4.07375
2019 1 1.58895 23.0067 18.6684 3.26689 1.30691 2.09312
2020 1 8.01836 -12.8006 -13.5759 2.35306 -0.142786 3.16379
2021 1 -4.40838 12.8927 11.5733 -0.0688406 -0.0109138 -0.727318
2022 1 18.37 25.0607 10.7563 -2.51855 0.76211 3.91529
2023 1 -20.717 -11.0077 5.72782 -1.61406 4.28199 0.900741
2024 1 9.44116 8.40222 12.4477 3.41936 0.734973 -0.834497
2025 1 6.22728 -11.3485 23.739 0.532725 0.0171523 2.49713
2026 1 10.4565 21.1739 9.15686 -1.96443 -1.34765 -1.73566
2027 1 8.45851 17.714 -12.0686 1.70566 7.00006 2.38602
2028 1 2.05838 -2.31498 -20.854 3.21187 -1.31949 -2.48207
2029 1 13.2476 -10.4218 -2.68722 -1.2138 -0.602225 4.50706
2030 1 8.71135 -19.0617 -20.9863 -0.517509 0.712332 1.82546
2031 1 -5.89713 -20.4375 -8.42063 8.90987 -3.01246 6.29733
2032 1 -7.32559 5.81791 4.803 -2.5575 -2.76007 -3.87964
2033 1 8.70145 15.6117 1.46198 2.96624 1.15843 -1.13973
2034 1 -9.08692 -2.96812 -16.434 3.6615 1.333 -0.682774
2035 1 16.4185 -15.4718 22.4246 -1.42536 1.47317 4.40137
2036 1 -17.0428 7.2165 -23.3424 -4.3952 -3.62541 1.42688
2037 1 -17.5767 9.38639 10.3575 0.308063 4.59508 -5.13336
2038 1 19.4245 -0.413261 13.1384 -4.04916 3.89716 2.73848
2039 1 8.6761 -23.2014 -22.4201 1.93653 3.27298 -4.82745
2040 1 -5.56984 -22.9087 -3.55351 -1.53468 0.760073 -7.75506
2041 1 -13.6296 -13.9766 23.3129 1.29241 1.72358 -5.31163
2042 1 6.89833 -22.3968 23.4791 5.21167 -0.0796033 0.605072
2043 1 18.6972 12.5424 13.7861 2.42614 1.26933 -2.89242
2044 1 3.89085 -5.18964 2.96014 -3.08601 1.54755 4.41879
2045 1 5.46426 -18.2994 -15.6785 1.90838 0.0461149 7.29841
2046 1 -6.95501 16.6986 16.6652 -5.18762 2.05194 0.0542385
2047 1 -7.73037 -14.8615 6.6729 -2.29982 -1.31493 3.2143
2048 1 2.33999 16.0469 -16.3476 -0.158479 -2.77788 1.39957
2049 1 17.7173 21.5271 -16.9267 -0.335034 -3.76883 4.1401
2050 1 -10.6638 6.67604 -9.3521 0.605458 -3.28575 1.11694
2051 1 -21.5798 8.99301 -2.42361 -0.95286 0.418437 0.737053
2052 1 -7.51899 4.84445 -20.9392 0.694623 -0.142218 -0.439744
2053 1 -24.3926 11.9714 -19.1272 1.18611 2.21837 2.67322
2054 1 13.971 2.83849 0.72699 -3.56451 -3.52814 -0.263737
2055 1 4.76193 12.1983 6.28975 -0.770502 -2.88597 -1.53378
2056 1 -5.89015 24.5787 22.8775 5.94458 2.90398 0.489986
2057 1 16.8538 -5.02546 7.65578 -1.18809 1.69949 -3.0287
2058 1 21.5352 8.9187 -11.3183 -1.54213 -2.39579 -0.504419
2059 1 2.73531 -10.3039 21.7438 -0.557699 1.43481 4.69733
2060 1 -8.57696 -5.05523 -4.5692 1.43272 1.4811 0.883758
2061 1 -17.382 -24.1941 23.5035 1.238 0.332364 0.868018
2062 1 -16.149 18.7578 -8.22965 -3.80994 -5.23982 -2.18865
2063 1 -9.52009 -12.3558 -18.2011 -0.0975389 2.60708 1.09548
2064 1 -14.02 -17.1108 11.3593 5.49027 2.4901 -1.96642
2065 1 14.0159 -20.3237 23.523 -3.35539 -5.10998 -0.141477
2066 1 20.1891 7.33854 10.2606 1.59934 -1.84761 1.59013
2067 1 23.3622 6.79258 22.4893 -0.833244 0.0991808 4.25582
2068 1 -15.757 10.4508 -4.3131 -0.546736 -3.68993 -0.682148
2069 1 19.8463 -23.8777 -12.1077 1.34927 -2.10064 -3.64371
2070 1 -24.4128 0.086871 -1.42452 -5.6848 -4.5696 4.30951
2071 1 -19.9801 -13.5957 21.0616 -4.59396 -2.03198 2.07153
2072 1 -18.9397 5.68896 21.0519 -4.07865 5.28633 -2.2988
2073 1 -19.2953 8.30542 -17.0339 -1.98266 5.5143 -2.14783
2074 1 2.87077 12.2544 -12.397 -3.02514 1.49852 -1.92493
2075 1 -8.39324 -17.024 21.4854 4.72386 4.04447 1.9595
2076 1 -13.3017 25.8407 -8.54249 -3.19584 5.02595 1.03516
2077 1 -19.2235 -5.34763 1.85729 0.926409 2.60272 -0.73342
2078 1 -13.6683 3.068 -22.5202 -2.87329 0.142858 -1.25375
2079 1 6.94058 -14.9262 -18.5517 -4.39591 2.67368 -1.56307
2080 1 -23.092 -22.9218 -15.2008 4.7978 2.64292 -1.59826
2081 1 -23.4331 17.821 -14.3719 -0.557019 -0.872278 0.236347
2082 1 -8.5411 17.3638 1.97629 1.44328 -5.21651 -1.00278
2083 1 19.2304 9.48331 -7.91375 5.37804 2.76469 2.05932
2084 1 15.8989 18.0204 21.63 -2.92615 1.23845 -5.86559
2085 1 -19.6112 -21.5031 -10.5947 -4.92543 -0.545452 -0.502745
2086 1 -12.1949 -14.4923 7.73467 4.28345 -2.2111 -4.28737
2087 1 -11.7888 6.41296 -15.9461 -3.7773 0.556627 3.79288
2088 1 9.29542 20.4979 21.3164 3.62289 1.81688 4.501
2089 1 8.78937 15.5892 -18.284 1.31961 2.08706 1.97713
2090 1 17.4999 7.22857 17.449 1.14078 -6.13349 0.350619
2091 1 -10.1949 8.24496 13.3291 -0.820132 3.39063 -2.49541
2092 1 -18.0915 23.5398 -21.7058 0.163991 -1.76969 -0.100002
2093 1 -1.52788 13.3851 -3.77991 0.692978 5.35119 -1.66209
2094 1 -23.7254 12.0802 -1.58322 1.61773 -3.33046 -1.06536
2095 1 -21.1527 -8.99072 1.8554 2.49191 -0.409213 0.572815
2096 1 8.01905 -5.09382 0.659532 2.78624 2.26989 2.96876
2097 1 -4.50299 6.03548 10.1221 -0.562106 -1.14631 -1.97434
2098 1 -15.3564 -17.6911 -10.3069 -0.800103 5.58209 0.063347
2099 1 15.4594 -9.98453 6.41202 -1.15983 4.41437 -2.80192
2100 1 -0.78094 -4.04519 21.3889 -0.0903939 1.84369 -3.93546
2101 1 -22.3306 -6.92789 18.668 0.56489 1.1758 -0.900506
2102 1 6.30609 6.99513 -8.59229 1.03753 -4.01296 2.79027
2103 1 9.07352 -17.542 -13.6766 2.10811 1.41576 0.0701771
2104 1 -19.2141 -4.63005 19.8377 0.470669 -1.82718 0.53428
2105 1 13.8239 10.6411 -10.7041 1.46548 1.30583 0.551957
2106 1 -18.8693 -15.6574 -20.8659 0.288654 -1.46149 5.14134
2107 1 -10.9469 5.68739 -13.1934 -1.25493 -0.575263 -6.77963
2108 1 -7.82373 11.9496 1.04274 3.23552 -1.44206 2.34253
2109 1 -5.65312 7.62847 19.9304 -1.27519 5.65502 3.17589
2110 1 3.10107 9.37661 1.80046 5.20481 1.55822 4.42322
2111 1 23.2225 -8.90843 21.6141 0.885457 1.89297 0.2399
2112 1 -12.225 3.47608 12.4471 -4.94173 -3.72468 -0.374029
2113 1 -17.4272 -2.33914 19.2091 -1.87239 -1.87227 0.970681
2114 1 0.408377 -24.1148 19.5517 -0.11837 1.41561 -0.175381
2115 1 17.3063 -16.7097 -10.116 1.35906 -3.93652 -2.24769
2116 1 18.7159 -4.19069 4.39415 -4.40015 0.305138 4.06531
2117 1 22.9022 23.9529 6.23598 1.28626 1.1396 0.0295828
2118 1 -11.5553 0.202733 -4.1878 2.02666 1.66784 0.317405
2119 1 -11.4862 16.7967 0.937776 1.45012 1.2105 -0.859098
2120 1 15.8333 -17.7409 12.5252 -0.0117259 0.76203 1.51169
2121 1 8.95498 -20.0549 22.9065 -4.7664 2.75458 -1.49757
2122 1 11.5952 9.01633 -8.06224 0.991824 -3.96039 6.10277
2123 1 20.7999 -7.23647 -17.6713 -3.11561 -0.256262 2.64854
2124 1 20.076 -1.81233 -18.9587 1.57253 -6.6853 -1.35368
2125 1 -5.76475 -13.1551 13.8134 -2.43188 -0.0845638 -0.824312
2126 1 10.6973 -6.83273 -4.3894 4.02767 3.74562 -1.8634
2127 1 23.3237 -9.51164 -22.0767 6.31014 -0.883375 0.879049
2128 1 -17.4642 -22.1982 -3.21263 1.84786 2.09244 0.00617677
2129 1 -14.0945 -21.6761 10.9279 -0.631889 -4.42666 2.30928
2130 1 -20.0422 9.37534 -4.90743 5.55828 -1.90652 1.12528
2131 1 18.8579 -8.81953 -0.837888 -2.51695 -3.72599 -2.87325
2132 1 10.5933 -21.7522 -23.5993 5.73026 2.24133 2.57626
2133 1 -13.6261 -12.2703 6.34786 -3.75686 0.474232 0.000551615
2134 1 14.6727 21.3877 7.35324 3.51337 5.36913 -1.54793
2135 1 16.2779 10.1744 -24.2343 4.20062 -4.14675 -2.77145
2136 1 -4.89749 -21.9507 4.67027 -1.28382 -3.66193 -3.58766
2137 1 17.5265 16.6429 23.9888 0.516857 1.67804 -0.555014
2138 1 16.7676 22.7407 -14.3029 -0.866031 -1.55436 -4.82202
2139 1 -9.96997 4.2845 -16.9118 -3.46051 -3.44283 -0.321953
2140 1 9.93729 -14.1573 16.3754 0.198387 3.21202 -0.469964
2141 1 -21.1284 -21.5504 -2.0817 -1.87487 0.761045 5.32047
2142 1 -17.3479 -8.24265 17.6825 -5.14569 0.719312 0.347796
2143 1 18.1957 3.89136 -15.9791 -4.91006 1.41456 1.14519
2144 1 4.62194 -1.57384 4.68125 -0.24177 0.553329 -3.25766
2145 1 17.906 10.896 21.6417 1.26097 0.118679 -2.25674
2146 1 3.08009 8.84819 20.2706 4.98875 0.738692 -2.41496
2147 1 3.58738 6.42325 15.3808 0.429853 6.90422 0.493357
2148 1 11.9414 -21.9924 20.3529 -3.56749 -0.476824 1.33655
2149 1 18.2745 -4.80595 -3.24972 -1.98915 3.09846 2.56629
2150 1 16.6949 -6.96267 -0.243033 0.444882 -1.0161 -3.64096
2151 1 7.23954 5.99419 -11.346 -5.15148 -4.61062 -3.66784
2152 1 7.374 21.5247 -4.31382 2.11057 -2.38312 -2.66172
2153 1 -10.2715 -13.6942 -2.7482 -5.04157 -2.03456 3.50327
2154 1 -11.4041 17.6164 -23.6688 2.27442 -0.831957 0.644523
2155 1 11.3492 7.5511 21.7841 1.74803 -0.983973 1.74818
2156 1 -20.1583 18.8976 -9.07056 -1.0324 -4.15058 -1.9331
2157 1 -2.66523 17.3621 17.522 0.455206 -1.10578 4.5648
2158 1 -16.9621 12.814 13.5697 1.18425 -1.39808 2.50602
2159 1 4.44587 -20.9904 12.4699 2.58555 0.841673 0.937687
2160 1 -18.7784 -1.10688 21.8404 -3.37911 -0.718193 -1.96015
2161 1 -1.65054 9.24782 -6.05705 0.519887 -5.03982 -3.64172
2162 1 19.2739 10.5097 -2.81663 0.237298 2.27939 2.58035
2163 1 7.44965 -6.26851 15.9882 2.55563 0.390704 -0.999323
2164 1 16.1015 1.6486 -9.57456 5.47138 -1.19052 1.15626
2165 1 16.4889 19.1129 -12.5343 1.34651 0.0932939 3.87858
2166 1 -15.068 19.4329 -15.6918 3.02444 2.41192 4.55867
2167 1 -14.0335 -10.5795 -17.381 1.38939 -3.9043 -0.432212
2168 1 -20.4063 19.0015 4.4173 2.41408 0.329033 -4.30285
2169 1 10.6933 -7.47606 -19.6608 -3.39198 4.2656 1.43756
2170 1 -9.02963 -16.4488 -0.786779 -0.282353 2.03981 0.533705
2171 1 -5.48501 3.69102 5.07595 2.58643 -1.19337 1.98885
2172 1 1.53552 22.2821 -3.57364 2.73217 -1.10446 -0.515006
2173 1 21.1059 0.577869 -14.6057 -0.341095 -0.97459 -5.17695
2174 1 5.24107 8.28033 -2.53908 -1.8887 -0.129819 -4.31946
2175 1 11.5586 -23.4862 12.9139 1.97907 1.16822 1.00851
2176 1 11.3563 -19.9932 16.4589 4.83148 5.04115 -2.78765
2177 1 19.7687 18.4573 22.4921 3.17064 -1.93705 0.135144
2178 1 18.3588 -17.651 -7.7698 -4.62454 -1.87968 -4.79789
2179 1 10.8404 -3.35269 5.18611 2.01033 0.0127823 -1.36567
2180 1 10.4467 -7.22756 -10.4023 -3.77028 -1.65767 1.89631
2181 1 -16.0039 -20.7093 20.5245 -4.47477 4.94933 -3.92999
2182 1 -3.40857 -1.54153 11.4477 -0.245491 -0.740512 -1.0495
2183 1 4.70985 -3.37946 12.1387 -0.489695 -2.30705 1.64684
2184 1 16.9319 15.4324 -20.4841 -2.0504 -1.00746 3.59019
2185 1 6.23278 9.3363 19.9917 0.0764601 0.40676 -4.2363
2186 1 2.18474 -8.55441 -17.6352 1.99171 -6.3955 -4.09231
2187 1 14.735 -4.80981 9.54178 -0.489323 -0.857106 2.98635
2188 1 -13.2621 4.45431 8.87607 -0.216633 -3.51145 -1.95625
2189 1 5.20803 19.4092 -10.275 3.46187 1.07417 -1.52803
2190 1 -1.16297 3.49954 -11.5552 0.83631 3.80362 -0.624479
2191 1 12.866 8.99268 4.26524 0.471592 -0.21919 1.07838
2192 1 -1.03909 3.30862 23.8376 -0.984766 -0.183355 1.11005
2193 1 17.8485 -15.3291 -14.4241 0.802291 0.887065 2.04105
2194 1 -20.1908 2.65728 -23.6686 -0.244609 2.71104 5.60479
2195 1 -9.65664 -19.1482 -10.8543 -0.996678 -3.28355 2.60975
2196 1 -5.46653 5.0423 -13.4176 -3.69787 0.870183 -6.65129
2197 1 17.1092 22.8225 21.2668 3.63035 -1.73218 -1.06019
2198 1 2.79349 10.4816 -4.48598 -4.59944 0.0516727 3.84749
2199 1 -17.1772 13.0967 2.39516 -1.49358 -0.872956 4.68379
2200 1 -2.34126 -23.1333 2.02607 -1.97243 1.2004 -3.45494
2201 1 13.5387 -13.0599 -21.6787 -4.59772 2.80878 -0.00257765
2202 1 18.964 -19.6767 -19.8107 2.78722 1.68157 -6.38143
2203 1 7.81024 -1.84392 -3.92254 -0.0164075 0.484997 -1.85145
2204 1 5.55007 -0.117837 -3.14186 -2.21891 0.657063 -3.56394
2205 1 -22.2852 8.80008 -16.0158 -0.392134 0.603362 1.50192
2206 1 -0.664369 -8.72865 -15.0371 2.36809 -1.44104 4.71999
2207 1 -23.1428 -8.44696 -3.48185 -6.10406 -0.00668363 5.25191
2208 1 15.5046 18.7686 -4.03394 -3.88847 -2.97069 -0.362652
2209 1 -23.8414 23.9176 21.9878 1.45783 -1.4366 3.03119
2210 1 21.1828 -19.331 -1.08268 3.34105 -2.54649 -4.52036
2211 1 -18.0691 6.19182 -20.9484 0.151416 -0.0106286 2.22765
2212 1 -17.7184 -4.68465 -4.34845 -1.67655 -1.43515 -1.83395
2213 1 18.7144 8.06515 -4.15861 -5.50218 -3.82652 0.791516
2214 1 12.17 8.93276 19.3924 0.101254 6.6588 2.61678
2215 1 9.42156 16.4086 -2.1206 0.588633 6.41687 -0.086371
2216 1 3.90437 -0.0199058 -14.3334 -0.617016 3.69831 1.38307
2217 1 11.6446 -12.1567 20.0699 -5.30293 0.94977 7.368
2218 1 -14.6242 -5.21235 20.9197 1.37788 2.0957 3.64456
2219 1 -10.6826 -23.3639 13.7414 3.66072 2.72672 -0.44086
2220 1 2.90939 17.7745 -13.6463 -3.22174 -1.36398 6.57324
2221 1 16.1839 4.73732 19.2267 -3.7979 1.61241 -1.77019
2222 1 0.511427 6.08975 2.71297 -0.450978 0.00290164 2.61882
2223 1 -22.9796 14.2237 -22.3526 4.16236 1.13833 -3.03529
2224 1 -16.0177 15.1204 -5.269 -3.12286 -2.48486 1.8589
2225 1 1.7022 -17.7936 -21.9953 -2.85364 3.73155 1.3269
2226 1 21.019 0.0984477 15.6824 3.88623 3.35652 -2.03448
2227 1 8.11407 1.32683 -3.45314 -1.83741 -2.09543 -0.617313
2228 1 -6.84809 -7.73656 -23.9306 -2.36136 3.47338 1.40808
2229 1 16.139 5.00996 15.2166 3.94208 -4.13455 0.0762378
2230 1 4.09402 20.434 -3.8113 2.61183 -4.43848 -3.54706
2231 1 -10.6575 21.382 10.99 -4.81987 -3.1232 1.43586
2232 1 -22.25 23.633 -14.7834 3.03879 -4.08639 0.248473
2233 1 -12.9163 3.47445 -18.7902 -1.26608 1.06812 -0.384563
2234 1 -4.57556 3.38975 -2.45008 -3.37891 -2.57221 1.55116
2235 1 8.79491 -24.2921 12.4055 -0.0697404 -3.05212 -1.43357
2236 1 20.7878 2.76111 -16.6972 1.32094 0.0319195 -2.71639
2237 1 -2.21755 -23.181 -19.6755 4.1077 1.50599 -2.65726
2238 1 14.0052 12.2426 -15.3293 -2.64692 -3.03545 -0.155539
2239 1 -14.6867 -9.05276 22.9621 0.572087 1.65485 -5.42779
2240 1 14.1828 18.4644 18.4311 0.48843 -5.19934 0.990203
2241 1 -22.5121 -2.51921 -18.1633 1.85727 -8.65401 0.180324
2242 1 -10.0855 -17.5338 19.1579 -3.65172 -2.15351 -0.309065
2243 1 12.1962 25.0842 -9.2648 -0.890085 0.41102 0.423727
2244 1 -23.495 20.8743 -14.6229 -0.861536 -2.8614 -2.17965
2245 1 22.3789 -19.4238 8.18926 2.2216 1.56557 -4.91149
2246 1 2.86265 20.0885 -17.5688 0.405134 -0.14204 0.428619
2247 1 -23.3503 -12.7046 8.33956 -0.087736 -1.93086 1.08392
2248 1 -2.10687 -7.11325 -13.1344 0.992134 -0.196909 0.387819
2249 1 -15.3769 13.7972 -17.441 -3.65217 -5.58585 2.92269
2250 1 2.68175 1.08318 7.78825 -2.78594 1.87761 0.888893
2251 1 -11.0725 -7.79621 -11.9865 3.13005 0.00331044 2.3852
2252 1 -23.8363 -13.8964 -0.588607 -2.76322 2.49246 -3.39266
2253 1 5.77027 -15.8445 -2.80808 4.88836 -1.54348 1.71452
2254 1 6.05417 16.0403 12.1159 4.90538 -2.98827 0.298314
2255 1 3.26883 -0.219707 -19.0915 3.81838 0.353021 -1.53902
2256 1 15.8683 19.6645 -22.0243 1.87463 5.20617 0.151565
2257 1 -1.22632 4.04578 -8.00026 1.19829 -1.45006 1.82937
2258 1 -10.0215 15.1178 -22.9819 0.594239 2.18413 -2.95679
2259 1 -22.0549 -8.43722 22.2945 0.291912 3.80122 -2.19224
2260 1 18.3764 18.0502 -14.7873 1.5079 1.2971 1.02323
2261 1 14.9507 -3.6942 -8.76881 -1.62959 2.21782 -4.76843
2262 1 18.0854 -23.1774 -0.912406 -3.73481 3.6849 0.45313
2263 1 0.647679 -16.358 -2.93883 3.53875 0.431475 0.439867
2264 1 -2.41172 19.521 3.94769 5.90361 1.21159 -3.34502
2265 1 -3.7519 1.65471 18.005 -0.113045 3.42962 -3.00793
2266 1 -20.4838 8.73485 14.7844 -1.53499 -0.916419 -4.87854
2267 1 -11.3025 -17.0012 -2.27871 0.124958 -2.49729 3.23459
2268 1 12.0444 -1.26051 -5.83745 3.30672 0.998556 -0.886412
2269 1 15.3218 11.6814 -18.7688 7.07602 -5.98589 -1.00076
2270 1 -4.85782 19.0486 2.61053 -3.44233 2.70771 -0.110631
2271 1 22.4324 -18.6579 -7.87229 -0.388559 0.823351 -0.0236305
2272 1 0.325125 12.6446 10.014 -4.36943 -0.537241 0.863944
2273 1 -22.5419 -18.2061 18.2394 3.47714 5.48749 1.11039
2274 1 -6.53028 -0.147708 17.3599 -0.708297 -0.815816 4.57485
2275 1 -12.7449 22.532 -14.7057 0.816181 -3.04199 -2.25951
2276 1 -0.740363 11.7759 3.41948 2.94303 -8.64408 -2.16109
2277 1 -12.8512 3.32024 22.9084 3.06806 -1.86977 -2.98352
2278 1 -16.6427 -15.4287 -6.77738 -0.553573 -4.0857 -1.00498
2279 1 -11.4179 1.52017 6.0808 0.510938 1.73137 1.07684
2280 1 11.8737 -12.8629 -3.43941 -2.87278 -3.25279 -1.52386
2281 1 19.3786 14.4602 23.274 -2.18658 1.11159 -3.56014
2282 1 -5.20802 22.0033 6.57914 -2.10392 -1.44965 -0.954599
2283 1 22.9559 -11.9734 6.29707 1.36867 -10.2404 1.85296
2284 1 -20.7254 24.3294 -21.7468 -6.46695 -4.17534 -7.18137
2285 1 -19.9409 18.1268 1.80076 2.58026 -1.83238 -0.0386846
2286 1 3.73646 -9.96792 4.48791 -0.122748 2.4112 2.12645
2287 1 21.3503 17.9101 17.7457 1.28515 1.47822 -2.69575
2288 1 22.5431 -5.9114 -6.90996 -5.65291 -1.35464 -2.17777
2289 1 -5.43386 15.6823 -22.4753 -3.84314 -2.38393 -4.90773
2290 1 15.0086 -8.63704 -23.5963 0.229733 -4.58014 -0.457838
2291 1 0.210104 18.8183 20.382 2.88158 -0.482521 0.348133
2292 1 -14.0195 -10.8902 -1.96848 3.21181 -0.811335 1.68338
2293 1 2.22515 6.37626 10.8719 2.11959 0.463246 4.0671
2294 1 -19.8859 10.0886 -19.1064 -4.88728 -0.974173 2.16354
2295 1 -14.7885 10.609 23.3323 0.409169 -0.435002 0.814173
2296 1 -21.8147 -9.41705 -18.3021 -2.1091 -0.477492 -0.647875
2297 1 10.1382 8.66821 -21.1359 -3.06005 3.59545 1.38971
2298 1 -2.87198 -19.65 -3.77589 0.332043 1.24489 -1.43539
2299 1 9.05922 -11.8096 -2.62042 -1.67773 -0.263294 3.01397
2300 1 6.91454 12.6264 0.801902 -1.57154 1.95182 0.676882
2301 1 4.7233 -23.7283 21.9197 1.6538 -0.0979177 5.35715
2302 1 14.9107 8.25361 -15.8791 1.53061 -3.64704 -4.48826
2303 1 -11.543 19.1273 -15.7037 -0.605533 -0.634128 4.30838
2304 1 11.8165 16.0543 7.65388 -6.4354 -4.2012 4.40002
2305 1 -14.8607 17.749 11.2124 -0.0129408 1.38288 -2.06949
2306 1 6.05304 -5.79994 20.9877 0.552796 -5.00832 -3.29657
2307 1 -14.996 13.3073 22.3254 -1.11989 0.154749 -0.0900615
2308 1 6.36937 3.68746 -17.3066 -1.7443 -4.09157 -3.81878
2309 1 22.0931 19.6073 23.6712 -3.30306 1.3406 2.60432
2310 1 4.74527 -15.6853 7.77613 -2.51768 -0.987844 1.07103
2311 1 7.00187 1.35022 1.73612 0.370578 -6.37758 -0.773624
2312 1 -19.1743 -20.2882 8.41831 2.64466 -3.86755 4.77053
2313 1 -8.80738 13.7924 -18.9985 -1.29778 1.98524 -1.36796
2314 1 -17.4272 5.22379 8.49517 -2.11549 -1.89581 -0.562595
2315 1 -12.5233 14.6477 15.8305 -6.48241 -2.07076 4.72262
2316 1 -18.9994 -10.8668 2.26535 3.11892 2.36528 -0.197254
2317 1 -5.48981 -9.63587 -8.5196 1.11869 -1.92676 -1.21131
2318 1 19.6168 -7.73173 -5.06216 -2.5088 -1.22964 -4.35934
2319 1 6.13193 -9.59544 9.26174 -1.71498 -0.891527 4.08473
2320 1 20.9286 2.18542 -19.5248 -1.09054 3.70425 -0.212727
2321 1 -2.95862 24.2408 23.826 -1.27781 1.48241 1.67522
2322 1 -3.64405 21.2019 18.0009 1.29625 2.40161 -4.33066
2323 1 2.36085 -3.87736 -3.58424 -0.963249 1.66289 -1.74963
2324 1 6.64805 -19.4456 -17.9451 -1.42291 3.05929 -2.93433
2325 1 13.6051 -20.8052 -16.1947 0.116173 1.61004 2.70654
2326 1 -24.3408 -10.5155 -13.3732 4.13304 0.392136 -0.846839
2327 1 12.2138 0.3704 -18.5791 -4.36251 -1.87072 -0.92259
2328 1 -9.44415 -9.39469 -3.50066 -1.95927 -0.6415 -1.12854
2329 1 7.26094 6.13143 12.8908 -4.19488 0.391737 3.84254
2330 1 12.795 47.2775 15.3668 1.50294 6.21121 -0.432266
2331 1 -14.458 -14.9064 9.22687 -4.66568 2.41095 4.38736
2332 1 19.3293 -16.2588 11.9786 2.27242 0.685161 -1.11633
2333 1 11.067 -20.5089 -11.9682 2.03112 -5.22681 3.81602
2334 1 -11.6477 17.4415 15.7565 3.03827 3.37658 4.02743
2335 1 -2.66811 17.463 23.5835 -0.67436 1.6336 5.97184
2336 1 15.7421 -11.121 -20.6154 0.279962 -0.72991 2.21148
2337 1 8.86253 6.35035 2.0702 -2.45903 -3.56508 -0.722271
2338 1 -0.53558 -1.24193 -20.8463 -1.38765 -4.09651 -2.69392
2339 1 7.40795 10.068 -2.48431 -4.25665 -1.68087 7.62365
2340 1 7.11365 10.2351 13.398 -1.62433 3.09592 2.82376
2341 1 5.8631 -19.7806 -20.9809 -0.840438 2.36822 -0.927063
2342 1 6.84171 -16.6701 3.26731 -2.83889 1.2548 -1.92385
2343 1 9.53723 22.0556 3.0167 -1.47269 -3.88678 1.66697
2344 1 14.1237 24.9192 3.25811 0.937019 -4.3467 -0.941711
2345 1 7.26183 15.5538 -13.7978 4.33701 3.77518 -2.80627
2346 1 -4.30717 -18.5457 7.25133 -3.05276 -2.10221 -5.23455
2347 1 -14.0066 13.272 -14.9123 -3.80122 -1.82769 0.500744
2348 1 7.18509 -2.88551 3.94512 0.431464 0.272358 5.87528
2349 1 -8.90912 22.2375 15.0592 -1.94867 1.72031 -1.07951
2350 1 11.5963 6.12722 -12.5633 0.253896 1.85733 -0.284575
2351 1 17.2204 10.8573 -13.7619 -1.26922 0.278256 -4.11336
2352 1 -3.73447 21.4151 23.9138 0.947658 -0.0246599 4.1129
2353 1 15.1543 -3.21449 5.9853 4.34883 3.35361 -1.57344
2354 1 20.8476 -17.767 -23.444 -0.237267 -2.87946 0.399816
2355 1 -8.67339 -0.507427 1.47766 -5.55133 0.631072 2.6603
2356 1 13.8202 -23.5733 -9.39461 0.41372 -2.96 -0.812928
2357 1 -1.70788 -2.38932 2.05542 2.53058 -1.85273 2.07885
2358 1 2.0827 -10.5799 -11.485 -2.383 0.0518482 -0.385639
2359 1 7.46057 11.3466 7.04819 4.93477 -0.471674 -2.49838
2360 1 14.1065 16.875 1.27416 3.05803 0.509031 -4.30186
2361 1 -23.5036 9.40612 -11.9469 -2.57307 0.459487 0.211393
2362 1 -21.0738 9.85915 10.7894 0.571036 0.0125331 -6.58678
2363 1 17.3844 -11.1706 -0.722219 3.88834 0.0536528 3.76109
2364 1 1.62503 -1.77155 0.684631 -1.75341 3.20872 -0.699174
2365 1 22.6138 -8.539 -5.24026 4.43451 -1.32909 0.0932575
2366 1 10.9226 3.87155 2.62323 -1.64568 -3.18602 -0.701695
2367 1 7.33745 18.1801 8.96924 5.25366 -3.80286 -1.86515
2368 1 -7.70112 -17.2722 -9.52971 3.47127 -1.62005 -0.464385
2369 1 21.5303 5.37918 14.5339 2.17198 2.19955 4.67635
2370 1 -20.4371 -10.6232 -6.59695 2.28906 3.66475 7.36626
2371 1 19.8272 -21.4107 0.285092 -0.9017 -0.319999 3.90443
2372 1 23.0776 4.86557 -1.43736 -0.442754 1.29139 -3.21563
2373 1 11.8106 11.7283 15.1045 -2.09849 -1.69576 1.11105
2374 1 -6.61084 8.68213 -1.61286 -2.13621 -1.10179 -1.54643
2375 1 11.2675 21.6366 13.6483 3.99741 -2.42014 2.8649
2376 1 -16.2089 -0.71256 22.9747 -1.31031 8.29709 -1.6353
2377 1 -5.43651 -8.22127 -4.57886 2.98899 -2.15592 -0.669913
2378 1 5.57738 -2.0515 21.5498 4.92007 0.685145 -1.04848
2379 1 -23.9162 13.9869 9.55277 4.42186 -2.41303 -4.6501
2380 1 8.76026 -14.4881 20.4603 1.7445 0.0709336 2.25886
2381 1 13.2383 -8.35964 -4.53473 3.45254 -4.18759 1.60343
2382 1 -15.0667 16.9287 -17.4469 0.182603 3.1196 0.328057
2383 1 -23.319 -15.916 4.74123 -2.04304 -1.43707 1.3048
2384 1 8.84525 -12.4804 22.6876 -5.67082 3.15114 0.164399
2385 1 0.37458 9.97379 1.6459 4.81159 -0.764823 -4.27454
2386 1 2.23357 -1.69392 7.79826 -4.55301 -5.48531 2.74444
2387 1 -12.6782 -7.22067 11.4753 -0.781046 0.507876 0.214738
2388 1 9.63307 23.3669 20.741 -6.43001 -3.18602 3.25786
2389 1 8.30127 -7.02331 13.4866 -2.14038 0.0853265 1.55739
2390 1 -23.1627 -7.19516 -7.84088 2.67893 2.73246 -1.7343
2391 1 -9.62498 -4.1223 8.29231 1.87435 -1.1338 0.570015
2392 1 8.82405 -21.6312 -15.6416 0.665056 -1.67627 1.95576
2393 1 4.01735 -16.676 20.0793 2.29065 1.01186 -2.62308
2394 1 15.7668 15.7075 -3.51886 -1.82912 -0.347743 5.58555
2395 1 4.88846 17.4481 20.4909 4.09619 -7.28034 2.91336
2396 1 -15.7944 -22.0171 -0.968853 2.82668 -3.95239 0.213475
2397 1 -13.7503 -7.24218 19.1845 -2.94348 5.16696 0.774532
2398 1 -10.0951 -1.38552 14.2277 -2.60867 -3.32574 0.696243
2399 1 -11.4531 -9.41651 9.47425 -6.33772 -3.81257 0.0192578
2400 1 11.4667 -8.9655 16.7196 -5.31148 1.11979 -0.725985
2401 1 -16.8796 20.6419 -6.07662 -0.550771 0.614767 -2.01403
2402 1 19.0147 13.2229 -17.4727 1.22845 -0.372325 3.13275
2403 1 -9.64508 0.437975 23.927 6.30356 2.92794 -0.777652
2404 1 -20.6021 -6.09334 -22.5738 -0.676344 1.01928 1.23602
2405 1 -3.84438 -10.4326 -21.4191 -0.07083 -1.24549 -1.94592
2406 1 -23.805 6.71842 -11.7706 -1.41826 -2.05443 2.12853
2407 1 -12.0722 -13.7419 13.3924 -3.04641 -2.6443 -3.69287
2408 1 -19.3201 -4.91475 -12.5981 -1.1199 -0.883269 -2.36918
2409 1 4.72809 11.4215 15.1532 3.56008 -0.406251 3.70359
2410 1 4.73718 -21.6045 -23.1709 -3.80096 1.41246 1.07103
2411 1 7.1937 14.1947 -16.3267 -0.276613 -1.57079 1.19926
2412 1 11.4053 18.9488 17.5994 5.27296 1.75227 -2.31793
2413 1 -6.41585 19.7878 4.95006 -0.979947 -2.37563 -2.70807
2414 1 14.4878 -7.15416 -6.71944 0.523059 -0.614945 -3.22565
2415 1 22.6354 -23.8157 23.9584 -0.467515 -1.94472 4.03446
2416 1 7.81403 13.0257 9.34771 2.27725 0.505574 -3.18729
2417 1 -5.24004 -6.27889 -0.307578 -0.824413 0.462448 0.0314108
2418 1 13.3534 2.5097 -6.10805 -0.343527 1.29055 1.52475
2419 1 21.9921 6.94133 -16.8541 1.83912 1.38885 1.69258
2420 1 -1.34022 -4.48372 -7.32109 -2.04366 -0.158289 0.64924
2421 1 22.7705 15.5195 -6.8005 3.36376 1.5201 -2.18524
2422 1 -16.778 6.57595 14.9545 3.62244 -2.14913 -2.69762
2423 1 15.1034 22.5031 4.52916 -0.468459 -4.54561 3.01402
2424 1 22.971 17.192 9.23375 -0.519047 -3.86193 -3.30348
2425 1 -16.4442 10.357 -22.671 0.73828 -2.34223 -2.29757
2426 1 -0.868534 15.9271 19.3377 -1.31467 0.248716 -4.88388
2427 1 14.1014 4.67623 5.41467 5.80246 0.92851 -2.3589
2428 1 14.4996 -15.769 14.8077 1.79452 -1.63533 0.320695
2429 1 -9.52476 -10.374 -12.0018 1.38647 -0.175776 -0.118841
2430 1 -14.5232 -7.31274 16.4776 -1.10482 -0.484409 1.94671
2431 1 -18.4577 16.6282 -8.22718 -4.62133 5.93086 2.82692
2432 1 22.1082 17.0897 -16.6677 -4.19896 0.235876 3.13142
2433 1 19.9856 -18.644 17.9472 1.61802 -0.4002 7.185
2434 1 -0.00383784 -20.9024 -3.37581 0.629365 1.70283 -0.819178
2435 1 -14.0196 23.5806 10.8188 -3.31087 -5.337 1.21687
2436 1 -9.13998 8.82705 17.3438 -3.08614 -5.05949 1.37826
2437 1 -14.8522 -5.42762 11.0962 2.96096 0.495188 -1.83004
2438 1 -3.47797 -23.2025 -22.1114 -0.519826 -0.352501 -2.63447
2439 1 -13.6338 19.5304 9.1583 0.12509 -7.11081 -0.728729
2440 1 5.05611 -2.65661 -16.8277 -0.623759 -4.39106 -0.25775
2441 1 -22.4538 13.8167 20.6989 -1.02372 -1.03029 2.15802
2442 1 -2.21414 -9.26615 -17.5772 10.2092 0.659342 0.444056
2443 1 5.3688 11.6702 -21.6028 -4.59298 -1.36082 3.05868
2444 1 13.4144 21.7113 20.2379 -2.94607 -6.72937 -2.08759
2445 1 -0.109263 3.05418 20.8657 1.35183 1.10004 2.60455
2446 1 -0.191002 -5.44855 16.1492 3.85369 1.16636 0.0420744
2447 1 -0.252146 -13.0244 16.2852 -2.39423 6.17419 -1.08755
2448 1 1.96301 -13.0156 -9.71539 -1.55146 -5.96019 5.42746
2449 1 16.9916 -22.0698 13.7755 -1.91037 -1.55264 -0.534082
2450 1 9.48353 12.943 23.0602 -3.60414 -0.0451553 2.45153
2451 1 8.87195 -22.2606 5.72647 1.89983 -2.35632 -3.65842
2452 1 13.4002 15.8094 -14.656 -2.25391 -3.83778 1.66156
2453 1 -2.06136 9.19885 12.4722 0.95186 -0.848702 -2.65339
2454 1 -6.54281 7.66257 -16.8146 4.13489 0.748834 -1.90732
2455 1 10.3961 9.069 15.3086 -3.89732 -2.01015 2.37795
2456 1 20.8032 22.2671 23.9512 -0.305763 0.309617 -2.36932
2457 1 -3.31157 2.21746 12.2641 -0.244067 -1.69714 1.56753
2458 1 -21.7008 20.9213 -4.10046 -2.82512 2.30881 -0.803931
2459 1 -19.8317 15.245 -6.01481 2.27031 -0.913027 2.94422
2460 1 8.80493 11.9562 -15.0692 4.00931 1.56028 1.1465
2461 1 -19.6815 17.1457 -3.79098 1.19623 3.76096 0.138563
2462 1 -11.5535 23.7052 2.84676 -0.219671 -0.542665 4.89015
2463 1 -14.3171 -20.4764 22.8199 -1.89153 -1.13782 -0.268357
2464 1 8.66986 20.3737 -13.8364 -3.12528 -5.71008 0.864922
2465 1 -10.3735 -13.1912 -11.2142 -2.40082 0.778791 -0.722065
2466 1 1.25261 5.03581 -2.89844 1.75586 2.93505 3.03129
2467 1 1.1486 -16.9503 10.6892 -0.664209 0.317818 -4.42936
2468 1 -19.8203 -23.3772 -6.68017 2.24504 1.97927 -1.83405
2469 1 14.8584 -24.2796 -24.0601 0.382339 -0.462284 -0.310939
2470 1 13.0562 -19.3324 -8.21451 1.58622 -0.983131 -6.70758
2471 1 -3.5082 25.1738 -21.7574 -2.3856 -1.76014 -1.98149
2472 1 -20.5692 -0.616055 14.6508 -1.28531 1.52254 -2.61334
2473 1 14.0285 9.33444 -6.38852 -1.89011 -2.62806 -3.2958
2474 1 -5.32136 -12.3285 -16.8672 2.5731 1.78436 5.59747
2475 1 -14.7844 10.1151 9.60473 0.389124 1.56673 0.748176
2476 1 -7.91034 -22.1037 -19.2055 -1.93918 -0.203929 -3.163
2477 1 12.4963 10.4472 0.0187792 0.802578 -2.25107 -0.0216207
2478 1 -3.06753 -22.4856 -4.14813 -2.52539 0.545026 0.357691
2479 1 -22.7766 -5.1164 3.83182 -0.948193 -4.74827 -0.0543744
2480 1 -1.01059 22.4047 -9.47863 3.19685 -2.03099 0.248482
2481 1 -14.8672 -7.73857 -9.17328 0.730127 -3.02984 -6.85645
2482 1 5.26734 -5.02459 -1.12625 1.61273 -1.28846 3.50651
2483 1 -0.436407 9.81642 -10.9596 0.179021 -0.910395 3.95569
2484 1 2.43539 -13.2588 -6.82913 -5.87034 0.505081 -0.514895
2485 1 -1.48164 -19.2671 4.37502 2.40538 4.34461 0.410584
2486 1 -1.50716 -18.1201 6.92461 2.0508 -1.01961 -1.13241
2487 1 4.3929 18.9416 0.253641 0.945149 -1.17772 0.736243
2488 1 -7.16491 20.3761 18.7296 0.771122 3.27635 -5.38863
2489 1 5.36518 22.3716 -9.53721 -2.40209 -0.0994156 -2.03974
2490 1 -12.5015 22.3054 17.981 0.952392 -3.92453 -0.726633
2491 1 12.2951 -20.6287 -2.01004 1.1656 1.76641 3.33893
2492 1 22.8452 13.9809 2.09293 1.19995 -0.598756 -0.907416
2493 1 19.9099 23.2581 -19.6512 -2.96554 -4.56188 0.114875
2494 1 -15.6263 -13.7837 -21.7558 1.81849 1.8783 -4.3558
2495 1 16.616 -13.955 -10.7231 -3.30912 0.321996 -2.23435
2496 1 3.10615 4.75377 -22.8243 6.56415 0.29567 3.34385
2497 1 4.5396 11.4468 21.1898 -4.06018 2.38478 -1.80495
2498 1 -3.48693 6.0681 2.75376 -3.11089 3.04382 -3.55443
2499 1 23.5891 -15.2842 8.43317 -2.41286 2.28245 -1.86985
2500 1 12.7048 20.9215 5.23466 -2.12761 -7.27801 1.94894
2501 1 5.17014 12.6292 3.46132 0.991457 -0.89684 -0.0738628
2502 1 -7.20187 -11.3286 9.47333 -3.91485 -0.569207 1.6436
2503 1 18.5121 13.7761 0.0746976 6.96067 -5.47389 -4.25165
2504 1 10.3845 11.9346 9.71782 2.83386 3.06646 -1.84959
2505 1 -10.4756 18.1719 21.7935 -1.29011 -1.98022 0.870981
2506 1 -23.1432 9.68152 -7.73667 3.9679 0.504675 1.19794
2507 1 9.31526 -2.76357 -15.739 4.96876 -2.40287 1.64698
2508 1 13.1706 22.13 -4.52204 1.42603 0.730742 4.15239
2509 1 -3.97488 -5.94786 3.37208 -0.00829735 -2.06748 3.88896
2510 1 -21.0886 1.7632 -1.26406 5.34139 -2.40259 -0.876079
2511 1 3.75719 6.18675 19.3079 1.21724 3.23032 2.83788
2512 1 -9.45227 10.8013 13.7006 1.75334 3.58256 -0.516868
2513 1 21.2022 8.8104 7.80492 0.823558 1.80038 -0.366704
2514 1 19.9825 11.8777 23.8799 3.7123 4.98209 -1.62479
2515 1 2.28705 -21.3424 3.84977 1.32568 2.4918 1.73921
2516 1 2.57034 13.2281 -19.8965 0.0809535 -3.52512 -4.86152
2517 1 -12.2413 -13.1925 15.9926 1.93749 4.87554 0.827489
2518 1 -3.4524 -5.26144 -3.41202 5.79547 -2.87558 -1.48076
2519 1 -22.4822 21.5559 14.8296 -3.22544 0.275201 -0.531878
2520 1 -22.5536 1.35768 -8.38367 -3.08322 1.05616 -1.34132
2521 1 7.69081 5.8757 15.6336 1.43016 -0.795586 -0.243534
2522 1 -4.44262 10.1633 -1.00187 3.04557 -1.51427 0.12443
2523 1 -17.3737 -23.7476 -21.966 -5.613 1.16941 -1.32094
2524 1 10.7507 22.7686 -22.0337 -2.04686 -0.345908 2.64829
2525 1 -11.2014 -16.8903 -9.38346 1.0694 0.953863 -9.86306
2526 1 -8.69163 -4.60775 -14.1605 -1.29005 0.902437 -6.38958
2527 1 6.16288 4.87488 6.91016 4.19262 -1.31421 1.12146
2528 1 -8.87297 11.3806 7.37849 1.56709 2.66469 -0.823989
2529 1 -16.9799 -8.24356 -1.66437 5.25325 0.857465 -1.60439
2530 1 4.25848 -12.0047 -16.0487 -0.348488 -1.10855 -1.40623
2531 1 -19.3254 -9.66385 -17.0488 4.72012 -3.13583 1.20117
2532 1 -13.8796 -18.1457 2.19386 -1.44336 -3.04036 3.10237
2533 1 -14.5402 23.2737 -2.91075 -3.00428 -2.44284 1.77665
2534 1 -17.3397 -12.4467 -3.61995 -0.324383 -0.631756 2.80909
2535 1 15.0403 -6.68687 15.6767 -1.07574 2.57267 -0.372628
2536 1 -23.2351 -20.3303 -23.5596 -0.682484 5.3921 0.446153
2537 1 -0.835823 -23.5176 13.8225 0.621506 0.717764 0.0258874
2538 1 -7.96986 5.49784 -23.8005 -0.472038 2.29705 -3.15056
2539 1 10.3679 -11.5338 17.3787 -3.57116 0.0336127 2.47359
2540 1 19.2054 -7.9734 15.7075 -0.520111 -1.28573 1.39494
2541 1 5.31718 7.9571 13.5404 -2.16248 3.33958 1.85234
2542 1 -11.5256 -7.66367 -21.1034 -5.28868 3.36722 -3.6323
2543 1 -17.7355 -7.05287 -6.00901 2.70327 -1.07584 -0.286709
2544 1 15.1606 2.11714 6.73029 -1.49496 0.641108 -3.06165
2545 1 -12.4557 11.6371 -21.589 2.94164 1.20521 -2.30117
2546 1 -16.1176 4.31211 12.9591 5.35035 -0.550682 -0.707701
2547 1 -13.6124 -1.82722 5.87578 3.24962 2.68989 1.24961
2548 1 18.103 -7.11258 -7.6248 -4.78599 -2.07693 2.05713
2549 1 4.13048 13.8885 -16.4332 1.60155 2.13298 2.9402
2550 1 -23.4001 -18.1955 -17.3811 0.784427 -3.69699 0.15779
2551 1 -6.59074 10.7035 -16.2568 2.01068 -6.84814 -2.33662
2552 1 -1.53549 -14.3385 10.4066 0.691093 0.138973 3.0944
2553 1 0.172507 22.4853 15.311 1.4215 1.54187 -1.54646
2554 1 17.2523 24.3505 -8.88922 1.72769 -0.525202 1.41807
2555 1 3.55525 14.9572 -7.22018 -2.67044 -2.26572 -0.57051
2556 1 -9.39271 -10.8846 7.78733 -0.474949 -4.41752 -4.72012
2557 1 16.4449 -20.8489 -11.5865 1.5104 -2.48235 -0.141232
2558 1 -21.1632 9.12357 -21.4519 -1.94107 -1.65143 -0.633146
2559 1 -18.1397 8.62679 4.85994 -3.75356 -2.09884 2.17187
2560 1 22.9211 -21.9016 9.55085 -0.245243 1.18239 2.13573
2561 1 -12.1658 -1.10388 9.92372 -5.31174 0.975812 -1.8743
2562 1 -21.1845 -5.56946 -9.0904 0.337575 2.3403 -2.62579
2563 1 20.0276 -3.46644 -23.3641 -1.91793 -3.50198 -0.478627
2564 1 -12.0907 -15.4112 -11.7774 -2.70407 0.066937 -4.51069
2565 1 13.1453 18.7611 14.5078 -0.98186 -0.00708264 -2.45728
2566 1 22.526 -7.14201 12.8795 2.95851 2.56423 0.965123
2567 1 -11.5247 -0.188832 -18.4238 -0.0405369 -4.00948 1.47612
2568 1 20.2404 -11.6828 -18.9351 -1.79508 -4.82873 3.42413
2569 1 -24.2978 -18.4076 -11.6729 -2.07329 -1.71895 -5.76893
2570 1 -23.3327 15.322 -16.0232 2.33903 1.82478 -1.31843
2571 1 11.7478 3.10616 20.9413 0.430544 0.884837 1.24987
2572 1 -22.9158 -18.0105 -7.0488 -1.30595 1.13817 4.92443
2573 1 19.7028 -24.1683 -2.96902 -0.155204 -3.18934 -3.09955
2574 1 -17.0869 -24.3377 -7.612 3.11469 -5.0057 1.4173
2575 1 2.2564 16.2864 3.53959 -0.616074 -1.82023 -2.695
2576 1 23.7719 18.5891 15.0012 2.03128 -3.10662 -2.06958
2577 1 15.0178 21.4078 -2.29889 -4.50031 -3.94366 2.5085
2578 1 -18.7985 -16.609 -2.6626 -5.16493 -0.556754 -0.44902
2579 1 -10.1995 10.4974 2.0449 3.47482 -2.17726 2.3365
2580 1 22.0249 10.7594 -21.5321 0.597237 5.56563 -2.09562
2581 1 -6.65956 16.828 21.7042 -2.60284 0.76061 -0.722072
2582 1 14.4965 23.8567 9.08937 -0.0613736 3.49601 -0.603307
2583 1 6.36058 18.9261 -3.07366 0.528202 -1.56649 -0.260044
2584 1 -10.2956 -21.9431 -11.3513 -0.148425 -4.15001 -1.2567
2585 1 14.3053 -13.3799 20.0724 -0.994716 -0.899643 0.525061
2586 1 -14.1687 14.8742 11.7784 1.21687 -2.58079 -0.636195
2587 1 18.0523 -17.5802 7.97061 3.57145 -4.52452 -1.01086
2588 1 16.2503 -0.297742 -16.6903 1.86925 0.699786 -4.22592
2589 1 0.786134 -6.89996 8.39463 0.764505 -0.932957 -0.809558
2590 1 13.2261 2.57401 -9.00339 -1.06122 -0.043505 0.739758
2591 1 -4.71099 -20.5084 14.0999 -2.55263 1.72831 2.07499
2592 1 -1.46907 -18.2699 9.86357 1.91889 -2.49159 4.4032
2593 1 -23.7967 -5.63047 -22.9767 -3.57161 0.614528 -0.231849
2594 1 23.1247 -6.03155 17.1881 -3.04737 1.29695 -2.34173
2595 1 -3.43978 -18.4517 -20.6774 5.39686 -0.192372 -4.23908
2596 1 -15.0904 10.3439 -20.1263 0.516971 -0.634993 -1.71575
2597 1 -18.3449 -2.5167 -17.1659 1.48938 1.53572 -0.294827
2598 1 20.1704 -0.808667 -3.67913 -3.80371 0.757011 5.31852
2599 1 -7.21227 2.94073 7.25777 -1.87086 4.97096 0.946682
2600 1 5.14591 21.6367 0.986706 4.64715 -2.00905 2.49106
2601 1 -1.52295 7.68746 1.54171 -2.47993 1.31727 -1.4685
2602 1 -6.99837 -13.4415 -2.99458 -4.7073 -0.417448 -1.2978
2603 1 -22.9895 19.0622 -8.02231 -1.06459 6.6757 4.33731
2604 1 12.8672 -13.7028 -1.04604 3.20412 3.70421 3.37145
2605 1 -17.3325 8.04515 -4.9199 -1.84283 2.35798 -4.05
2606 1 17.9922 17.1985 19.7309 -1.07045 3.03648 -0.246388
2607 1 10.5226 2.84013 -22.6803 -1.67883 -1.72882 -1.76878
2608 1 12.0724 -19.4638 -22.4149 -2.45328 2.90442 -3.49873
2609 1 -13.2241 -4.80645 -17.4085 0.558261 1.92246 0.595744
2610 1 -1.08271 5.15288 -16.5994 2.50854 3.51278 -0.904535
2611 1 -21.6232 25.177 -19.1248 -4.04302 -1.97031 -0.0326346
2612 1 -16.5298 -23.2159 16.2671 1.19579 -4.43474 2.94642
2613 1 -23.0022 5.7798 16.0924 2.78412 3.29847 0.242969
2614 1 -13.3605 12.522 -18.7025 0.858228 -3.9115 -0.712796
2615 1 -3.97785 2.54007 15.2818 1.09219 -3.11324 5.2726
2616 1 -23.3828 -2.64582 -9.72026 -4.60471 -0.594385 2.68958
2617 1 -4.56365 12.0692 -17.9442 -2.80638 -3.44551 0.69234
2618 1 -7.18166 -18.5248 -12.2683 -1.91226 2.82254 0.20957
2619 1 0.724701 9.58442 -20.7013 2.1229 3.9333 0.85763
2620 1 -8.19966 14.1074 4.53253 -3.19919 -1.94176 0.535924
2621 1 4.78723 -22.5132 7.08907 0.892467 -0.919131 -0.372334
2622 1 -1.93156 -18.0901 20.8846 1.91606 1.59394 -0.0324066
2623 1 -22.256 19.5144 -23.1387 -3.83564 0.683621 -0.363473
2624 1 -20.8961 18.7314 -5.98441 -2.26799 -0.438202 -2.04788
2625 1 -7.06127 -5.11743 23.3772 0.198989 -2.16349 -1.4412
2626 1 -4.35442 3.3178 20.1309 -0.70599 -0.900477 -2.69819
2627 1 17.357 23.9453 8.33984 -7.49293 6.30846 0.873161
2628 1 11.6268 -6.71136 -22.1818 -6.21992 0.401705 1.62247
2629 1 -23.5809 -3.18342 7.08073 -2.45761 0.679652 -1.16021
2630 1 -11.1165 -8.21641 19.588 1.41656 0.837313 1.03313
2631 1 19.1701 16.2098 1.21622 -1.05766 -1.30663 2.2947
2632 1 18.0315 -2.50486 -17.3201 -3.74034 -0.148631 -0.311243
2633 1 -4.31804 -15.289 -14.2849 -0.193254 2.08156 -0.851506
2634 1 -6.42199 12.6237 22.8759 0.381757 4.14963 -2.98377
2635 1 -1.43172 9.08087 22.7503 0.157118 -1.45273 -7.30536
2636 1 -14.3415 -19.8507 14.8502 -1.64839 -2.44083 0.0352171
2637 1 10.7921 -15.6574 -15.3345 -1.87012 -5.63492 3.09097
2638 1 12.2395 5.15702 -5.55121 1.11268 -2.36673 -1.69122
2639 1 -0.590528 -9.05977 18.2326 2.13708 0.421897 3.0621
2640 1 3.93666 16.0723 -20.1596 3.06548 0.287152 -0.981109
2641 1 21.7441 6.66301 -13.0408 -3.54705 3.19596 1.44323
2642 1 -6.153 -19.326 5.12278 5.93153 4.20729 1.82178
2643 1 -3.46647 -13.9555 23.2928 0.852205 2.23814 -3.04101
2644 1 22.4295 -24.0617 -15.3054 1.16914 -4.16008 -3.00715
2645 1 5.69805 -22.5667 16.4772 2.68664 1.98643 -4.8301
2646 1 -3.35434 11.3026 -3.39715 1.6884 -3.024 3.74904
2647 1 -12.1204 6.44558 2.14307 -1.02689 3.15096 2.01043
2648 1 18.4319 1.46935 3.77425 1.51403 -4.63799 7.90746
2649 1 -17.9798 19.8309 -10.6482 0.0599373 -1.62299 -2.26204
2650 1 -4.02094 8.70359 14.4958 0.215451 0.761202 -1.03705
2651 1 -17.0663 -20.6191 15.5257 -0.22292 4.47138 3.24659
2652 1 -20.5259 -5.86479 -14.8634 1.53619 -4.1964 0.793117
2653 1 -8.75872 9.49047 -3.43299 -0.764704 3.89786 -2.12969
2654 1 20.8791 -9.57842 1.08011 -1.5141 -0.735328 1.15511
2655 1 -8.30895 -12.2093 -0.649116 -2.63677 -2.4086 0.0798398
2656 1 -6.37976 8.65939 -19.8281 -2.35901 -0.990314 -1.5868
2657 1 -10.8005 -7.3635 7.23299 0.194314 -0.153236 2.41061
2658 1 -6.75285 2.58235 15.9374 5.57652 0.770208 -1.55131
2659 1 14.3297 -5.79556 -22.7843 -1.67498 -2.87588 -1.63308
2660 1 -11.8666 23.1805 12.5219 -0.864762 -2.20318 1.02277
2661 1 4.91513 7.72367 23.8296 3.71888 -2.08923 1.23711
2662 1 -20.8292 -22.425 7.42501 -3.8345 -2.51446 -0.702172
2663 1 -11.0731 10.0552 20.4426 0.352576 -4.06603 -2.54697
2664 1 -15.6593 17.9967 22.6717 -0.373886 2.96207 -0.752974
2665 1 -20.5626 3.00143 1.67414 0.0433918 -1.16696 -0.800797
2666 1 21.7501 -21.7068 2.70193 0.635625 1.30975 0.269019
2667 1 -11.173 -4.35873 -6.10405 -0.420435 -4.33232 -2.04012
2668 1 -7.5828 -18.4522 -21.1708 -2.3089 -1.19473 -2.74059
2669 1 2.97924 -6.53208 18.127 3.43794 -3.91475 2.54104
2670 1 23.3395 24.9382 -15.9538 -1.27252 0.882589 5.26737
2671 1 12.0529 20.5882 22.2744 -4.0864 0.466772 -1.12824
2672 1 5.89029 -4.83484 9.82061 0.757053 -7.32669 -3.69573
2673 1 -14.1065 -24.277 -1.42459 -2.05147 -4.97587 0.533029
2674 1 -7.89607 -21.8551 0.244517 -5.01971 -0.0480019 1.50977
2675 1 16.4261 4.56239 -9.73378 1.10095 -0.504312 6.95351
2676 1 21.532 23.0702 -17.1971 3.01331 -5.11599 0.0787331
2677 1 0.108859 -22.3586 0.684247 -2.79917 -3.19574 -0.751379
2678 1 3.47699 -20.3019 -16.0712 -0.549997 3.03384 0.802325
2679 1 9.38837 -1.13586 2.94726 -0.662036 1.51794 1.17545
2680 1 10.1548 -4.17572 -6.90902 2.01574 -3.10865 3.65596
2681 1 -15.0217 -6.94993 -18.076 -0.373933 -0.285647 -0.152856
2682 1 -22.1631 1.54718 13.9807 3.19958 -0.767664 3.9455
2683 1 -19.0325 5.48185 -18.2076 3.24308 -4.56093 2.4842
2684 1 -22.5675 -10.9168 3.21 2.2392 2.87625 -2.87721
2685 1 -1.7573 -9.03413 5.21114 0.452076 2.52205 2.27916
2686 1 4.73038 -23.4882 -17.5854 1.69523 -4.95142 -0.0902342
2687 1 18.7672 -17.4345 -12.7987 -1.23702 2.49605 2.40013
2688 1 -15.8035 -3.31189 -0.0641438 4.88111 -6.69355 0.274374
2689 1 -5.92189 -1.78737 -8.42294 -2.37215 5.05575 -0.149728
2690 1 -13.6352 -12.6109 -19.7551 -0.220321 -0.727807 -1.49986
2691 1 -20.8743 -22.6018 17.7819 2.2819 0.443616 2.6433
2692 1 3.94985 0.749768 -9.11432 3.47829 -2.88027 -0.741258
2693 1 9.31639 20.473 -18.2679 1.20756 -1.22508 -1.72614
2694 1 -5.69216 -11.0738 20.9836 -2.49778 1.11449 0.0261949
2695 1 14.5723 7.9411 13.5664 -0.214485 -0.62049 -0.905804
2696 1 21.9741 -17.3596 22.0248 3.58716 2.47524 -0.761919
2697 1 4.12146 -1.10395 -5.69991 1.11216 2.71121 -0.650662
2698 1 16.5363 -12.6774 21.794 -0.435344 -1.91035 0.195777
2699 1 -16.6221 14.6453 -1.54458 5.21505 3.003 -1.00348
2700 1 -8.89381 -19.5081 2.83915 -0.365396 -3.50785 2.74957
2701 1 -19.2911 24.1637 -0.527325 -1.0863 2.45667 1.75686
2702 1 -6.67046 19.0538 -19.2029 3.49101 1.00304 0.393794
2703 1 12.5376 -5.97347 -12.1278 0.471422 0.0595947 2.97132
2704 1 2.85367 -22.9706 1.4824 0.647605 -3.74175 1.87475
2705 1 -4.08062 -1.03137 3.0937 -1.67387 -2.67476 -2.43288
2706 1 2.25434 -24.1005 23.3887 2.36866 -1.87645 -5.54143
2707 1 -10.2748 -14.0739 -0.0425542 0.802062 -1.84173 1.23927
2708 1 -13.3984 0.600597 22.8405 -0.265995 1.39023 0.0703808
2709 1 19.7748 -3.42108 21.8345 0.0694028 2.44003 -2.90999
2710 1 -3.71124 14.6331 17.2259 1.15015 -2.81657 -0.207167
2711 1 -15.3884 -6.58892 -23.4645 0.944184 4.49979 -2.08487
2712 1 16.133 13.8617 2.22986 0.447628 -1.59373 -3.97311
2713 1 21.6015 3.98954 -6.90019 3.63835 0.439216 1.98571
2714 1 -19.4233 3.55639 -11.9361 -2.1486 3.73718 -1.12171
2715 1 -12.9057 10.8064 18.4867 2.03425 0.239617 4.57698
2716 1 15.6085 9.31081 3.0736 -0.350382 -4.02539 3.16166
2717 1 13.025 19.9206 9.10763 0.443028 -2.12765 -2.76241
2718 1 9.64082 -14.8689 24.1553 -1.72214 -0.899449 3.38569
2719 1 22.9175 -11.4699 1.81954 -1.06746 -2.49844 2.17997
2720 1 -13.8197 -9.0737 -19.7999 1.18409 6.01838 0.462106
2721 1 1.99894 -12.0863 12.7812 0.0438614 1.93521 1.84114
2722 1 -10.122 19.5459 -6.93709 -4.68321 -2.49537 -4.73393
2723 1 -3.26457 17.395 13.5339 -1.51537 2.02034 1.49479
2724 1 -3.38919 5.29779 5.44812 -0.443576 2.02993 -0.0964377
2725 1 -2.60777 7.83165 -16.7421 3.24254 -1.04214 4.6416
2726 1 -9.47778 -7.61103 -23.1607 -3.257 -1.0476 0.312771
2727 1 -13.6817 -20.5476 -2.55147 -6.22089 2.70183 2.36571
2728 1 19.3561 -3.44267 11.1777 4.87293 1.8313 -1.72242
2729 1 -4.35773 -22.117 -18.0911 0.0337912 0.230316 -1.01259
2730 1 -9.35029 -15.1831 10.6679 3.62184 -1.2866 -1.50209
2731 1 -22.5773 23.7625 -8.50237 0.653415 -0.689792 0.340389
2732 1 0.917837 1.99006 4.72226 1.26739 -2.99657 3.12415
2733 1 -9.12062 10.2146 -20.1925 2.91938 0.499661 -1.9323
2734 1 16.5542 -9.66699 21.1945 4.30948 -4.2339 -2.88596
2735 1 -4.49254 7.7182 -14.596 -1.64849 -0.253036 0.99365
2736 1 16.3801 14.0565 22.7746 1.21231 -1.68022 5.65388
2737 1 -21.6015 -17.7353 0.478617 10.1868 3.75758 0.174182
2738 1 -6.37446 10.0894 13.2662 -6.95803 1.53991 0.336399
2739 1 -10.4237 -7.97836 22.2909 -0.978155 2.26336 -0.981746
2740 1 -12.2664 -12.4783 -22.7406 -1.68478 -0.586431 -2.243
2741 1 -8.61503 8.20441 1.35774 3.43843 0.605607 2.10387
2742 1 -14.6924 15.3662 6.81854 -0.708588 -4.49423 2.83215
2743 1 -0.477663 -18.5955 -7.5421 -3.75084 -4.26116 0.202266
2744 1 -16.2 -19.4924 -20.5346 5.1506 -0.617321 -3.254
2745 1 -11.0997 20.8492 2.80425 -1.95906 1.17913 -0.50474
2746 1 6.09544 -11.0424 -2.57161 -0.440582 0.846243 5.35173
2747 1 -1.00288 2.45607 15.7314 -1.36259 0.0241299 -0.127206
2748 1 -4.79366 -0.697642 -12.2877 2.59959 -5.40877 -1.15966
2749 1 -12.9949 -6.77181 22.7806 -2.0528 -0.345875 5.25848
2750 1 -14.2586 22.7638 -19.0561 -2.40895 -0.696003 -0.382981
2751 1 8.24412 -22.3116 8.50952 6.8716 -0.0523831 -2.49004
2752 1 -9.75264 21.2718 -9.0516 1.86014 5.60253 2.45679
2753 1 -1.37554 -7.13366 10.3522 2.68041 5.51705 1.9597
2754 1 -11.9665 24.392 0.290039 0.280303 3.2496 -4.49588
2755 1 -0.939588 -12.2453 13.581 0.12767 0.0693733 -4.52057
2756 1 22.0148 12.1985 21.8748 -0.392881 -1.67986 -4.44544
2757 1 15.2078 -18.0144 19.4378 -0.305287 -0.547617 1.31351
2758 1 -21.5703 -15.9574 -8.5632 2.67671 -2.02227 -1.33374
2759 1 -16.1787 -16.3814 7.27735 -3.76278 0.00710244 -4.04652
2760 1 0.106497 13.2232 -18.3762 -1.9844 2.87929 -0.723276
2761 1 -7.29078 -16.1175 16.5024 0.818124 -4.98258 -0.830386
2762 1 -10.1252 9.19944 8.90843 -1.18172 1.50238 1.07617
2763 1 -5.7467 -11.6771 18.0841 1.58291 -3.8477 -3.86252
2764 1 6.73505 22.1226 -12.3128 -0.0528951 1.29207 1.9923
2765 1 8.43706 -17.1992 -18.7034 -1.43692 -0.409871 -1.25858
2766 1 7.85312 9.52416 16.0598 -2.90678 3.51266 0.0625319
2767 1 -11.8914 -18.8406 -20.6667 -6.51517 0.259227 -5.27171
2768 1 -4.13367 23.1909 -0.107527 2.78942 -7.38694 5.77988
2769 1 -16.3424 16.331 15.5026 1.94391 2.5621 2.41282
2770 1 -22.7814 7.62215 4.45184 0.31909 -3.68981 -3.94314
2771 1 -20.6902 -15.3258 -18.5 7.97409 0.334336 -4.38712
2772 1 -14.0356 18.1835 -19.9433 -0.843083 3.55761 -1.37202
2773 1 10.831 23.1755 5.28182 2.19165 -2.27358 -4.56665
2774 1 21.7167 0.0631449 -17.5914 2.49521 -5.73144 -0.464376
2775 1 -2.2399 -18.8206 13.451 2.51429 4.05509 -4.16647
2776 1 8.94584 7.90887 -7.74183 -0.107618 -1.81594 0.0248189
2777 1 -13.1227 16.8396 3.64173 2.84625 2.43178 -0.532118
2778 1 -21.4857 16.4951 20.0461 -0.654678 1.80678 -3.93862
2779 1 21.1866 13.9638 18.1087 2.68759 -0.10646 -1.32196
2780 1 -13.2011 -0.11465 -6.63025 -5.3687 -5.07549 -2.06131
2781 1 13.8244 23.5724 11.9324 0.196507 3.02378 -5.40979
2782 1 8.59766 -9.82404 14.5712 -0.533816 -3.47759 -3.06813
2783 1 8.28174 -6.84524 -14.2664 0.433849 2.66124 -0.0683673
2784 1 -10.6042 1.22531 -0.0124086 3.4255 -1.7004 3.10582
2785 1 21.6339 -4.8589 -13.5057 3.60071 3.44213 6.15004
2786 1 5.77357 -3.57656 1.56813 -0.847059 -2.0608 1.8654
2787 1 -14.8643 15.6032 0.550172 -2.90723 4.34991 -4.54403
2788 1 -19.8562 15.7813 11.966 -1.75531 -1.04321 -0.936083
2789 1 8.13948 -5.6044 -5.42656 2.50613 -0.939216 -1.38198
2790 1 -7.06208 -6.55951 -14.9844 2.45278 -0.721075 4.18995
2791 1 19.581 14.746 -5.19817 -2.58085 -1.38864 0.616737
2792 1 -6.46291 -4.38366 2.39382 2.21475 2.55619 1.15272
2793 1 -1.83847 1.09112 7.61334 -1.59742 2.11275 5.63814
2794 1 9.0938 20.3365 -8.65014 2.41239 -2.78008 -5.95783
2795 1 20.466 14.9537 -19.3939 -6.33256 2.79322 2.65318
2796 1 18.5901 -13.9874 14.1156 -3.26131 3.79092 -7.14795
2797 1 18.6886 -13.5399 -22.294 -0.503631 3.33165 0.927271
2798 1 -21.0131 -1.07417 -4.30613 0.826331 -0.44994 3.3202
2799 1 0.128075 -15.9762 -5.55911 2.09242 3.8559 -4.88299
2800 1 -14.4306 -16.9927 -15.8989 -0.0133044 -5.4719 2.0354
2801 1 2.02702 16.0838 6.51036 6.66438 0.337982 -2.02392
2802 1 6.11302 11.001 -10.5411 -0.593109 -1.12838 -2.518
2803 1 -23.6898 -5.6932 -13.1338 -1.98972 -3.51788 1.05134
2804 1 -18.925 15.475 -10.8672 -0.0652506 0.123407 0.689243
2805 1 -17.0048 4.53758 -11.0845 -0.358974 -1.46996 0.791116
2806 1 -4.91753 20.4848 -15.5023 3.07923 2.19343 0.205557
2807 1 -20.557 17.7602 -1.03359 2.99814 -5.2211 0.103264
2808 1 4.74721 -23.5313 -9.98222 -1.67204 0.778025 -0.993625
2809 1 -11.939 18.3175 18.3369 3.44094 2.45952 4.14005
2810 1 6.62248 24.7154 -15.1705 -0.623839 -3.24628 3.84769
2811 1 -12.3437 14.1102 4.14849 1.66225 -1.64863 -1.75394
2812 1 -7.48865 -1.02436 20.8248 0.602208 6.01283 -4.1203
2813 1 0.368718 -10.9164 -17.2075 2.11387 1.64315 2.8336
2814 1 20.6477 -4.98607 -5.08556 -7.30136 2.41049 -4.46019
2815 1 20.651 11.5304 6.58537 -0.429954 -3.26467 -0.0135161
2816 1 2.25151 -14.0197 16.3337 -2.05137 6.34783 4.21776
2817 1 6.01621 -17.3674 -22.4224 -1.42972 -4.96698 -1.24085
2818 1 0.195028 -2.99857 4.29516 0.194288 1.15813 1.51536
2819 1 17.6725 14.1832 15.9835 5.30817 0.532996 -0.828116
2820 1 -15.3799 21.7475 9.39477 -1.98751 3.83888 0.464979
2821 1 19.8059 -12.3239 -14.8279 0.876286 -0.913051 3.19965
2822 1 -17.0247 -3.81863 5.1396 -2.87559 -1.82538 -0.174059
2823 1 12.8057 -14.5695 6.23601 -4.7805 2.42881 -6.31574
2824 1 8.93379 14.8469 15.0481 -0.646282 1.36303 1.53137
2825 1 13.7421 16.2113 -8.36076 1.22497 -2.94933 3.92646
2826 1 7.00796 -17.9278 -1.0223 -2.32244 1.66702 -2.4064
2827 1 8.51153 -9.78808 -23.4424 5.6826 3.69594 1.23142
2828 1 4.13833 -5.32087 -19.2605 -3.00084 2.24038 0.184871
2829 1 18.5305 -20.9926 9.8323 4.13537 3.48775 2.99455
2830 1 -21.7248 6.86149 0.874384 2.49575 -3.27431 0.352773
2831 1 18.9267 4.15725 -13.3506 7.09459 -8.373 2.42897
2832 1 -23.5121 -20.5172 -8.23174 -0.1078 0.359139 0.608928
2833 1 -23.7551 -0.319596 5.77641 1.80515 -0.0101894 3.98964
2834 1 -9.57173 -20.3267 18.8465 0.621118 -2.3975 -0.402583
2835 1 -5.4629 6.36716 -0.426871 -1.52609 -0.242042 2.74498
2836 1 -13.9546 20.7682 -5.96864 0.775409 -6.22141 1.40302
2837 1 -17.9776 10.0545 -9.12328 -1.08849 -1.13196 2.35921
2838 1 19.0985 -11.0051 22.5446 -0.567738 -0.523771 3.64659
2839 1 -16.6657 -4.07171 -21.9574 2.80399 0.628797 0.828131
2840 1 3.61341 -17.6492 23.8153 0.311528 -2.50207 -0.55863
2841 1 17.5972 -17.7069 -3.11737 -1.5094 1.78344 0.2846
2842 1 -1.90476 -11.1063 -7.18308 2.27135 3.36051 -1.41042
2843 1 12.9039 4.16283 -22.2538 0.47293 -0.270179 0.350046
2844 1 20.2193 16.2368 8.47319 1.56285 6.52648 2.77645
2845 1 18.2352 3.10615 -19.3911 2.03906 2.92745 2.36948
2846 1 -22.8378 -1.09933 3.11498 -3.55443 1.70415 -3.74721
2847 1 7.52973 14.6017 -1.21068 -0.730618 -3.25009 -0.464554
2848 1 -15.2 45.7249 -9.13321 0.152633 3.83376 1.15781
2849 1 -22.8892 -19.7573 14.0047 -1.28642 6.99014 -0.797688
2850 1 0.737175 6.16739 -8.76634 -1.24247 -1.47842 0.846783
2851 1 -6.27667 24.2477 17.5526 4.13212 -1.48519 6.20731
2852 1 1.43197 -4.37973 2.00113 3.22023 -3.92716 1.7531
2853 1 -2.54575 23.9254 20.7146 -2.69772 1.69254 -0.450221
2854 1 4.53484 -7.29528 -5.77779 0.935193 0.591993 -4.5573
2855 1 -17.4935 -5.99091 -19.8109 -3.66832 1.42469 1.25046
2856 1 15.201 -16.0739 0.0310307 -0.966318 -4.65674 -2.14396
2857 1 18.3557 9.6598 10.4022 -1.38643 -0.338645 -4.47105
2858 1 11.5288 -2.30576 -19.902 0.198867 8.24287 -2.8247
2859 1 -22.923 -23.4618 -19.0503 -4.48432 -0.113058 7.7086
2860 1 -21.4476 6.41855 19.6943 -2.21376 2.56584 1.03157
2861 1 14.4875 12.6858 19.2 7.00952 -1.45188 1.94124
2862 1 12.1624 -2.98153 -15.2811 -6.47761 5.26095 -3.76281
2863 1 20.9745 -18.6314 -18.1158 1.04465 1.33573 4.27289
2864 1 -16.0767 11.3679 16.2394 1.1916 -3.40852 -0.236313
2865 1 4.20543 11.5793 0.513785 3.43953 1.67564 0.172031
2866 1 -17.9543 25.8155 -6.60338 -6.82895 -2.23014 -1.51731
2867 1 -16.8635 17.1322 -15.2075 -0.17115 1.16966 -2.44682
2868 1 2.18797 -22.1853 21.1846 -3.88553 -1.79016 -1.66804
2869 1 -20.0817 -15.1968 18.7287 0.39792 -0.291531 -0.637786
2870 1 -11.8834 16.6837 -10.8776 0.35068 6.10202 0.17662
2871 1 -14.9625 20.4839 23.7849 0.296898 -0.982288 -0.216031
2872 1 8.7813 7.47721 9.40525 -10.9425 -0.190857 -2.31758
2873 1 -10.9429 -2.77298 2.10749 0.876054 -3.70647 2.43628
2874 1 -0.193055 -7.35342 -10.8282 0.253054 -5.03284 -4.64642
2875 1 22.2854 -3.58023 -8.54864 2.29962 -4.94364 0.847027
2876 1 21.0392 -22.4124 -22.6167 -3.41843 0.270922 0.742809
2877 1 10.759 -6.32744 4.34708 3.35058 -2.612 2.24221
2878 1 -18.2438 22.0633 -12.5853 -3.42702 -5.85655 -1.75947
2879 1 0.421327 14.2457 2.40479 1.50002 -5.06659 0.767818
2880 1 -0.483019 -0.410797 14.719 -2.46049 -1.10927 -2.70988
2881 1 -17.0116 15.025 -20.876 4.28854 1.63314 0.765931
2882 1 -21.0195 -17.0156 20.4725 -1.78831 -1.48834 -3.59989
2883 1 12.1354 -16.2526 0.0514579 -2.74318 -1.57303 1.19538
2884 1 10.2565 -3.82344 -22.1426 2.08861 -0.739494 -0.473107
2885 1 -4.58149 2.39849 -4.98142 -1.77322 -2.52214 3.72159
2886 1 11.9049 23.5657 1.63369 2.98875 0.895163 -4.4372
2887 1 23.4998 18.3069 21.6096 2.20676 -1.43323 -0.630334
2888 1 -10.587 6.14495 -22.2972 3.74514 -3.65371 1.24748
2889 1 4.24305 -1.37088 10.1061 3.03298 0.200965 -1.20932
2890 1 0.470459 -6.84065 -24.039 3.04951 6.80109 -1.45664
2891 1 6.20988 -2.29254 15.7231 0.607142 -4.70651 -1.06367
2892 1 -23.9825 16.4101 -9.4624 3.33079 0.170193 -4.63334
2893 1 -10.8954 -17.7181 22.8081 -2.1688 2.46859 3.73844
2894 1 -8.80602 2.73856 14.1484 -3.53956 2.88536 3.44704
2895 1 -18.7944 20.3042 20.2913 -1.87648 5.23166 -2.74245
2896 1 -14.8843 5.21325 16.6525 -1.08932 -3.32553 3.92899
2897 1 -1.13958 17.1032 -3.73525 4.15297 -5.76542 1.37851
2898 1 -6.71473 -9.04044 -19.7351 -1.08578 -2.2956 -2.44872
2899 1 -5.00511 -22.97 18.7464 1.47407 2.39571 3.68534
2900 1 14.9806 3.53868 -23.9567 -1.64451 4.47695 1.83808
2901 1 -14.9839 -19.72 -16.5358 -0.262954 2.12264 -3.64644
2902 1 -21.9955 1.01441 -21.4666 3.04347 -2.13233 -3.90622
2903 1 -14.835 -13.8354 3.33999 -2.00359 -0.584978 0.0547982
2904 1 -5.9762 12.9617 -3.00166 0.894976 -2.27603 0.469951
2905 1 -17.7497 22.691 21.5406 2.21248 -2.16014 3.27214
2906 1 11.8326 1.36123 18.5935 -2.07011 -0.0660429 -2.02862
2907 1 -15.271 25.487 -6.36208 -4.53281 2.93897 3.52543
2908 1 0.966684 9.29041 17.8926 -0.171085 3.3553 -2.12011
2909 1 -9.06143 -4.87146 -22.3689 0.881555 -0.826059 -4.05435
2910 1 -14.9221 8.52055 18.6059 -2.15942 4.7075 0.694842
2911 1 0.531811 4.84631 -19.9324 0.0811086 0.411894 -1.91259
2912 1 10.8839 -15.9322 -8.94499 1.53589 -0.317498 0.056879
2913 1 16.3147 4.08003 -3.62183 -2.82456 -1.15329 3.26885
2914 1 0.753295 -0.0638561 12.2192 -0.908589 3.81862 -4.92156
2915 1 -14.8914 -11.3657 -23.6123 3.02161 -0.845419 1.23435
2916 1 19.4002 23.7655 -10.7582 2.61048 4.12323 1.2813
2917 1 -6.18407 7.90234 6.42952 1.51925 -0.465979 0.190628
2918 1 21.4034 7.19359 -4.65423 1.74746 2.4398 -3.66512
2919 1 -24.33 -16.3585 -5.28905 -2.82082 1.85178 -1.58308
2920 1 23.0224 13.2049 7.16634 0.546188 2.31727 2.53
2921 1 -17.9044 21.3425 10.3684 -0.920975 1.03255 -0.319219
2922 1 -16.0693 -19.9334 -23.1195 3.44392 0.967722 0.390568
2923 1 -14.4359 1.64698 18.1148 -1.83817 1.37396 2.69594
2924 1 -1.80178 -16.3171 23.4357 1.30073 -0.86197 3.26574
2925 1 18.7794 -7.26769 13.0217 -1.74988 4.06892 -1.81945
2926 1 -8.30433 8.29212 -14.4691 4.30909 -1.97361 -0.562643
2927 1 10.7003 6.61673 -0.3221 0.277615 0.263277 -0.501959
2928 1 -21.3034 46.1078 -9.77422 3.4413 -0.448055 -0.535466
2929 1 3.9224 -11.5355 9.26163 -2.5029 -2.83905 1.22764
2930 1 -19.5754 5.02774 -0.418178 -2.61573 4.52059 -0.849004
2931 1 4.83207 -8.92597 23.5756 -1.39323 0.14472 -2.49351
2932 1 9.43593 18.4262 19.4348 1.74759 2.83045 0.410395
2933 1 22.3142 -4.17514 10.8994 1.39295 0.829838 -5.49916
2934 1 7.72104 2.62155 -19.8584 -3.09819 1.92877 1.07808
2935 1 7.62209 23.3538 1.12921 -1.46749 -7.02549 -1.886
2936 1 22.9372 9.14478 -6.01824 -2.38424 -0.852702 0.179471
2937 1 -18.6216 3.73465 -14.7263 1.09339 7.69273 1.18478
2938 1 -8.07652 -7.72426 -5.79415 0.252701 4.51511 0.973638
2939 1 -10.7265 18.2356 4.01942 2.12824 -2.15705 -3.08452
2940 1 17.111 20.0711 -0.564133 0.787156 8.40906 -0.0152276
2941 1 -9.36685 3.07381 -10.2242 -4.73957 -4.73776 1.83967
2942 1 -21.6263 14.2981 23.258 1.44165 3.59148 -0.93434
2943 1 23.5349 8.5708 6.37691 -2.87398 -2.11011 -0.199264
2944 1 8.53561 -23.0786 15.1795 2.41519 4.11889 0.516682
2945 1 -8.65484 10.0655 -10.531 -1.0164 -3.68162 -2.85358
2946 1 11.1135 -0.891646 12.5164 3.84131 1.16035 4.69562
2947 1 16.2386 -14.046 -20.8046 3.19509 0.434257 -2.82802
2948 1 0.180164 -19.524 0.467784 -4.64207 -2.36996 3.08721
2949 1 -9.86267 -20.5939 23.5476 2.07298 0.360068 -1.13535
2950 1 -20.6834 16.1736 4.77048 -2.1947 3.48935 -3.13282
2951 1 8.70228 -16.9165 -10.7667 0.523001 1.85629 -4.21311
2952 1 -12.5412 21.9274 -21.4486 1.17804 0.62923 -0.567434
2953 1 13.6655 5.28349 2.50656 -4.01242 -1.61439 -2.19801
2954 1 -16.4321 -2.18851 9.39154 -3.90366 6.44538 -2.41769
2955 1 8.78061 -11.5035 19.8403 -3.32553 2.11521 -5.09579
2956 1 -15.7784 19.171 -2.73384 -2.79506 -4.06152 3.16837
2957 1 1.4136 -17.6967 14.882 3.82225 4.25271 -2.63831
2958 1 5.74692 -8.23833 -11.2181 3.42299 2.96232 -0.0526761
2959 1 -18.8325 17.2888 -21.6227 1.4408 2.21705 2.08476
2960 1 -11.933 -0.71527 -22.7748 -0.302033 0.424974 -1.90939
2961 1 -11.3241 -10.8339 -20.402 -5.32987 -2.17486 2.99229
2962 1 -8.00042 0.555345 -15.7423 2.05034 2.18926 0.54823
2963 1 -23.7278 10.1355 -3.682 2.41952 -2.55258 1.99999
2964 1 -1.45055 -20.3573 -20.499 2.08981 0.0595201 -6.1896
2965 1 18.8008 -2.89761 -14.5065 3.61229 -0.587155 -2.87901
2966 1 -3.03727 -21.5542 17.3538 2.14645 1.42449 -3.63644
2967 1 1.49116 10.027 9.10133 4.63319 1.14911 0.599745
2968 1 -6.44867 -12.6462 1.52434 2.58651 -0.2225 -3.60479
2969 1 -2.81458 -3.92737 16.4612 5.36321 -2.5474 5.50395
2970 1 21.9033 -14.2604 -15.2431 -0.204256 1.43746 -1.873
2971 1 -5.57513 18.5746 11.5157 0.23975 -1.13509 -1.35221
2972 1 -9.64303 7.7091 -11.8184 -0.0843916 -2.78066 1.50757
2973 1 -12.0127 16.3513 20.449 3.99189 -0.516331 -3.00151
2974 1 22.5222 -1.62122 19.3769 -2.06561 2.33099 0.853601
2975 1 17.4091 10.831 -0.717637 1.51747 -3.41488 5.18358
2976 1 -20.8054 16.7865 -13.6568 2.0115 0.0765287 -0.664682
2977 1 3.55379 -7.70274 -0.935901 2.66009 -1.5757 0.190143
2978 1 11.8625 20.2193 -16.6959 2.02622 -0.730395 1.97507
2979 1 6.58462 6.92351 18.2019 3.1736 0.219308 -0.0276321
2980 1 -2.24164 15.4024 -1.33278 2.99196 -2.93103 -0.792185
2981 1 -13.228 8.84282 16.204 -0.355124 -0.46646 -4.14547
2982 1 -14.6283 -4.48847 6.50117 7.71666 2.57389 -3.56989
2983 1 -8.09667 14.6912 22.9155 -0.607736 2.49679 -2.33169
2984 1 0.267632 -2.83905 23.9093 -0.359925 -3.18942 3.87082
2985 1 -11.4934 -11.4902 11.5625 1.0405 0.860417 -6.71571
2986 1 -7.49278 17.2621 -21.2371 -1.91043 1.15264 2.69462
2987 1 -22.3097 46.9216 -7.15967 -0.852883 -0.910167 1.02884
2988 1 2.07472 -23.3974 -6.35962 0.222534 4.66216 -2.73606
2989 1 21.1979 18.1254 -11.7858 3.09985 0.83734 -1.65125
2990 1 13.5148 -14.7668 17.5622 0.913944 -1.68803 -1.17569
2991 1 0.818342 2.4764 10.7777 1.69744 3.03037 3.81374
2992 1 23.4252 10.9206 -9.73819 -1.40163 -1.57782 -5.22615
2993 1 -24.2426 17.0265 18.935 1.04179 1.78046 1.89152
2994 1 18.3221 2.07174 13.2745 -2.38018 -3.67497 -0.410022
2995 1 -3.08719 11.4114 -7.30394 0.559055 1.89536 2.57565
2996 1 13.8698 7.42363 6.68917 -1.64841 1.165 -4.08365
2997 1 -8.12721 -19.5771 7.03713 5.20253 -1.91216 -1.8507
2998 1 3.90455 -16.1872 14.8134 2.18199 -0.809638 4.36367
2999 1 11.7027 -16.8891 -2.73618 0.138258 -1.34801 0.67571
3000 1 -2.71935 11.7212 17.9037 2.10074 1.14101 -0.0854355
3001 1 8.18625 10.2663 10.5393 6.6772 5.63776 -0.575311
3002 1 -20.324 17.2858 17.278 -8.77952 0.564958 -1.76897
3003 1 16.1356 11.3572 10.2512 -1.11043 2.38458 -0.524897
3004 1 16.4528 16.6442 -17.9716 -1.23904 -5.5916 -2.54991
3005 1 3.77681 5.23775 -5.8078 -2.22174 -1.61182 4.96927
3006 1 17.3868 9.77417 -20.3355 2.52129 -1.43229 3.5082
3007 1 -7.09226 -20.2202 -23.5037 -1.95353 -2.74949 -2.67085
3008 1 -5.09792 -20.0841 22.6514 3.49226 1.71134 -2.23976
3009 1 -11.492 -21.4707 7.38232 5.12331 -5.3516 2.47904
3010 1 -15.7327 -20.7717 -14.17 -0.873766 3.04427 -0.284713
3011 1 -7.30984 -1.23425 -10.9164 -0.584444 3.66992 -1.5981
3012 1 0.197516 -22.5147 -17.9895 -1.47626 1.88613 4.26399
3013 1 12.837 -17.9356 22.4861 -3.66069 -2.94306 3.8076
3014 1 -22.1949 11.546 23.5236 -2.85645 -2.87397 -4.46212
3015 1 -4.76554 10.8371 7.88774 0.963396 1.57441 -1.16288
3016 1 19.2295 -14.5286 -19.4802 -2.99005 -0.691536 -1.05944
3017 1 -12.6843 6.11719 23.9238 2.79683 3.38724 2.65189
3018 1 -21.8066 -2.35625 -13.5653 -1.66364 0.0540904 4.04453
3019 1 -21.5962 -18.1829 10.3635 0.810916 -0.384227 -1.90328
3020 1 -14.135 -9.97873 8.25758 -2.48989 -0.292428 0.675983
3021 1 -16.8972 21.7294 -3.18828 2.56651 2.37085 4.1499
3022 1 15.5635 -11.7218 1.61085 -0.187944 -2.04185 -0.626498
3023 1 4.26708 17.5774 -4.4795 1.91042 3.17245 2.68192
3024 1 -24.5349 5.35936 1.52442 3.31405 1.04815 -1.07869
3025 1 5.13234 -23.8285 9.47219 4.69304 2.69251 4.09928
3026 1 0.796595 -21.508 8.38388 0.34273 -1.52059 -0.576147
3027 1 13.0221 2.39193 10.339 -2.98325 1.66362 1.6149
3028 1 -14.6846 12.6039 19.6224 -2.05583 2.36155 -1.89773
3029 1 6.38592 3.33031 12.9942 -2.33547 -3.94549 1.21962
3030 1 -15.0545 22.0122 -12.9072 -3.31777 2.28541 -0.289995
3031 1 23.6776 -8.58187 -19.304 4.58014 -3.29295 0.679606
3032 1 19.1629 -11.3233 -4.82605 4.06634 -2.08591 3.12926
3033 1 -11.3284 4.24687 5.46201 1.13374 -0.478851 0.410267
3034 1 -10.0526 -8.14144 -17.2001 -2.44868 1.89942 3.1706
3035 1 20.3793 14.6859 6.1064 -1.73874 0.679879 -3.27327
3036 1 13.096 18.1249 21.1938 -2.0075 1.93334 -3.3821
3037 1 -3.29648 -9.62409 7.83686 5.93084 -3.45877 6.82226
3038 1 -18.1672 46.8594 -17.4628 1.50789 2.27943 -2.47914
3039 1 17.6821 -23.4993 17.5131 0.96593 2.11045 5.14216
3040 1 5.2135 -18.9666 14.4171 0.143728 1.79096 1.89527
3041 1 -21.064 20.3813 -1.22341 -1.02391 -0.516723 1.4831
3042 1 -8.16442 19.5153 14.0073 1.40984 1.08758 4.82295
3043 1 5.08039 -9.77144 -17.5254 0.0217854 0.829095 -2.4302
3044 1 -5.60465 16.2174 -6.0542 2.48039 -1.87062 -3.69771
3045 1 -2.859 -3.36387 5.15622 0.973662 -0.287119 -3.82405
3046 1 14.9331 -10.5621 -17.9614 -2.79623 -1.25837 1.37217
3047 1 8.23117 19.6104 6.60022 4.22703 -1.94837 -2.44366
3048 1 6.59954 -13.4799 18.8588 0.600812 -1.71111 1.61083
3049 1 -11.9 -21.9651 -13.8862 -0.789722 4.54466 -2.53847
3050 1 2.59961 -24.0775 17.637 -1.35525 0.0614992 2.86856
3051 1 -17.6886 0.0705455 -11.8692 1.66507 2.85303 3.31963
3052 1 -20.6125 13.7575 -12.5954 -2.64953 8.25346 -2.88386
3053 1 22.4995 -23.1182 0.051494 -1.63206 2.00412 2.13388
3054 1 22.5241 -3.93345 23.4282 -6.32467 -1.62326 -4.01325
3055 1 21.244 4.98209 3.43422 1.64349 8.1345 -1.84924
3056 1 -22.614 13.8135 16.2736 -2.95072 0.639824 2.2884
3057 1 16.8651 5.094 -22.666 -2.19733 -0.413259 -0.023761
3058 1 11.6555 -6.52527 7.0716 -2.11105 -1.0983 1.31965
3059 1 -10.527 -23.3375 -4.91261 -4.95631 1.42489 2.64295
3060 1 -19.8647 24.3089 -5.38122 -4.48879 -3.9998 -0.462121
3061 1 -8.40919 21.0271 -15.9997 2.85769 -1.47795 -3.73166
3062 1 -9.6117 15.7061 -16.6068 1.901 0.0306488 -1.24875
3063 1 9.49937 25.0081 -14.7776 -0.844618 1.4451 4.28671
3064 1 -4.89316 11.2881 -20.8379 -2.97693 -1.63042 8.31628
3065 1 6.04719 -11.1206 -11.857 -3.79591 -2.8592 -3.71218
3066 1 21.2842 -2.25823 0.587476 -0.787224 6.35351 2.91866
3067 1 15.4458 16.7577 -11.4566 2.98647 -5.91724 -5.70871
3068 1 20.0168 17.8286 -1.10279 3.52677 1.05676 -2.1002
3069 1 7.07906 -7.93908 -4.30249 -0.780733 -2.52229 -2.24618
3070 1 22.8731 -8.35291 -0.469609 3.4686 -2.83965 -4.01958
3071 1 -3.97899 -4.60814 -6.14985 -1.45875 0.154764 -3.1131
3072 1 1.53266 9.30594 22.9632 3.52909 -1.97488 -5.30588
3073 1 3.26001 22.4299 -0.896958 3.51152 3.20753 -2.16085
3074 1 -9.41874 -9.39253 5.49843 -9.81214 -0.142365 -5.73688
3075 1 18.0743 5.57557 22.8353 4.48584 0.552195 -1.52808
3076 1 -11.8516 18.8629 11.5515 -4.1312 -1.1261 -1.86527
3077 1 -12.5892 -24.5452 -6.53303 -0.483443 -0.569288 -1.63429
3078 1 -20.8302 6.55247 -15.113 2.74992 1.79475 -0.947586
3079 1 12.2136 -4.30477 -4.67585 -1.36226 2.48976 2.74744
3080 1 -21.4216 11.7156 -6.24635 -2.44664 -2.31938 -3.77896
3081 1 -19.6999 9.58333 7.28566 1.49129 3.08065 2.16592
3082 1 -2.9013 1.44762 -23.3194 -1.04896 5.80167 2.12875
3083 1 8.00682 -12.8005 -5.17325 1.65054 3.78247 0.473088
3084 1 -16.6946 -23.0357 7.26441 1.01482 2.26526 0.557128
3085 1 -16.1629 -2.71222 -5.23338 0.886685 2.45672 -1.80071
3086 1 15.888 20.9222 1.92106 -0.873183 -5.81794 -0.90633
3087 1 -9.07129 -22.5151 10.5478 -2.49615 -0.76948 2.87885
3088 1 10.2837 4.99218 16.2152 -0.0994666 3.34403 2.32885
3089 1 9.25458 -20.633 14.0376 -4.25019 -6.62681 1.05663
3090 1 17.4602 -1.93953 -4.19152 0.951186 3.2194 0.0306326
3091 1 -1.61088 -0.537176 23.3168 -4.56395 3.45895 3.30149
3092 1 -6.8798 -7.3874 19.2101 3.06097 -3.49304 1.19726
3093 1 -14.7391 5.99464 -22.1873 -1.85659 -0.862924 -2.2636
3094 1 14.9535 8.56396 18.4938 -1.32101 2.1811 -0.752923
3095 1 -16.6309 -15.1256 -3.62455 -0.104533 3.14471 3.95181
3096 1 4.36177 8.574 -21.8174 1.05468 4.26727 -1.31031
3097 1 -7.30874 -11.8683 -20.3986 -1.21551 1.16581 -1.16924
3098 1 -9.58699 -18.1093 5.05256 2.04011 0.863374 1.77682
3099 1 -20.6507 7.21156 22.9213 1.841 1.886 -2.83998
3100 1 18.5439 -10.1335 -20.7569 -4.01835 1.22616 1.93045
3101 1 -23.7115 -15.2397 -17.5997 -4.58058 1.83629 2.21306
3102 1 1.56932 4.14072 22.9546 1.71109 1.68198 2.66046
3103 1 -6.13358 -12.8291 23.2448 -2.20895 -2.38809 -1.35113
3104 1 -24.1821 -6.01489 6.6005 -6.2527 5.43637 -0.952535
3105 1 23.3217 -6.10239 20.1675 0.753818 -2.11624 4.5844
3106 1 1.21921 -8.5976 -2.85504 1.80062 -0.219161 5.57755
3107 1 21.7268 -14.4827 22.9587 -2.54723 -0.214203 2.80593
3108 1 8.68006 -15.7774 -5.43534 -0.131128 -4.10496 -3.67168
3109 1 2.60784 0.596776 1.98515 -2.09449 0.367022 1.39724
3110 1 6.30106 7.37345 1.18931 0.47078 -4.52169 1.55146
3111 1 9.26461 -19.0003 -16.3545 4.15793 0.618786 -6.26657
3112 1 0.654745 -12.6693 -22.5661 3.11062 3.05984 1.96275
3113 1 6.58407 -13.8595 -15.8043 -4.40402 -5.13188 3.0947
3114 1 4.9495 5.32328 -14.5033 0.234631 -1.57636 -4.01728
3115 1 -19.6596 16.923 -16.3961 0.193066 -0.775479 3.20561
3116 1 -12.6024 15.2118 -1.18995 -0.92849 0.159617 0.813121
3117 1 15.8017 -11.5802 -3.09525 -2.86771 -1.59932 4.16087
3118 1 3.91957 5.46185 5.21699 3.6971 0.975329 -0.893595
3119 1 -10.5566 -9.93775 2.13574 0.319927 -1.06366 -0.422672
3120 1 -11.2242 -3.0697 -18.5815 -0.949542 3.92585 -4.15403
3121 1 -3.30723 -22.8282 14.9472 -3.31547 5.15918 -6.66028
3122 1 -12.9299 24.5544 22.307 -1.92022 2.40033 2.09609
3123 1 14.7501 16.503 13.8412 1.90203 -2.17326 3.28949
3124 1 -12.9375 12.9177 -8.31989 2.83258 3.03644 0.579791
3125 1 -1.14547 -14.2753 -2.30634 2.30773 -4.86445 -4.6008
3126 1 1.73843 8.98058 -9.49604 1.59797 -1.59587 2.84798
3127 1 16.509 5.57199 4.03881 0.897078 -1.14224 -3.14867
3128 1 0.30016 9.84881 -16.9753 3.95789 -5.66465 3.8026
3129 1 -3.39492 -10.4746 10.4175 -0.204708 -1.8107 -3.98268
3130 1 23.4315 -8.31349 10.2077 -2.92849 -1.12189 4.64358
3131 1 -9.08555 14.7911 0.426473 -4.5669 1.32871 2.55736
3132 1 2.10509 7.77411 4.2076 1.94456 0.210294 4.13622
3133 1 -1.0963 16.8873 -11.6388 -1.35641 -2.17734 1.61055
3134 1 22.2714 7.49377 -0.0787533 -0.961473 -4.55883 5.2197
3135 1 -20.4191 -14.8085 -5.01622 0.846251 -3.02183 1.12349
3136 1 -17.8332 -20.9723 5.69229 -2.15319 -1.20679 -1.56271
3137 1 6.88208 -5.8133 -18.0676 0.489702 1.23479 -0.410887
3138 1 17.6202 -4.8731 23.5998 -0.324349 5.15395 -6.18755
3139 1 6.64388 10.8562 -13.4532 2.09713 -2.85579 -0.721731
3140 1 1.11396 15.7805 -19.1098 1.11463 6.18386 3.9356
3141 1 10.9055 -2.0335 -8.60193 -5.35081 2.55657 1.52616
3142 1 2.71134 22.2237 -21.4442 -0.659792 3.14049 -1.51848
3143 1 22.1149 24.3439 -20.9962 -0.57052 0.026127 -1.52013
3144 1 -1.78865 15.7873 1.59114 3.35313 -0.457502 -2.1193
3145 1 19.6977 -19.9163 7.34154 -1.14145 -4.2794 -2.86809
3146 1 -1.82097 7.49557 -9.65837 -3.1276 -1.33045 -2.19444
3147 1 -2.87992 -18.7265 0.20421 -0.193684 1.10943 2.89864
3148 1 6.98709 -5.4927 4.66707 -1.7729 -1.74259 2.49701
3149 1 10.5177 8.86206 -14.5527 -2.86779 0.325244 -0.816434
3150 1 -22.9651 15.1855 3.32962 0.624427 -5.5817 -1.71431
3151 1 -11.9393 46.7327 -16.5385 -0.998159 2.51645 1.53558
3152 1 -14.2936 15.6577 -20.9384 0.81388 1.81614 5.03007
3153 1 13.3162 6.13264 -20.1232 -0.857993 -1.69785 6.53229
3154 1 5.40625 20.6475 3.5213 -2.23849 0.781222 -1.51386
3155 1 -6.78288 -10.7199 4.96413 -4.74541 -2.3552 5.32864
3156 1 21.4639 -3.30171 8.00583 -1.06441 0.236581 2.30584
3157 1 11.3756 3.75577 5.53018 2.1867 2.22744 1.23079
3158 1 19.6734 -21.8843 -6.82055 -6.54769 0.156012 -3.50667
3159 1 16.8133 5.22077 -6.28224 0.750999 -1.26974 0.481515
3160 1 -12.4247 -23.5638 22.3627 4.64958 -2.66899 -2.24281
3161 1 -9.78333 -19.4148 -3.27332 4.47032 0.214231 5.09829
3162 1 -16.6705 -15.2775 -16.5018 -3.49348 1.50313 -3.89994
3163 1 21.4173 2.57682 13.9265 -4.95418 -0.529143 -2.62716
3164 1 -19.9926 2.82733 21.6406 -1.51104 2.313 -0.365007
3165 1 -5.92194 18.9716 -13.221 -2.45118 -1.14257 -1.48805
3166 1 16.0775 -8.48574 13.6171 2.47101 -0.972742 4.51507
3167 1 21.6462 -15.613 -18.7829 -4.67692 -1.63883 -2.3146
3168 1 -18.7303 -18.463 16.356 -3.70622 2.82311 5.11037
3169 1 10.9174 -20.4856 -19.6705 -6.05583 -2.83382 -5.8012
3170 1 5.37022 21.0189 22.7095 -0.0145607 1.31643 2.68794
3171 1 -6.62412 13.4447 -20.9506 0.618255 1.927 -0.0858433
3172 1 -7.22992 2.3534 3.31572 -2.76111 -1.17062 4.99849
3173 1 14.0374 17.1654 9.62596 -2.08182 -0.524998 6.89744
3174 1 21.4812 12.8794 -11.1557 2.31054 -0.914788 -3.32605
3175 1 19.0872 3.33672 -3.15035 0.514406 -3.70503 0.057077
3176 1 16.8721 2.29419 15.6517 4.36857 -0.529122 1.01788
3177 1 0.232138 -11.1129 23.1461 0.615579 1.44896 5.34918
3178 1 16.0991 19.6114 16.244 1.07504 -1.79985 -2.74994
3179 1 0.529508 0.233163 21.0579 0.646926 1.23666 -0.0994875
3180 1 2.08464 12.5314 4.16686 3.35593 -0.192939 -0.947365
3181 1 -21.0254 -16.709 -22.5359 -2.98494 0.0794245 -2.08515
3182 1 -18.7214 -23.8032 19.0046 -2.01266 -3.02294 -2.65839
3183 1 20.8688 17.6495 -5.88439 0.29238 1.85763 2.8532
3184 1 15.277 -4.65555 3.62435 1.45793 -4.71341 2.48096
3185 1 -16.6286 19.4753 -19.2311 -1.58591 -0.796447 1.15384
3186 1 -3.14353 20.1449 6.75669 1.38798 4.70354 -4.90679
3187 1 -20.4478 -12.9531 3.50598 1.73311 2.05081 1.12305
3188 1 -21.2537 11.3564 -11.114 1.80195 2.62093 8.11073
3189 1 15.1663 9.78593 7.84072 -0.709637 -1.82237 -1.01536
3190 1 -21.3892 20.7051 -16.6553 -5.13735 -3.58777 -2.02352
3191 1 6.28764 -5.98947 -7.76024 -1.34408 -1.43161 -1.52503
3192 1 21.9588 11.4641 1.85109 -1.42938 -6.75133 -1.33043
3193 1 -16.933 22.3558 -0.160154 2.26457 -1.24786 -1.72244
3194 1 -16.8427 -7.00145 2.13117 -5.23763 -5.35149 0.334758
3195 1 -16.9655 -0.36794 3.80768 3.22473 0.0777737 3.4182
3196 1 -1.09681 -2.03255 -0.902064 1.19426 2.44746 -3.77792
3197 1 -2.2792 9.4236 4.02122 -2.49894 3.89187 2.6304
3198 1 11.6711 3.57171 -14.1865 2.17114 2.61549 1.27507
3199 1 13.9978 -22.6475 8.28559 0.376156 1.37593 -6.13888
3200 1 -23.6262 -4.2745 -5.04431 -1.79507 -6.58167 0.856682
3201 1 -15.0613 -2.57753 17.5945 0.271568 1.60564 2.48506
3202 1 -16.5358 -9.91919 -8.5903 0.409303 4.43343 -0.358284
3203 1 15.5935 8.70197 21.3411 0.168229 3.59781 -2.58866
3204 1 -15.3135 -9.22247 10.8456 -0.963001 0.184307 -0.367961
3205 1 -14.5744 5.58893 -5.66221 -4.75081 -4.51964 1.56141
3206 1 13.9168 12.0304 -1.93963 2.65383 2.35818 3.57553
3207 1 -0.423261 -6.05658 -19.4599 -3.32869 3.85187 1.01075
3208 1 4.45212 -7.21038 4.87377 0.367672 -2.15179 1.70022
3209 1 12.1796 -14.4187 22.7577 -1.50682 1.96867 -2.70266
3210 1 -15.2981 12.2455 -1.72863 4.44271 -1.54156 -1.1155
3211 1 -1.54645 17.8467 11.0935 -7.546 1.68739 -0.262567
3212 1 -13.6994 6.00472 -18.1974 0.899806 -0.0203078 -2.97069
3213 1 -0.643198 1.79765 -13.8464 -0.266874 -3.99311 2.0683
3214 1 0.76425 15.701 15.437 0.191822 -2.64072 -0.121651
3215 1 10.2559 1.33867 10.4146 3.60873 -1.64588 0.169942
3216 1 21.8262 -1.66715 12.0942 2.21588 0.773091 1.22496
3217 1 12.5848 1.60578 7.35764 -0.666746 -1.58569 0.895609
3218 1 -5.01125 21.5409 -7.51018 -0.26821 2.92377 -0.446271
3219 1 -7.81655 -19.7136 -14.9052 0.539265 2.95237 -7.25735
3220 1 -4.18495 -10.2264 15.8623 1.71134 1.07358 -5.78424
3221 1 -6.24927 -10.0744 -2.14517 2.75916 1.30485 -2.01748
3222 1 -15.3694 -20.4219 1.42343 -3.34169 2.64177 -1.63809
3223 1 22.1588 7.64788 18.4798 0.137081 -3.24034 5.05201
3224 1 -4.75824 -9.06475 3.581 7.50913 0.528711 0.390775
3225 1 -8.71699 -6.5849 14.9902 -1.28038 -6.57935 -1.1018
3226 1 -20.8573 24.496 -12.4588 -3.02869 -2.0315 1.00321
3227 1 5.33787 21.7624 -6.1197 -1.04927 0.855862 0.496923
3228 1 -12.2178 11.7413 -11.107 0.328233 -2.89552 -1.22338
3229 1 -8.96833 1.07581 -6.09616 1.33502 0.602859 0.234107
3230 1 23.2414 12.5073 -23.602 1.60053 -0.363409 1.8709
3231 1 -17.7054 -17.7297 -0.200921 1.21115 -3.03398 -5.70547
3232 1 23.0628 15.6785 5.35031 1.12294 -3.61678 -3.68205
3233 1 -1.91009 15.6757 7.73691 3.66469 0.579009 1.45793
3234 1 8.80071 -5.37288 -12.0203 -3.42449 1.98862 0.0105139
3235 1 -7.71526 12.2709 -12.5265 1.09031 -2.60227 -1.24962
3236 1 16.9258 19.5359 7.25841 -1.00362 -1.46969 -1.05014
3237 1 -3.32331 -12.7325 20.6226 1.84198 -0.753915 0.494454
3238 1 22.2781 21.3504 -5.84994 -1.47209 4.77052 0.0562545
3239 1 -13.2038 -19.4343 8.66244 1.46486 5.85576 -4.44974
3240 1 -13.3 -23.3918 -18.39 1.06897 3.37552 -1.41242
3241 1 0.731627 -20.1967 15.7812 4.49938 4.86664 -2.66016
3242 1 22.1239 -10.142 -17.3168 3.1062 0.781531 -3.83178
3243 1 9.18688 16.818 22.7598 0.443293 -5.25115 1.03064
3244 1 18.8365 15.3635 -13.1406 0.0101481 -1.01604 -2.34547
3245 1 -7.72657 19.147 8.59839 0.0245574 2.62298 1.67837
3246 1 18.7804 4.14609 5.06912 -1.91395 -2.99131 -2.10601
3247 1 -4.94615 8.05549 -11.6972 -2.28384 -0.886208 -1.23382
3248 1 7.90619 -2.5092 -1.14118 -0.455502 -1.77509 -1.67933
3249 1 9.07694 -2.93085 12.2964 1.43464 0.792153 0.956649
3250 1 11.0289 5.14871 -18.4471 1.35908 -0.791651 -3.06563
3251 1 2.19146 16.3428 10.9493 -1.17031 2.74893 0.926659
3252 1 19.6126 -23.0113 13.1283 -6.8744 0.753477 1.59299
3253 1 10.1625 16.3458 4.01107 0.544515 -5.31283 -0.356896
3254 1 18.8642 3.96525 -8.04639 -3.66302 2.93992 2.42408
3255 1 -18.8938 13.1051 -19.2579 0.9003 -0.632908 -2.03211
3256 1 -7.11311 17.9614 -9.48964 3.17278 2.56316 -2.24212
3257 1 -12.8102 3.64741 19.7855 -1.92366 -1.06792 -2.20861
3258 1 -17.1303 -6.34285 19.8078 -3.23359 0.775127 1.00985
3259 1 18.0664 19.5089 2.95411 1.06917 6.96381 2.08633
3260 1 18.3165 46.6109 -5.40867 1.40134 5.63219 -3.79724
3261 1 -14.455 -2.46872 -16.363 0.258632 -2.62487 0.833863
3262 1 9.82288 5.61319 11.4648 6.72734 0.0239236 -4.13754
3263 1 21.5016 4.58401 20.6228 1.62566 -2.45554 -5.2832
3264 1 11.5818 10.122 -23.2979 2.91168 0.21776 3.42061
3265 1 6.81873 -4.55195 -15.4799 1.60181 -3.18291 -3.09093
3266 1 5.93067 0.731826 21.0659 -1.9737 -2.48771 -0.162579
3267 1 -16.4519 9.70704 0.745908 -5.26118 -2.8375 0.55963
3268 1 6.94259 -22.3228 11.2137 4.93227 3.6507 3.75436
3269 1 8.58056 17.8031 -4.47045 -3.41053 0.0367641 -0.0573033
3270 1 20.2121 -15.8935 15.4542 5.84681 3.89897 -0.694628
3271 1 6.08216 -10.0063 20.2726 -3.91907 -1.81824 -6.01645
3272 1 0.708985 12.1282 -7.87242 -0.726573 -4.88587 -1.69423
3273 1 -17.9341 10.6423 -15.3948 0.00246739 3.0633 0.570764
3274 1 15.0564 -18.3976 4.36022 0.875851 -2.91918 4.50687
3275 1 22.976 8.31959 10.1909 -1.42099 -0.0243329 -2.20299
3276 1 9.13255 2.99515 12.5661 1.61528 -0.57387 1.51689
3277 1 -3.23286 -17.5288 2.8757 -0.825921 7.37712 -1.39261
3278 1 1.22465 -5.03538 -21.5517 0.25188 -3.96967 1.03421
3279 1 5.60342 0.482469 16.4565 0.797486 0.154943 -0.915708
3280 1 11.9464 17.8329 11.7982 -0.0556681 0.843802 3.3088
3281 1 -7.3551 -13.4004 11.2921 -0.334338 -0.40851 0.22274
3282 1 6.47245 1.15346 -15.7117 1.94907 -1.79705 -1.51961
3283 1 -3.42551 -0.0562218 14.0003 -3.23539 -1.76521 -2.31778
3284 1 14.9314 24.4111 -18.3971 3.52626 2.35555 -1.48146
3285 1 0.374603 20.725 -14.5456 -2.14912 -4.85833 -0.385478
3286 1 -16.1307 20.1916 4.91555 0.287454 0.579338 -3.8006
3287 1 -4.31066 -16.7987 15.6819 0.795998 0.416528 -2.90491
3288 1 -0.296545 7.4711 -18.7161 -3.1716 -1.87108 0.553906
3289 1 -16.7847 -21.3261 9.56395 4.77291 -1.96707 2.4824
3290 1 -14.1109 19.9402 18.1955 0.0796185 -0.918637 1.79458
3291 1 22.5692 24.0346 -11.1995 -3.59769 0.978244 -4.8405
3292 1 -20.9017 22.6046 1.12971 -3.0185 -0.886097 2.70885
3293 1 -10.5279 12.1713 22.1742 -0.252848 1.933 -1.95522
3294 1 -20.1081 1.35372 -17.4133 -1.54928 -0.0335643 -0.44366
3295 1 5.91586 -23.9453 -0.579046 -4.77814 0.192578 1.29252
3296 1 -16.2527 -14.0687 15.8438 -1.07417 6.17902 0.490845
3297 1 -17.4888 21.9237 -23.89 0.142882 -1.2107 1.27743
3298 1 7.54511 -8.49403 -17.7408 0.857538 3.53878 -4.56289
3299 1 -15.3645 22.7333 -7.75993 0.681258 4.16783 1.11494
3300 1 -3.9933 4.39467 -8.98538 0.823049 -0.605882 -5.10332
3301 1 -23.5078 6.82218 -8.91625 0.969442 -3.42444 -2.83461
3302 1 -17.9451 -9.17303 20.232 -2.94056 1.05629 5.01254
3303 1 22.1815 46.2786 -12.7884 -2.33401 -1.23586 0.34889
3304 1 3.73202 14.2261 12.5314 2.21877 0.34522 3.32669
3305 1 1.41458 6.98251 -5.931 0.437814 -2.40263 -0.116367
3306 1 -8.59785 11.2964 -24.0528 -5.90577 0.13165 0.832699
3307 1 -17.6974 13.5677 21.378 2.44726 2.92483 3.05482
3308 1 -17.2702 17.8278 -5.54689 -1.77952 -0.197225 -2.72591
3309 1 3.44039 1.45273 10.3475 -5.16088 -0.0506913 -0.96283
3310 1 16.9497 24.2286 5.5019 0.133524 1.20706 -5.57713
3311 1 8.27679 3.8469 -9.49252 -0.0237055 5.61203 -1.29323
3312 1 -22.6182 8.5764 12.9358 1.24656 -1.76167 5.10814
3313 1 14.5145 10.5557 12.4646 2.60661 1.11523 -2.35918
3314 1 -1.48608 -3.30862 10.1782 3.50985 -1.17768 0.965037
3315 1 22.3164 -11.8526 -21.3835 1.55048 4.63129 5.7104
3316 1 3.93682 -4.31352 -8.06428 -1.83528 0.933459 -5.67687
3317 1 5.2901 1.03445 6.26604 -0.406602 3.22126 -4.80338
3318 1 -11.7984 0.670459 17.5393 -4.88256 0.0958379 0.899793
3319 1 1.0107 3.28326 -15.8201 0.52255 -1.33358 0.501266
3320 1 1.16256 5.30735 -11.5051 2.93515 0.877883 1.286
3321 1 -10.0044 -19.8517 15.9077 2.55187 -1.15935 3.76711
3322 1 14.2822 -12.2682 23.6476 1.54762 4.00116 3.45975
3323 1 -0.901556 18.1169 15.3657 -3.75035 0.814388 0.829254
3324 1 12.6895 -17.6045 -10.2632 -5.77215 0.0456621 -0.586079
3325 1 -9.99957 13.41 2.6581 -1.6801 1.86425 2.8093
3326 1 21.8584 5.81039 -21.265 3.49687 -2.75647 0.884166
3327 1 5.39075 -21.1757 -8.61835 1.46314 1.67928 -2.40779
3328 1 2.31596 -17.3911 -7.0081 5.03545 -0.880733 -1.00694
3329 1 11.0228 6.01449 -15.5207 -4.45803 -2.19866 0.75604
3330 1 -8.42133 18.3573 -14.3929 -2.36514 -0.888152 -2.0594
3331 1 -19.6616 -4.34483 -0.846387 0.222828 -1.24812 1.91394
3332 1 -5.71333 7.87179 22.9245 -1.31616 2.22075 -4.88474
3333 1 9.05637 -5.82396 21.3167 -0.252323 0.0684065 3.13698
3334 1 -22.4825 21.158 17.5011 0.697857 1.1893 3.23342
3335 1 22.7722 -0.081367 -4.15376 -3.05511 -1.85838 0.118784
3336 1 14.0397 -15.8128 4.09664 0.417708 2.70216 -3.91479
3337 1 -12.3104 11.592 8.97676 4.58112 -1.59116 0.509588
3338 1 12.1486 21.8532 17.7814 -1.91657 -0.0218212 1.40748
3339 1 11.0713 18.5147 -19.9291 -0.164873 1.26878 2.25901
3340 1 16.822 -0.797655 -21.4414 0.0730374 -3.81189 -1.50223
3341 1 22.2993 21.7914 -12.9436 2.79644 -0.568615 -1.03541
3342 1 -2.2894 1.22788 2.51078 2.40215 1.40432 -2.0977
3343 1 -22.5375 -4.40753 -15.9148 0.744863 1.90756 -1.16984
3344 1 17.8334 -20.5088 16.0182 -2.13554 -4.93739 -3.15422
3345 1 13.5595 22.9643 -22.9634 -1.53612 -1.68631 5.14049
3346 1 11.5999 -23.3314 1.00824 -0.984686 -6.08878 -0.338494
3347 1 -22.8058 12.7375 -14.9342 -0.322972 3.14595 3.12782
3348 1 -11.6682 -19.9333 1.98731 -4.04973 0.155541 2.81461
3349 1 13.3929 20.7318 -14.2325 4.46863 -4.42082 3.01876
3350 1 -5.41123 -7.49157 13.3089 4.42338 1.80144 -1.64992
3351 1 -20.248 -10.2728 17.0524 -0.587794 0.205053 -0.347307
3352 1 4.71353 16.1377 5.61266 3.34452 -1.00549 -0.276765
3353 1 23.5562 4.75745 18.1888 6.83259 0.041598 1.47973
3354 1 -15.2875 8.5631 -1.71498 2.07983 0.31148 -1.01585
3355 1 -15.1968 -21.6091 -4.71878 -5.80321 -3.92162 -1.47848
3356 1 -9.22533 20.9782 4.94127 4.19512 1.102 -1.00213
3357 1 7.15918 -8.1596 22.1434 2.75477 -0.652519 4.40453
3358 1 -1.28112 20.5518 13.9569 -0.101679 -0.915044 4.23483
3359 1 -3.36966 20.6022 10.7165 0.523804 0.262659 1.26711
3360 1 -9.91195 -17.1508 16.2646 -2.73649 -1.35423 -0.672339
3361 1 -4.89701 22.5946 9.33868 -2.8631 2.5292 4.29065
3362 1 -7.24044 5.84961 -11.2659 4.62144 1.82986 -2.63297
3363 1 12.7468 -5.71997 -14.7534 -2.65181 -1.16565 -2.54379
3364 1 -19.7209 -8.46237 -1.70301 1.41371 -1.0843 5.35078
3365 1 1.96034 -9.92737 10.9858 4.09443 2.86291 0.388045
3366 1 -21.4149 -23.7292 -21.3306 0.45448 2.79856 -5.15763
3367 1 0.259127 -19.7282 -18.0712 1.41655 -0.494373 -2.45534
3368 1 22.2926 -19.7499 13.8015 1.12092 -2.91461 1.19488
3369 1 -3.48869 -2.58009 -10.8287 -2.45303 5.09211 0.714433
3370 1 -17.9487 -16.66 -14.333 2.19838 3.10987 -5.41803
3371 1 -7.38205 2.72116 9.96375 5.1869 -3.16641 2.28337
3372 1 6.16628 -2.68026 -9.1339 -2.20971 -0.322316 -1.22396
3373 1 13.0329 -5.55302 19.236 -0.0344259 -2.48912 0.567736
3374 1 23.3286 -14.4518 -22.6148 -7.76562 -2.91567 0.215889
3375 1 19.9531 -12.2522 -0.06126 1.17792 -5.57129 -1.71636
3376 1 -18.1988 9.82012 13.2802 -0.235099 1.2074 0.523451
3377 1 7.15969 -12.4415 12.6209 3.60439 2.63589 -2.08242
3378 1 -5.76698 -19.7976 0.00583554 -3.5774 -2.23124 2.86454
3379 1 8.46778 -4.65509 8.72273 3.26635 0.834476 -4.16176
3380 1 -0.700605 15.2746 22.4467 2.67936 1.69479 4.88317
3381 1 -5.03508 -15.9006 -23.0392 -0.110167 -0.900199 4.77685
3382 1 -18.0569 13.799 16.0061 0.10829 3.82465 2.46141
3383 1 -20.6595 23.7977 -16.9037 0.729617 1.60242 3.28309
3384 1 19.0437 -19.7929 -11.5145 -2.80538 -0.883159 0.789539
3385 1 -3.37656 -19.5632 -6.77537 0.803003 0.386567 -5.56013
3386 1 11.0835 -11.0103 -21.9451 -4.33716 -2.9694 -3.89356
3387 1 -20.6677 -3.06158 3.08076 -5.32056 -2.8316 2.39969
3388 1 -19.3491 -2.56187 16.8789 -3.59029 -1.25616 0.246929
3389 1 -10.8439 -11.3383 -14.4087 4.54554 -1.04636 0.374291
3390 1 -24.4288 -17.5654 15.0617 -0.974914 0.0983052 -0.382076
3391 1 -9.60366 -14.4663 2.67978 -2.78039 2.82027 -3.98673
3392 1 -7.52013 2.58973 -17.3379 3.31555 -1.37997 2.6386
3393 1 -12.3551 15.1263 -19.1013 1.23029 3.06474 0.413682
3394 1 -12.6073 -1.4802 12.7599 4.2848 1.209 1.55083
3395 1 13.3484 -14.0977 11.0466 -5.23455 1.39163 0.976326
3396 1 -21.0185 5.23704 -4.45607 -5.11046 4.20196 -3.00442
3397 1 -3.95163 -1.391 18.4498 0.634541 -2.08482 4.36857
3398 1 -8.59803 -17.4111 -5.21159 1.82523 -2.99226 -0.15416
3399 1 -0.74858 -4.42489 6.96028 0.107802 1.06388 -0.363597
3400 1 15.9144 -22.5049 -21.8931 -3.18581 -1.24946 -1.5485
3401 1 -20.231 -24.1034 -11.9035 -2.08628 3.02017 -2.99158
3402 1 14.8935 -16.9813 -17.7539 2.06971 1.84736 0.223091
3403 1 -14.2224 -24.1824 1.40932 2.98151 3.70957 0.923033
3404 1 -16.9649 -9.55871 0.833509 1.04755 -1.16679 1.91494
3405 1 15.6574 5.26233 12.2857 2.75726 -1.42618 1.48934
3406 1 2.96672 -3.77617 5.4835 -2.10121 0.645319 1.28222
3407 1 10.7432 1.06219 -11.7555 -3.80855 0.0846466 0.554606
3408 1 -18.9499 14.5039 23.9057 -2.59514 0.906591 0.64816
3409 1 -2.01336 -18.874 16.3702 -2.81544 0.943489 2.44611
3410 1 -19.6955 -10.8324 14.1853 2.07046 -4.05886 -7.15715
3411 1 -5.34261 -5.23535 19.9749 0.598291 6.70112 -2.76322
3412 1 6.96153 -0.652664 -11.2118 0.0270813 1.44491 1.0765
3413 1 -4.8361 -16.5409 -16.8096 1.62752 -0.817201 -1.31277
3414 1 -18.0928 3.71639 -7.13883 3.44145 -3.66396 -2.26649
3415 1 -17.5531 1.05721 -15.7859 1.40971 0.243872 -1.95533
3416 1 20.6954 -21.8658 -4.4545 -0.738306 1.43294 3.61999
3417 1 -21.3089 -11.0393 8.68399 -4.03382 0.321104 -6.3648
3418 1 21.0122 19.3424 15.5874 0.879027 1.52135 -1.76904
3419 1 -12.9983 -13.2678 -0.233369 1.87548 -0.896952 -1.05949
3420 1 -19.0389 11.3991 9.5735 3.71343 -3.35944 -6.16253
3421 1 11.6851 17.9941 -14.545 -1.89661 -2.99718 -3.14663
3422 1 5.01077 -13.4105 -1.29958 -2.39963 2.52851 -0.896524
3423 1 -13.2009 2.91594 1.9184 1.66313 5.90633 -7.39671
3424 1 -0.0172527 -12.0182 1.72893 3.54962 2.98122 -0.136538
3425 1 23.5583 -8.94747 16.863 0.625671 4.17843 -3.09267
3426 1 -20.7641 -7.16116 4.14746 1.02713 0.401008 0.782633
3427 1 21.3754 11.9684 -15.3554 0.0116223 1.57195 -1.02977
3428 1 -4.55587 12.2505 14.3432 0.0128176 -2.86884 -1.09022
3429 1 1.57012 -16.5742 17.4795 1.59674 4.59279 2.45385
3430 1 -10.6638 -14.7071 22.9241 -0.33026 2.0232 -1.82019
3431 1 -10.1705 -6.43125 -2.13219 1.04244 0.753166 -0.69524
3432 1 -2.26391 9.94269 8.34606 1.77434 6.27398 -6.65132
3433 1 -7.42174 -3.11109 -20.7738 2.96128 3.33922 0.446267
3434 1 12.7414 15.8575 -11.2011 -2.22774 1.35624 -2.04918
3435 1 -4.48057 24.6045 -13.6674 4.22628 -3.31396 3.03372
3436 1 -6.79658 8.44606 16.0288 1.36017 -6.00956 1.30872
3437 1 13.0094 17.4761 -5.70362 1.15038 -2.47409 1.39191
3438 1 -18.8792 9.17142 2.07879 -3.54229 4.35752 1.51419
3439 1 0.734588 -14.6203 12.4972 3.0749 -0.615099 -0.286793
3440 1 2.7227 20.9677 -10.4468 0.0805432 -1.3851 -2.7658
3441 1 5.3493 -13.3903 -4.44689 -1.71927 6.77512 1.15223
3442 1 -8.48842 0.0893437 4.22529 0.536182 6.20544 2.19624
3443 1 22.2833 2.38498 -0.36716 2.37098 0.208041 -5.64318
3444 1 -19.424 11.5741 3.32582 2.81738 1.36841 1.52706
3445 1 -12.8452 1.66522 -11.6755 -1.41627 -3.09222 -1.45508
3446 1 -4.05912 -20.2196 -15.9009 -0.779278 2.70825 3.93285
3447 1 -6.23232 2.78633 -9.90626 -2.77862 -0.118739 1.19779
3448 1 -21.1963 4.30047 14.4794 -2.48801 1.63324 1.29376
3449 1 6.53153 26.2821 -17.716 -3.79473 -0.0390563 2.31064
3450 1 -1.17357 -14.3701 -11.28 -1.69048 2.84609 -4.38178
3451 1 3.36784 -12.9691 -18.5281 3.59082 -1.50264 0.577727
3452 1 -10.9171 1.74726 -13.5279 1.10222 0.379833 -0.334277
3453 1 13.4375 11.3423 -21.0954 3.48899 -6.84574 -3.2777
3454 1 -21.7382 18.6928 8.88251 0.956693 -7.73845 1.32186
3455 1 -18.1972 15.6748 19.686 3.71562 -1.18331 -1.55882
3456 1 9.26665 26.4652 -17.3338 -1.31109 3.38066 -4.65201
3457 1 21.757 16.0308 22.4104 -3.1751 -1.33921 0.414921
3458 1 11.8212 6.84161 -22.8595 0.955024 0.237717 -0.00670392
3459 1 -1.08425 19.8421 17.8431 -6.40568 -0.547332 -3.33998
3460 1 1.75063 20.584 16.8052 4.38201 4.89059 -1.6585
3461 1 -13.0727 -23.9767 18.4556 -4.56024 -0.85371 3.59568
3462 1 -12.6036 23.0454 -7.78988 -2.11642 3.15597 -2.02675
3463 1 20.1586 6.32924 -19.0862 -2.17778 -0.0764224 -0.940494
3464 1 -18.2825 -20.6353 12.8811 -6.12015 -0.936462 -5.00085
3465 1 -0.226492 -4.98715 11.9808 -1.26921 2.6999 -1.4088
3466 1 -7.05385 3.17189 -6.55339 0.713016 -2.39017 2.65608
3467 1 14.6988 11.9899 14.9169 2.24017 -3.28409 -5.25696
3468 1 -7.71995 -9.0074 21.4549 5.02101 -0.0147925 -1.87393
3469 1 -2.33019 -9.92985 2.41757 -3.60987 2.6203 -1.68511
3470 1 -16.1178 -21.6047 -7.59299 1.74037 1.28036 -1.88331
3471 1 -16.5204 -21.3088 -18.2697 0.0691725 2.29935 6.19853
3472 1 -15.2866 10.3184 -14.3645 -2.45809 1.74592 1.93237
3473 1 -24.3808 24.3502 -18.82 0.533317 -2.75371 5.65999
3474 1 14.3327 -2.5263 15.8327 4.21467 -2.71848 -5.02507
3475 1 21.8894 -9.9488 19.2853 2.07775 -3.39997 -6.2941
3476 1 2.99834 13.8985 16.4826 1.80263 -0.562193 -1.48328
3477 1 -19.1555 -1.2869 -14.7794 2.0411 -0.388888 5.63379
3478 1 9.66578 -13.9065 2.73275 1.94739 2.68409 -3.66234
3479 1 18.0696 -6.65872 9.48991 -1.37545 0.407959 1.58708
3480 1 -22.5293 24.8835 -5.99817 -0.553269 3.33345 -0.975732
3481 1 0.731208 -20.3424 -22.4186 -3.80811 -2.3749 -4.44478
3482 1 19.7702 20.183 0.656629 -0.837706 1.06949 -0.377453
3483 1 11.1583 22.0843 -0.757145 3.39496 -0.602519 6.77948
3484 1 3.37704 9.74593 6.87445 -2.01383 -2.057 -0.991185
3485 1 2.46885 7.84466 -3.29703 1.04228 2.10316 1.89434
3486 1 16.0365 25.1051 16.7437 1.32612 1.86566 -1.80974
3487 1 10.974 -10.2764 -13.6005 2.40392 3.11606 -1.23458
3488 1 15.8499 15.0092 -13.4074 0.483785 -0.19796 -3.41323
3489 1 18.3258 1.13839 -7.62209 1.62316 -1.49496 -1.74105
3490 1 -18.3181 4.09343 5.98636 1.58842 2.36947 6.58566
3491 1 -11.1027 8.76575 -21.264 -5.43754 -4.56511 2.31991
3492 1 18.4448 -1.31558 4.17713 6.7797 -3.48767 5.72561
3493 1 4.11427 10.7631 18.1349 2.98224 -3.48232 -2.14068
3494 1 -15.6257 3.8186 22.1651 0.960877 -0.675784 0.459791
3495 1 20.5527 -5.26596 16.2927 0.0806052 2.70689 -1.18785
3496 1 -10.4945 8.93589 -16.183 0.482831 3.5835 -2.99104
3497 1 -17.2272 12.5731 18.5958 -2.92109 -3.81601 -3.20586
3498 1 -18.9372 12.4148 6.26504 1.29211 -6.35844 -0.251595
3499 1 -21.1466 21.5276 -21.4917 0.847316 -1.49429 -2.45659
3500 1 18.0077 17.0738 -4.95095 1.3328 1.51259 -2.41814
3501 1 -15.4571 15.8686 -8.03182 0.76268 -1.83546 -2.66812
3502 1 -6.121 23.5318 -3.70821 4.95666 -3.04135 -3.35032
3503 1 17.8186 -21.2054 5.37903 2.8621 -3.68827 2.98484
3504 1 17.3008 -1.44546 -0.371053 -0.756059 -1.44401 0.875837
3505 1 -2.70492 -12.9894 2.17596 2.84191 0.810685 1.27366
3506 1 -23.2595 17.3442 -5.62141 -0.511236 0.505624 -1.08488
3507 1 8.47179 9.43385 -10.1866 2.17376 0.441801 2.44919
3508 1 -2.35131 -12.673 -22.6253 -2.13341 1.56478 -0.387194
3509 1 -22.2442 -18.8749 -21.2899 1.39472 2.74793 0.258613
3510 1 -12.5646 4.86723 15.1821 2.94506 -0.4671 6.39232
3511 1 15.1487 9.37885 -0.815951 0.519184 -4.03759 -0.270621
3512 1 -17.4739 3.34405 3.31387 -0.248227 -2.65042 0.976778
3513 1 -20.7869 -23.4692 -17.0583 -3.72281 1.28982 -0.0362512
3514 1 -4.52258 19.0672 -9.0363 -1.06148 2.56971 3.28566
3515 1 13.4728 -16.9389 11.2718 -2.11201 -3.30671 0.303588
3516 1 -21.1273 3.74045 -16.3298 2.42088 1.47863 1.93558
3517 1 -5.37491 18.9384 17.1454 1.50786 -4.01272 4.79613
3518 1 -1.4742 0.652908 -0.199758 -6.24212 -0.528069 -2.7728
3519 1 -4.41001 5.17149 15.4868 4.84409 -3.70436 3.05082
3520 1 -3.95092 -14.9392 19.1439 0.0844988 -4.13412 -0.123787
3521 1 2.25077 15.0171 -13.0149 -0.0598612 1.4973 -4.59576
3522 1 21.4816 14.8738 -23.0342 4.77326 4.36567 -0.77325
3523 1 -10.0347 -19.9487 9.56548 2.27522 -2.34 -0.531239
3524 1 1.07 23.4145 3.04885 -3.13886 -2.42255 -5.97692
3525 1 -18.1012 12.5433 -22.187 -0.694627 0.297548 4.87654
3526 1 11.6258 18.5218 -8.00305 0.854028 1.20813 -0.262284
3527 1 -1.21833 8.15842 6.20713 -4.63609 -1.03751 -3.17433
3528 1 -23.4867 46.312 0.248134 1.66965 -1.01931 -0.565089
3529 1 -22.6414 8.7236 21.3784 -3.18362 2.33249 0.201018
3530 1 -11.2142 8.09045 6.32391 0.172423 -2.50284 -3.59957
3531 1 2.9604 6.76259 22.2706 -1.22067 3.04585 7.43152
3532 1 -8.78734 13.5837 -8.40387 -1.83615 4.0413 -0.812508
3533 1 15.6871 11.1886 5.41027 -0.0918112 -1.21756 1.26887
3534 1 6.13752 -2.42891 18.6268 4.17723 3.1866 0.843636
3535 1 11.9972 -18.8044 -17.7631 -1.04438 -2.7923 -1.16108
3536 1 20.6619 -17.0846 9.33882 -0.833627 0.636755 1.45301
3537 1 22.4208 23.221 17.0693 -0.887642 -1.98804 -1.30668
3538 1 3.34284 -8.857 16.2349 2.91917 -3.76034 -2.50796
3539 1 11.9661 23.3553 -11.5654 4.02227 -4.92179 0.632461
3540 1 -1.94855 13.9791 -6.44337 6.65747 2.96379 2.39537
3541 1 12.4728 0.616479 -23.1001 -1.09621 3.57439 0.776337
3542 1 21.0495 1.13274 3.38789 2.48463 -0.720082 -4.18848
3543 1 -16.2598 11.2591 -7.2243 -2.43891 -0.708551 4.65654
3544 1 -8.51204 20.2284 -1.7746 -2.29778 5.53939 0.469835
3545 1 3.40865 21.1093 11.5268 -2.21361 1.16317 0.716417
3546 1 19.3483 13.244 -7.53791 2.95017 -2.85267 2.9817
3547 1 9.07236 -17.7918 -7.7278 0.923878 0.979752 1.99598
3548 1 8.01626 -12.5093 -19.9786 -1.05512 -0.574472 2.53373
3549 1 -9.85285 7.19315 3.77597 3.26377 -1.72785 0.0116999
3550 1 -15.7992 17.7121 8.42173 3.11555 -1.05141 -6.39204
3551 1 13.7039 2.35279 -20.1835 0.971836 0.262742 2.85349
3552 1 15.0458 17.566 6.78064 0.093418 4.08374 3.97879
3553 1 -10.0165 14.8885 -4.14982 -0.0450317 -2.10793 -3.06316
3554 1 12.5199 13.7175 -12.9381 0.73833 -0.0728464 0.779958
3555 1 -24.2525 -21.0096 -1.72119 -4.03588 0.96563 -0.546012
3556 1 -6.89275 -14.3033 18.4731 -1.96906 2.90709 -1.67455
3557 1 7.51432 12.2745 -18.729 -3.41489 0.378297 -2.18788
3558 1 -21.1331 -15.3335 -1.5678 0.990032 1.02141 -0.196832
3559 1 10.4275 -4.69079 10.6838 -5.07731 0.421034 1.97847
3560 1 -20.8263 14.0574 -16.9741 5.10533 -5.01367 0.518715
3561 1 -19.531 21.7226 3.51196 2.14185 0.771451 -0.807152
3562 1 19.158 11.6843 1.76337 -0.0405986 -2.69835 2.46464
3563 1 4.31629 -22.001 -6.05245 -2.39148 1.40278 0.908791
3564 1 19.9554 10.9284 -12.9413 -0.680041 -3.13654 2.74663
3565 1 16.6592 -18.488 -5.66949 -1.58302 4.77069 -3.03189
3566 1 -11.1359 -15.5462 4.93805 0.0206827 -0.371418 -0.0722494
3567 1 1.83213 -6.53967 5.67882 -1.27842 0.0668849 -4.60275
3568 1 15.8866 -0.212161 16.8012 -3.83857 2.17024 2.74572
3569 1 -5.12957 2.26802 -12.608 4.5923 3.08904 3.0305
3570 1 13.6384 24.7812 23.12 0.725565 -2.06961 -0.748239
3571 1 2.7328 22.3567 8.89975 -5.00763 0.98564 -0.67156
3572 1 -14.2505 -17.233 -20.6622 0.437004 -2.77319 0.696316
3573 1 16.65 -4.29888 -1.14076 -1.85761 6.07337 0.982683
3574 1 -15.3525 -3.32862 -11.4657 -0.328486 -1.88774 1.10986
3575 1 -12.0882 -11.3229 -10.1327 -0.816027 -2.64931 0.971015
3576 1 14.1647 3.20029 17.9817 1.45332 -1.73782 1.05113
3577 1 -7.36109 9.45397 -5.93368 -5.70786 1.63316 -1.88568
3578 1 20.7673 7.35473 21.1072 -0.136683 -1.83699 -1.28974
3579 1 -16.4184 -11.6566 -6.11294 -6.68432 -6.40631 1.57285
3580 1 0.0929173 -11.9785 4.50478 -2.94495 -3.80882 -1.88086
3581 1 -14.7218 10.0631 2.8967 2.64354 1.51188 -1.77556
3582 1 -15.1039 -23.3501 12.8328 -1.43269 -3.00342 -0.50279
3583 1 -18.4915 16.7727 7.72809 3.51091 1.81546 -1.39185
3584 1 7.42121 7.72181 22.346 0.727995 -1.17625 1.0739
3585 1 12.0251 -2.30461 10.0427 1.58187 -4.14111 4.66825
3586 1 15.44 -0.835853 -8.06934 0.78162 2.18674 -4.65242
3587 1 -24.1703 -12.5636 -16.9527 -0.442725 -2.48525 3.56241
3588 1 -20.9385 -9.93482 -10.3785 -0.676459 -1.16818 0.850889
3589 1 -11.5878 2.30286 -6.40031 1.14178 -2.13889 2.01063
3590 1 10.8282 1.20394 -4.97223 -2.81521 4.60227 2.83792
3591 1 -6.27821 -10.6018 -22.8482 -2.85842 1.98424 0.80697
3592 1 -5.24068 -15.5997 -5.4888 -1.36363 1.22509 -0.514142
3593 1 15.6375 -11.2391 -13.7698 -2.88798 -2.38476 -1.90873
3594 1 14.7207 -0.390007 5.35888 -2.41109 7.21559 -4.44309
3595 1 -1.86999 -14.9773 6.728 5.38173 1.45317 0.377078
3596 1 -8.17112 -10.0836 -9.25937 -0.698254 -0.626405 7.07389
3597 1 -3.31593 13.4453 2.82181 -2.48851 1.2629 -6.20004
3598 1 -13.5107 -10.781 -5.96893 -0.445786 1.90365 2.97716
3599 1 13.2108 14.7356 -4.67643 -0.0372166 -1.53354 2.24877
3600 1 -18.21 23.9762 -8.7502 2.63415 2.53002 2.37301
3601 1 -23.0202 -13.9184 -5.63061 -3.94088 -2.45917 -1.75814
3602 1 1.00932 22.2283 21.2422 0.73024 -2.70813 3.00332
3603 1 -5.63326 -1.33383 9.50678 -2.08677 -1.03671 -0.871292
3604 1 9.59313 12.2308 -22.4709 -1.39827 0.682849 -5.62394
3605 1 18.605 21.007 16.1631 5.23523 -2.67369 -0.462289
3606 1 3.9692 9.63502 -13.2225 -2.65147 -0.769758 -0.979612
3607 1 -18.8634 7.52158 16.9649 -0.625038 -2.55074 -3.40392
3608 1 19.9137 22.3359 -15.0838 -1.35299 -1.58691 -2.37046
3609 1 9.923 -13.5498 9.19114 0.591507 0.712097 -2.72577
3610 1 13.6955 10.7557 21.044 -2.2658 3.28939 -3.72474
3611 1 -17.1163 21.2404 -15.1624 -2.28362 0.409791 0.0364706
3612 1 -2.87165 16.8655 -6.13888 -0.202069 1.15054 -4.95744
3613 1 1.66306 23.3566 12.9594 -2.35144 1.39426 2.15189
3614 1 -0.648821 -5.86884 -4.19391 3.69013 -0.955298 -1.38801
3615 1 2.8188 19.2483 2.57006 -5.36732 -3.273 3.96747
3616 1 -9.78236 -12.2242 23.9627 4.15991 -4.71797 1.29809
3617 1 13.8584 -0.596695 -20.9642 1.04785 -1.22428 2.66193
3618 1 0.0361894 -7.32738 -6.90211 0.761402 -3.92152 -0.529099
3619 1 2.43897 18.2033 8.63541 4.60495 6.37696 -3.67193
3620 1 -5.07071 12.625 -11.2825 1.70199 -2.38262 -0.48556
3621 1 -9.51038 13.2022 11.9305 -2.4839 -0.145321 1.44088
3622 1 7.7414 -11.9583 9.91471 0.216269 0.730569 -1.74613
3623 1 7.50144 0.265426 18.6382 -0.952503 2.56589 -0.311406
3624 1 22.1727 -7.3849 4.50154 -0.351774 -2.31412 0.233785
3625 1 7.60299 -16.5171 22.0366 -2.13165 -1.75925 1.1965
3626 1 -15.5329 4.3656 -8.2219 -2.18384 2.06657 -1.89567
3627 1 -3.83886 17.2709 9.28598 -5.42116 -2.13179 3.71697
3628 1 10.4431 -0.912621 8.23356 -4.97955 -3.94662 0.70418
3629 1 -5.78484 -0.461652 0.964649 -1.13832 1.01821 -0.379708
3630 1 5.86529 -9.42548 0.106702 -1.90249 -1.12322 -0.400366
3631 1 8.88754 10.1265 19.9776 2.69946 -3.01785 -3.38925
3632 1 -14.7319 -15.1956 13.5269 1.59044 -2.18172 2.03575
3633 1 9.96129 8.45524 -3.80212 3.43838 -5.55239 2.339
3634 1 -2.08663 3.87869 7.84799 -1.38944 0.274799 0.678627
3635 1 -0.604277 -15.5357 -22.1991 -3.95948 0.0591809 1.61852
3636 1 2.92656 -16.4491 -9.91298 -0.865711 2.20775 0.664046
3637 1 -6.20932 11.0907 20.464 -0.923963 2.61519 3.4553
3638 1 20.9515 -6.18291 22.1205 -0.0376602 0.448511 -2.47988
3639 1 6.53396 -17.3948 6.07611 -0.515477 -2.38485 1.52859
3640 1 18.6582 -22.7972 -14.7317 -0.434732 -1.25092 -2.66196
3641 1 5.85165 13.7674 20.2007 -3.41656 -3.51878 1.95226
3642 1 -4.5185 -15.3884 4.70088 -4.85707 -2.09891 -8.41092
3643 1 0.565842 2.84225 7.74129 -1.15461 5.20457 0.353765
3644 1 19.6394 22.5094 -2.77811 -2.97101 0.747408 1.24455
3645 1 -18.9666 -13.2462 -6.71066 -6.97883 -0.0709522 -3.10028
3646 1 15.8846 2.61602 -16.7151 0.00479523 -0.36794 4.3898
3647 1 20.3976 -20.0007 4.54004 0.421369 -0.421999 -0.00450778
3648 1 -23.3114 -19.8465 -4.46793 1.68837 0.123888 2.00621
3649 1 -16.2136 -0.562465 -17.879 -4.03961 -3.78664 0.295028
3650 1 9.90716 -8.30675 -15.9709 4.13335 1.91233 0.924684
3651 1 -10.1511 6.59696 10.7837 0.613135 1.23029 0.218918
3652 1 21.5771 -9.3579 14.5567 -4.03205 -3.38814 -3.31694
3653 1 0.429907 16.9339 -1.30459 1.82458 4.68637 -3.77064
3654 1 -18.3969 23.5683 12.1357 2.90636 0.985513 -0.378536
3655 1 -7.45081 20.4908 -11.0253 -6.03245 1.49785 0.714374
3656 1 -12.383 -21.1609 18.382 -0.188623 -3.28676 -0.444021
3657 1 -23.0005 25.474 -10.9146 1.2438 5.83744 -5.71225
3658 1 22.9216 12.3293 16.5377 2.01248 -1.39037 0.287981
3659 1 17.3381 5.72336 -19.087 1.21352 4.42477 -1.12524
3660 1 14.3767 7.24108 10.5343 0.513563 1.78202 0.145112
3661 1 19.9117 10.4388 -17.5847 0.518247 -1.78298 -0.746079
3662 1 -0.0203664 0.96 -22.4855 2.01893 2.36593 -1.6037
3663 1 -19.1237 -14.7365 -12.2802 0.0557035 1.12027 -0.214527
3664 1 9.0551 16.8978 12.7544 4.20201 1.20605 1.76888
3665 1 10.2153 -11.073 -16.8047 2.99563 -3.68451 -2.26902
3666 1 0.844077 -17.0309 22.6002 -1.99621 -1.84313 1.02363
3667 1 13.5235 16.0819 -17.4503 -3.44994 4.87338 -1.6759
3668 1 -16.0293 0.223627 20.0323 -5.71845 -2.3861 -1.29066
3669 1 1.44345 21.0473 4.73528 0.497794 6.03321 -1.55151
3670 1 13.114 6.94934 -9.31046 -2.31852 0.38477 0.77545
3671 1 -3.32208 10.6241 -12.8369 -0.814191 -0.976204 -5.52527
3672 1 -14.7019 11.2076 12.3188 -4.73934 0.609814 -1.34891
3673 1 -5.27254 -22.7587 21.5682 -1.3469 4.19089 0.0899816
3674 1 -0.725333 0.617537 -6.95757 -0.820095 -3.21973 -1.73269
3675 1 -13.8456 18.7333 -10.1476 -5.90569 -1.88957 -0.070609
3676 1 17.0714 13.4437 -9.02953 -1.45333 -1.98991 0.770405
3677 1 -5.15464 15.2503 14.7847 -3.81949 -4.00961 1.87464
3678 1 -19.3697 6.25741 13.9638 -0.193445 0.306374 -0.145519
3679 1 9.11606 -18.2594 -3.99584 1.23311 -2.96879 -4.40847
3680 1 9.64368 6.09095 23.7203 0.108958 0.451906 -0.613647
3681 1 -7.99433 -0.0778263 13.1595 3.96458 -0.239583 4.2554
3682 1 22.7031 -21.5188 16.0944 1.28647 -0.0981856 -3.81149
3683 1 4.96588 8.13638 5.33291 -6.021 -4.74652 -1.95813
3684 1 15.3046 17.0247 -22.0019 2.22946 1.0195 0.0343676
3685 1 4.99673 -1.77107 -0.862699 -3.12495 4.30139 0.0441002
3686 1 -21.4598 9.79113 0.660409 3.03679 3.10891 0.411606
3687 1 8.56218 -15.7914 7.56617 -1.7309 -0.933098 -1.23829
3688 1 -10.1853 -23.1811 -0.433522 -2.28518 4.20888 -0.831506
3689 1 22.2308 16.4681 -13.7288 -0.977826 -4.58234 1.8311
3690 1 -9.3758 7.17092 -6.715 2.14701 -0.638538 -2.17814
3691 1 19.9732 -24.4987 -8.03086 4.74197 -0.191689 -0.751098
3692 1 5.16903 1.68016 -20.1705 -3.046 -1.17379 -8.41499
3693 1 5.39439 22.9105 -2.58505 -5.69006 -1.97921 0.0550745
3694 1 -21.7378 2.49661 -5.8449 -2.35996 5.58844 1.72672
3695 1 -6.94688 -7.45528 1.67562 3.66303 -0.990206 -4.55396
3696 1 9.387 2.33561 -15.2502 -1.48982 1.51308 1.204
3697 1 9.40359 6.22131 5.72024 2.95042 -1.02853 2.94245
3698 1 -23.1318 1.68704 16.5999 1.35808 2.90775 -1.80927
3699 1 -9.51082 -4.09441 13.5118 0.721818 -3.74863 0.570093
3700 1 -6.41482 -18.8783 -17.1991 0.425527 -6.2134 1.76145
3701 1 14.2603 -2.99885 11.6471 0.0658226 0.144953 -3.13326
3702 1 -7.86849 0.976249 -12.9421 -5.9379 -0.785235 -1.98705
3703 1 20.0765 13.0022 -21.4088 1.97584 2.12204 0.874092
3704 1 17.1164 -1.77899 12.1094 -2.58053 -0.956055 -6.1818
3705 1 4.97937 -0.825566 1.86285 0.511096 1.15377 -1.34613
3706 1 -16.2261 6.41936 -17.1634 -1.42036 0.363702 1.59658
3707 1 19.0529 6.9912 -14.0152 2.81994 0.12795 -0.530958
3708 1 7.02249 2.44938 8.09773 4.27315 -0.248427 -7.1793
3709 1 -21.3992 15.8956 7.66229 -0.128626 2.69796 2.16817
3710 1 -5.1565 -7.88418 17.1198 -0.0110621 -4.49314 4.32709
3711 1 -13.3263 11.7513 14.9283 -4.0799 4.62239 -1.62838
3712 1 17.2498 23.1055 -6.23514 1.4736 1.5806 1.77816
3713 1 3.39722 20.3603 6.85042 -0.84141 0.128479 -1.14123
3714 1 -10.2886 -0.446087 21.0786 -1.36999 -2.4979 -4.9751
3715 1 19.9727 19.4074 19.8076 0.323073 0.441217 -2.06071
3716 1 6.5232 3.64095 0.168438 0.717425 -4.33764 4.4302
3717 1 -3.00704 15.6197 -17.9983 4.77153 -2.23722 -1.03888
3718 1 -19.2041 6.24883 2.38968 1.57951 0.0443181 0.702568
3719 1 -0.117872 15.7427 -8.21067 1.69659 -0.272957 -4.31588
3720 1 17.2528 17.0402 17.0635 -1.29129 3.9009 -3.39549
3721 1 -1.15312 19.7319 -10.8861 -1.9691 1.29296 0.651442
3722 1 19.1291 -8.24615 6.29287 3.31593 -1.2361 0.608038
3723 1 8.05427 5.75629 -16.2493 -6.42443 -1.21531 -0.445258
3724 1 -5.45972 -0.143877 -3.63687 2.01104 -3.0398 1.40004
3725 1 -12.2752 21.8272 -3.76954 -3.03298 2.96455 -1.40903
3726 1 -8.24195 -13.7112 -13.1897 2.40557 9.41751 4.80851
3727 1 5.85185 -12.3215 -21.7037 -4.85151 6.30434 -5.50577
3728 1 16.9058 -11.1101 -23.261 2.46563 0.653446 6.43388
3729 1 -19.4655 -11.8847 -11.905 -4.63819 2.69788 -6.22084
3730 1 10.757 -5.11184 13.6284 -0.277013 3.07826 -1.54061
3731 1 2.12955 -17.6375 -19.3505 -2.38737 -1.71914 4.35564
3732 1 19.0045 17.578 5.83654 -3.46617 6.00737 3.7092
3733 1 5.26171 -12.8048 1.76203 -1.33807 5.5271 0.794574
3734 1 13.0418 13.596 -7.32197 6.35899 6.89454 -0.646521
3735 1 -6.68446 19.0114 0.332725 2.29081 -4.42751 1.85324
3736 1 -22.8616 13.0871 -9.32028 -0.953495 2.99646 1.45564
3737 1 -3.03421 7.672 -0.766624 -0.470473 -0.710082 -1.68206
3738 1 -6.19547 -5.88254 15.6036 -3.22171 3.66597 0.0817737
3739 1 1.19865 -4.11667 9.07986 -1.93476 1.8059 0.847906
3740 1 8.54705 0.662287 -21.7838 0.780911 0.807488 2.42925
3741 1 -18.4121 11.0498 -3.27383 -1.0113 3.17522 2.1734
3742 1 -1.81713 -16.5551 -14.0873 0.292852 -1.56622 0.213059
3743 1 5.77908 -13.7277 14.9662 -1.223 -0.46196 0.64005
3744 1 -15.4846 14.78 4.09924 0.0581846 -5.99628 0.518953
3745 1 4.8233 -8.74889 11.7033 -1.71434 -3.0506 -0.0446927
3746 1 6.27287 -17.4395 -5.35621 0.134764 5.31394 1.30043
3747 1 -17.9417 23.7018 -16.8394 -0.249528 4.49901 -0.237653
3748 1 -13.8192 -1.75704 -19.3201 -1.75688 -1.66106 -1.50827
3749 1 -23.4835 -1.81315 11.7873 0.82936 -4.77496 1.64224
3750 1 12.1527 23.4634 -14.4209 0.0053354 0.470955 3.67333
3751 1 -4.02526 -1.92764 -0.872045 2.67029 3.0719 4.19189
3752 1 -19.0471 12.9467 -14.831 3.97616 7.78158 -5.0561
3753 1 7.23733 -3.35128 -21.7419 0.714218 0.984402 3.22069
3754 1 -10.8338 5.55606 7.893 0.734097 1.13627 -4.01623
3755 1 17.3584 7.4652 -10.3691 1.78877 4.71823 3.43748
3756 1 -11.6634 -22.7435 -20.6591 -1.04203 -1.75555 -7.27414
3757 1 1.21818 21.0264 0.84772 -2.98779 -6.03049 2.27757
3758 1 -22.4821 -8.52148 -12.3097 1.84608 0.347599 3.80084
3759 1 -13.6348 7.84517 -20.2646 -1.8374 0.806397 0.391937
3760 1 16.7977 25.9698 3.00532 0.422062 -0.456151 -1.79532
3761 1 18.1494 -11.9312 -17.1116 0.440053 -1.1348 -0.692186
3762 1 10.3241 -11.0923 7.29339 -4.44397 -0.766846 -7.58334
3763 1 12.2802 10.0161 8.53362 -4.15911 0.202676 0.343497
3764 1 14.4762 -10.3479 19.1849 -1.67369 7.50607 -3.32839
3765 1 -23.2762 45.0052 -2.3206 -4.4541 2.1731 -0.789223
3766 1 -12.8883 19.7062 14.3872 0.440131 -0.00464254 -2.51887
3767 1 -11.8321 -22.6452 1.70724 -1.21676 3.65998 1.14626
3768 1 -2.09943 4.60713 -14.0335 -2.97949 1.68879 0.816834
3769 1 -20.9188 -17.8237 7.7028 -0.118262 1.02785 -6.30683
3770 1 -8.58195 -6.86318 4.21497 -1.64829 -5.26208 1.57158
3771 1 -16.2767 18.9703 20.0389 -1.36566 -0.689585 -3.39377
3772 1 15.1945 -14.5028 -2.29444 3.30102 -4.15391 -3.82544
3773 1 0.91899 -3.20134 14.1017 0.197309 -0.0488154 3.59834
3774 1 -5.50277 13.2196 4.66479 2.81804 -0.016203 3.00159
3775 1 4.02056 -1.02397 -11.4778 0.372048 4.09064 -3.1995
3776 1 9.43525 -4.99999 17.6971 0.425486 -0.390826 0.978332
3777 1 10.2877 -7.55468 -1.68178 -1.34204 -0.461777 -2.46933
3778 1 4.59629 15.0639 -11.2573 -1.12556 -3.05397 -5.01764
3779 1 -9.02598 0.704729 6.97859 -1.19426 2.48722 -4.03767
3780 1 20.6429 19.6232 -15.9803 -1.5559 -3.07099 2.33501
3781 1 -6.61815 -3.89488 8.51763 -0.751767 2.20881 3.31316
3782 1 0.306734 -15.6387 -18.4958 -1.67595 3.78736 2.17251
3783 1 20.6406 18.7263 3.75956 1.03888 -4.26885 -4.96319
3784 1 14.0207 -0.533638 2.43953 1.84375 -2.62044 -0.093772
3785 1 -2.8054 -23.5419 23.1142 1.41279 -0.147965 -2.93297
3786 1 20.2832 6.26016 16.8066 -1.43684 -5.93069 -1.54676
3787 1 10.5612 23.9158 -18.3295 2.23903 -2.95735 4.31136
3788 1 8.65377 15.4494 8.48251 -2.47598 -0.574773 0.6524
3789 1 18.9187 24.4843 -13.4799 3.32586 -2.16424 2.64936
3790 1 4.91303 -18.4134 0.808039 -2.19343 5.91274 -2.68712
3791 1 -8.85623 17.4018 -11.8166 1.2676 -0.845051 -0.285045
3792 1 -9.49282 -7.6565 11.1026 -0.788 -1.45479 0.152872
3793 1 -14.0136 21.1095 2.78815 -0.201795 1.72578 -3.33345
3794 1 -2.25975 -21.2548 -8.9463 -4.19423 3.81827 5.29341
3795 1 14.7478 24.065 20.7617 -3.63439 -1.339 -0.554338
3796 1 -13.8203 -13.6571 -9.80251 4.96549 2.59159 -0.459982
3797 1 -15.9046 -12.3179 8.4026 1.30807 1.05271 1.02234
3798 1 4.95552 2.17762 -1.70609 -3.88424 1.43972 0.716448
3799 1 21.3442 21.4195 -9.91026 -2.80314 -0.100183 -0.558518
3800 1 13.8219 3.28103 -2.01008 3.49561 0.861917 -0.413153
3801 1 3.32153 17.1218 -9.56158 5.77622 -5.42495 1.67075
3802 1 5.92084 0.826649 -23.0886 2.89524 3.11561 -3.98993
3803 1 -18.1309 -5.3279 -24.1208 -3.6838 1.513 -2.20146
3804 1 15.8938 15.5968 11.2749 -3.02344 3.70515 2.18085
3805 1 -4.96922 18.052 -17.2643 -1.73916 1.24571 -1.05029
3806 1 -0.286527 1.09392 -3.87554 -3.24454 -2.2203 1.70118
3807 1 -7.49822 21.6945 -18.8735 -1.12336 7.82868 1.07561
3808 1 10.0515 -13.5792 -21.4738 4.55339 5.08042 -2.29236
3809 1 2.69052 -22.5963 -19.2013 2.1183 3.95387 -2.1213
3810 1 -17.8467 -3.59783 14.8872 -0.888922 0.608005 2.8655
3811 1 14.3692 -15.3961 -23.5144 1.04775 -3.61129 2.54147
3812 1 -5.05587 -15.137 -1.02111 4.73912 -0.316302 -2.39464
3813 1 16.0168 5.89269 -1.36381 0.558444 -2.4169 1.88926
3814 1 3.18188 8.83661 11.5802 -4.50282 -4.2817 -0.372074
3815 1 0.0106722 18.8348 23.2281 -0.376439 -5.20373 0.301499
3816 1 -13.4621 -8.67575 4.67755 -1.66765 1.46022 -2.99154
3817 1 9.97591 9.33504 -1.04791 -4.40979 4.35094 -0.109201
3818 1 13.4948 17.3037 24.1809 -1.84454 -0.943898 -5.45083
3819 1 4.19642 22.8155 13.9982 6.58417 0.808802 -2.18163
3820 1 22.1271 13.0429 -5.07593 -1.51137 -1.37436 0.125476
3821 1 10.1971 -11.5573 12.7102 0.184254 1.14658 -1.66384
3822 1 10.7162 5.20551 8.81643 -1.07414 -1.12224 -3.54744
3823 1 -4.81546 -17.6593 -11.0593 0.381997 5.67231 -1.53222
3824 1 -6.14258 -24.2768 -6.50887 3.44342 2.0906 1.1767
3825 1 21.5041 -14.4948 10.7005 3.47784 0.84208 0.273829
3826 1 0.746728 18.4555 -16.01 -0.378151 1.70765 -1.52414
3827 1 -1.91585 9.03016 18.2787 -6.63162 -1.03648 -0.345175
3828 1 -19.3474 17.9672 -19.0532 -2.71672 -2.22692 1.90143
3829 1 -13.0535 -18.2355 -6.57992 -5.58105 -1.67627 -3.56492
3830 1 17.8413 -12.7131 -12.8042 -0.880649 1.16261 2.82731
3831 1 -1.47204 21.8851 0.329862 -3.23932 2.90197 -1.53992
3832 1 21.2451 -1.75024 3.35946 0.861566 2.75357 -0.872175
3833 1 19.6345 -1.15342 -11.2153 0.502019 -3.99041 1.69346
3834 1 7.37314 4.82828 4.31098 -1.11015 4.22776 -4.61533
3835 1 22.545 47.2214 -2.57216 -0.699852 -1.00638 1.04207
3836 1 22.5566 14.4071 -0.709053 3.30484 2.07985 -0.104664
3837 1 13.588 13.9666 6.60306 -1.84896 -0.270478 1.6043
3838 1 -8.23026 5.04623 -4.73903 2.20538 3.21725 -0.972029
3839 1 17.3952 5.44694 1.38498 5.33433 -0.333702 0.912833
3840 1 -11.4781 -21.2212 11.7587 4.81363 2.33238 2.145
3841 1 22.8287 3.91819 10.5549 0.276671 -1.93793 0.00981241
3842 1 21.9402 0.902311 20.7538 4.80428 -0.588415 -2.19569
3843 1 -0.958318 -16.241 14.1669 0.488231 2.06328 2.8515
3844 1 -22.0905 -13.712 5.9234 0.923445 -2.50673 -6.61204
3845 1 -4.83258 5.66521 -23.7211 3.97019 -2.43202 -1.89315
3846 1 -21.656 23.8419 19.9517 0.0586556 4.4744 2.18535
3847 1 -16.9144 -18.9341 -12.5662 2.8903 3.31851 -3.16335
3848 1 6.12095 -13.1921 7.81913 3.9245 1.59176 -1.21361
3849 1 17.1998 12.5418 -21.0593 0.733617 1.95114 0.947115
3850 1 19.6039 -21.3683 20.9503 -1.43418 -2.51374 0.078877
3851 1 -3.38944 5.90717 -3.46045 -1.57991 -0.150502 -0.430691
3852 1 -5.5333 19.3885 14.4833 1.73909 3.48325 2.47406
3853 1 20.5918 -12.8674 2.68982 -0.4511 1.55884 0.118938
3854 1 16.4496 13.4765 -1.90086 -0.80659 -0.906716 0.506636
3855 1 -2.26902 -5.29292 23.4801 2.59554 -0.908608 -0.410961
3856 1 13.252 -18.8401 -3.9742 1.1923 1.97201 0.560546
3857 1 -12.2264 46.4515 -11.4194 -2.06522 -4.26988 3.76058
3858 1 16.5026 8.049 5.51401 -3.01449 -5.34875 -3.80174
3859 1 22.0746 20.1255 9.82678 -0.907869 0.872764 -1.14914
3860 1 15.2723 -15.7461 -13.7027 1.04041 3.53437 -0.586968
3861 1 -17.4594 -12.3033 20.4424 -2.21046 2.50636 0.653404
3862 1 -3.07682 1.55195 -17.7159 -2.70868 -0.135435 1.98682
3863 1 -14.4169 -3.60349 13.0968 -3.06258 0.225991 -0.893221
3864 1 -4.18329 -3.75891 -16.0857 -4.15152 3.88298 5.14493
3865 1 1.47227 -22.9969 15.3073 -0.038381 -1.32341 -1.09008
3866 1 11.1471 -12.79 4.91194 -1.00648 3.25697 -3.86004
3867 1 -22.8844 1.06931 1.14526 -4.41447 -1.14649 0.745466
3868 1 6.82173 6.08916 -1.55633 -2.31168 0.398816 -3.07498
3869 1 -8.0361 5.74741 7.75867 -2.09602 5.93937 -2.15638
3870 1 15.1306 -21.2368 -8.79009 2.84017 0.859097 -0.037726
3871 1 17.7627 0.589201 20.393 0.218085 4.85195 2.82141
3872 1 22.3599 -23.5998 -9.33074 -0.848936 -2.35164 2.57722
3873 1 -4.56769 6.07195 12.8208 -0.127632 4.26809 0.899683
3874 1 -18.6884 -24.081 -14.5636 3.66232 -0.0349807 -2.48641
3875 1 22.0396 1.32108 5.92018 -2.43605 1.46346 0.63069
3876 1 -22.2811 -11.9856 20.5384 0.100874 5.81887 1.5461
3877 1 -22.9122 3.27275 -2.92895 -0.456577 3.75876 -1.82778
3878 1 9.44821 -18.2286 6.12735 -0.45652 1.09756 0.3341
3879 1 16.8109 -18.3389 22.1628 0.0753157 -0.919981 0.244002
3880 1 -8.91904 18.969 -23.0067 -3.03365 -5.1306 -2.22888
3881 1 -15.3268 0.84595 -14.0851 -0.1571 -0.235449 -0.436792
3882 1 22.9002 18.9292 -4.34285 1.26665 -0.599913 1.63864
3883 1 18.2656 12.8895 -11.6946 -2.71001 1.77117 3.08081
3884 1 11.0362 -19.1115 -5.80328 1.53271 -6.95828 2.35868
3885 1 12.0025 24.4566 13.9549 0.654106 -0.562153 -2.77429
3886 1 -13.6013 -16.3336 -8.49471 1.93677 -1.84891 -1.15256
3887 1 0.626303 -12.7502 -19.5199 1.28563 0.416176 2.15096
3888 1 -8.84143 7.77356 -18.529 -3.07336 -1.79285 -4.1763
3889 1 -16.4749 16.8815 18.0906 0.201041 1.28297 3.39729
3890 1 1.76126 18.1019 13.5751 -2.15354 0.603781 -0.126031
3891 1 4.28574 -17.4099 17.4827 -3.21144 -2.78369 1.89593
3892 1 -11.3144 22.188 6.73437 1.24304 1.35918 0.830957
3893 1 -6.72925 11.233 10.8121 1.30133 2.51655 -1.35069
3894 1 10.7556 11.4162 -12.8923 1.26499 -0.877631 2.23901
3895 1 12.154 -5.8754 -0.388588 0.00125872 0.167015 -4.73649
3896 1 -7.81242 -7.86929 -1.33004 5.62896 -6.32574 0.640675
3897 1 6.92653 14.9103 22.6409 5.30853 0.306493 3.16182
3898 1 17.5343 -2.46203 16.2246 -0.91244 -1.71768 1.46394
3899 1 4.96861 8.67957 16.325 -0.392434 4.53745 -1.39669
3900 1 11.9563 -17.8943 -12.9288 -0.0753745 3.98475 2.03073
3901 1 -16.3256 14.7528 -11.8962 0.992227 -0.878123 -1.97029
3902 1 11.334 10.543 -5.7645 -1.30899 -2.02938 0.163418
3903 1 -18.5681 -14.9883 4.21484 1.80105 -5.03775 2.30823
3904 1 11.8558 -6.42637 -7.81761 -1.3185 -2.17311 5.25361
3905 1 1.11231 -9.28956 5.46407 0.225274 2.79537 1.58957
3906 1 -17.0669 7.59527 -7.76071 1.87198 -0.0802778 2.55052
3907 1 -20.582 -1.39997 9.07516 0.298141 -0.643381 -3.63462
3908 1 22.1923 -12.2557 15.5574 1.41574 1.57619 -2.5177
3909 1 2.3075 -10.3339 18.7856 1.71429 0.535614 -7.26276
3910 1 -8.18963 17.4955 -6.90558 4.35566 7.88204 -2.97905
3911 1 22.4682 18.8949 -0.451273 2.28227 -4.10721 -1.96104
3912 1 -10.0278 -9.86976 -0.666565 1.47 0.884035 5.42971
3913 1 -9.07733 6.15162 -0.575445 -1.22457 -0.625315 -1.15719
3914 1 11.5131 -9.91447 -6.06876 1.94451 3.00765 -2.1048
3915 1 5.83946 -1.65524 7.67642 -0.0796578 3.79059 -1.05077
3916 1 22.6184 -11.4486 23.2015 5.33614 -3.62069 -2.58702
3917 1 1.9863 -6.52473 -8.94074 0.221858 -2.81138 -8.91803
3918 1 9.844 10.5448 -17.151 0.825555 -0.868504 2.95756
3919 1 6.86113 -16.2347 17.6754 3.53492 -5.92618 1.79746
3920 1 -11.0219 10.7178 16.1843 3.05932 1.02343 0.681519
3921 1 17.8362 6.87802 -16.6029 -0.123007 1.37595 2.91326
3922 1 -16.3601 -15.1423 -19.3501 -3.14978 -1.46558 -0.486231
3923 1 -21.5545 5.2948 -12.6994 0.483173 2.815 0.591398
3924 1 -11.6795 -5.66293 9.30202 1.91564 -0.375596 1.34117
3925 1 -21.7912 5.00021 3.303 -2.06051 4.6439 -5.15603
3926 1 8.43277 -1.85883 22.1456 3.92249 1.56767 -0.57659
3927 1 11.5474 14.693 -1.27636 6.89048 -0.94057 2.72195
3928 1 -18.0789 17.3434 23.6475 -5.72389 -0.305405 -1.01019
3929 1 -1.76242 12.121 -9.72516 -2.23505 3.91039 -1.43918
3930 1 13.5248 19.9308 -0.1575 -1.11317 1.53076 2.84673
3931 1 -2.12156 12.34 -1.00261 -1.94456 -3.3965 -2.7145
3932 1 23.1856 6.21161 11.9305 -0.30204 -1.69542 2.26162
3933 1 -3.46469 -9.18703 21.5738 -3.39889 0.218362 -2.07494
3934 1 21.2997 2.84827 -12.91 -6.07352 4.60715 -1.15651
3935 1 12.2548 -15.6807 -20.6885 2.3758 0.286587 -5.20447
3936 1 -0.407438 -24.703 22.2876 -0.522431 -2.09271 -6.53442
3937 1 13.7348 -18.2068 -20.0705 2.05572 -0.489078 -3.59606
3938 1 18.6928 11.9948 18.0095 7.15667 -1.23596 0.474536
3939 1 22.1561 -2.33993 14.7468 -0.431798 0.517903 1.01117
3940 1 -2.72178 23.1718 -7.38922 0.866955 -0.221981 -2.81136
3941 1 -17.7103 1.5906 -22.3176 1.03862 0.80578 4.2296
3942 1 10.675 -22.8854 17.0447 -3.86073 2.60432 0.58339
3943 1 -20.8097 -23.6969 -0.0347687 1.71181 -2.9475 -0.727995
3944 1 -14.2655 -8.35738 -15.6384 0.885709 3.0972 0.392488
3945 1 -19.9665 -15.163 -15.7227 -2.72251 4.28821 0.830197
3946 1 -5.5209 14.9531 10.0388 -1.17655 -0.971583 -0.0889205
3947 1 22.7925 8.04124 -22.8541 0.919029 5.24303 -1.86111
3948 1 10.7566 17.3416 -17.3212 3.65568 4.01839 -1.06692
3949 1 3.81903 -12.3239 -13.1595 4.4394 -4.87691 3.61561
3950 1 -4.85694 1.40884 -20.0784 1.88604 2.51454 0.589178
3951 1 5.39979 2.5992 -13.4289 -0.852117 2.17733 -4.63594
3952 1 -6.16806 -5.22908 -17.2432 3.83921 -2.80961 0.0856589
3953 1 22.1223 -16.2491 12.9255 -0.233404 0.758737 -0.842757
3954 1 3.44214 4.38653 -16.9873 -3.91717 -0.367224 4.90917
3955 1 -7.83915 20.2739 11.2521 -1.01831 -4.39927 2.379
3956 1 -14.2711 12.9314 -5.70699 3.37852 -1.83467 4.91035
3957 1 17.3016 -23.8274 -17.2808 7.30623 0.968366 -1.06195
3958 1 -1.96996 6.62907 -6.95966 -1.96838 -1.78151 -1.57043
3959 1 -20.3016 -5.329 -19.8269 1.37663 2.19876 -1.18881
3960 1 20.1574 -15.7794 -10.5875 1.40048 1.70866 4.9996
3961 1 -0.879736 -18.2755 -1.87443 3.01797 3.01296 2.39133
3962 1 0.0524293 -14.9119 4.66992 5.63328 0.245685 0.074887
3963 1 -15.7414 -18.7309 -2.57238 -0.554244 -2.61044 -5.11715
3964 1 8.20872 12.3234 16.5795 0.0615916 -1.89459 4.3734
3965 1 -5.6787 2.31634 0.822011 -4.97308 -1.01536 8.80899
3966 1 -19.6987 20.6552 8.20813 4.56004 -0.181626 -0.538239
3967 1 2.24993 -6.46109 -4.75672 -1.51717 4.4325 -0.0537018
3968 1 -1.89777 3.09849 -5.29911 4.52276 -1.19334 -4.07953
3969 1 16.9316 -22.4595 20.1197 0.732724 -6.73164 1.34441
3970 1 -5.37224 21.2943 20.5973 -0.431776 1.18472 -1.85824
3971 1 -2.92068 -2.08393 20.8627 -4.85246 2.76906 2.43816
3972 1 -5.20761 -10.1635 -11.5113 1.6122 -0.426085 -0.471555
3973 1 -8.34039 -22.1284 -6.47532 -0.710937 2.52166 -1.10492
3974 1 6.87402 22.5356 13.7858 0.312465 -0.783301 1.26653
3975 1 6.40446 -0.264562 -18.2084 2.17812 4.75286 -0.0425634
3976 1 -2.08755 16.4561 4.61644 -2.50926 -0.994569 -5.28436
3977 1 -8.7938 -18.3823 -18.6164 2.99925 0.556198 0.702068
3978 1 -2.58048 20.1518 -13.8677 4.59237 -5.60449 -0.18169
3979 1 -10.336 -23.7622 3.96386 3.10127 -6.20021 -0.116642
3980 1 -22.9517 -18.8969 -14.3117 -2.19167 -3.5764 1.88307
3981 1 12.1048 -8.73012 4.30397 1.18466 0.740916 -1.87427
3982 1 6.74928 -4.27438 -3.29752 1.46527 0.7413 -0.0341151
3983 1 -22.5901 8.09207 8.69041 -2.72936 3.39675 2.89946
3984 1 -6.0719 14.5307 -18.0844 0.514733 1.73363 4.51761
3985 1 -11.7435 19.3042 6.58161 2.35781 2.04467 -1.54311
3986 1 16.0521 19.8038 -15.2556 -2.10043 -2.44179 0.305859
3987 1 14.7849 15.7576 18.5602 2.25354 -1.34582 2.15097
3988 1 -24.0416 20.6379 19.6787 -4.61038 -4.55486 2.57007
3989 1 -15.7787 -10.149 -13.9158 2.9338 -2.11883 2.27638
3990 1 8.11995 4.66652 -22.2709 1.50845 -0.878035 -1.52227
3991 1 -19.0828 9.05414 -23.7372 -0.826018 4.26844 3.56198
3992 1 21.9951 9.29064 -2.4067 -0.0373195 -3.79305 6.98905
3993 1 -7.30137 -11.0261 -4.69807 -2.16052 1.59364 -0.244846
3994 1 -15.1836 -22.369 -20.5647 2.41336 0.319123 -2.66629
3995 1 5.91689 -23.1401 2.30991 7.09373 4.25485 -0.349255
3996 1 4.33339 -12.5788 5.57588 1.31617 -0.768493 -2.30455
3997 1 16.8454 -23.816 -12.3461 -0.149408 -1.20661 2.48349
3998 1 -10.2056 -3.57063 -0.829777 0.253083 -3.17482 1.71901
3999 1 -7.4833 16.4688 11.1484 -3.52071 -2.4032 0.582108
4000 1 -18.7727 10.9119 21.886 -5.83678 -0.891107 -1.98752
4001 1 -10.8413 25.6173 -4.1537 1.99435 1.1388 4.10261
4002 1 -9.4384 27.6053 -5.14409 -5.18933 1.27934 4.58736
4003 1 -6.65891 27.5774 -4.31892 4.19367 -0.740488 -1.24032
4004 1 -5.13495 25.5 -5.61135 3.34078 2.35196 -3.33071
4005 1 -10.3878 25.5777 -9.34554 4.51032 -1.87755 1.70295
4006 1 -9.35323 27.8405 -7.99174 -3.41222 -0.373312 -3.37991
4007 1 -6.89336 27.5516 -9.03291 2.60122 -2.35585 2.81556
4008 1 -6.31157 24.936 -8.26231 -0.476763 -1.24677 -1.94066
4009 1 -9.03898 24.4245 3.61874 -3.64347 -0.174454 -6.0395
4010 1 -8.39351 27.1631 2.6045 1.28297 5.2883 3.00727
4011 1 -5.67105 27.8072 3.06654 1.76214 2.76315 -1.88724
4012 1 -4.29726 25.579 2.48415 0.301727 -3.92788 -4.96829
4013 1 -9.96649 24.961 -1.467 0.427508 -2.15531 1.67279
4014 1 -8.76772 27.3725 -0.38566 1.6194 1.52835 4.40045
4015 1 -6.19588 27.3103 -1.58231 -2.47898 -2.10249 0.258457
4016 1 -4.10373 25.8483 -0.573339 9.73361 0.0955707 2.48408
4017 1 -9.69787 24.765 11.28 3.00609 -3.58146 1.38288
4018 1 -8.32772 27.0345 9.75446 3.50642 -0.466028 -2.58894
4019 1 -5.45268 27.112 9.94622 -3.53205 -0.138419 -3.14557
4020 1 -3.78084 25.0661 8.92281 3.00378 0.491916 1.7462
4021 1 -9.23106 24.4882 6.4428 -4.39381 -1.59158 -0.423991
4022 1 -8.0019 26.8473 6.8852 -3.51221 4.10969 2.93897
4023 1 -5.75037 27.4845 5.72541 0.452866 -2.64654 -0.0992901
4024 1 -4.08629 25.3443 6.10814 1.81526 -0.683696 -2.07045
4025 1 -10.3007 30.1108 -4.03434 3.4357 -1.11557 -2.84895
4026 1 -9.34565 32.2961 -5.44568 -1.44412 -5.73117 -2.60643
4027 1 -6.79904 32.0426 -4.1111 2.28954 -0.178403 -4.19502
4028 1 -5.5778 30.0366 -5.54028 0.490925 2.21336 2.23239
4029 1 -10.829 29.9025 -8.9561 -5.02411 3.73871 -6.06433
4030 1 -9.85396 32.3146 -8.13135 -0.0148205 -0.507333 0.0648606
4031 1 -7.12001 32.2352 -8.83731 -0.540852 1.663 0.13444
4032 1 -5.54644 29.8108 -8.2966 1.36595 0.0541835 3.18939
4033 1 -9.58907 29.4255 3.9749 -4.02823 -2.05995 2.29084
4034 1 -8.70634 31.9355 2.92053 -2.86306 -2.04737 -0.477755
4035 1 -5.80783 32.2903 3.35828 3.86802 -1.90606 1.48795
4036 1 -4.50544 30.135 2.13804 0.339692 -1.24097 -5.78885
4037 1 -9.66607 29.9493 -1.23602 3.85185 -1.57146 0.809771
4038 1 -8.71897 32.1299 0.163874 -3.48833 5.45665 -1.02732
4039 1 -6.2747 32.0879 -1.21697 -2.23916 3.71814 -1.43047
4040 1 -5.06032 29.6516 -0.639986 3.33506 -2.0269 -0.175172
4041 1 -9.77951 29.4678 9.86405 0.826029 0.441328 -6.77197
4042 1 -8.12178 31.8274 9.84507 0.224012 -2.82014 4.61999
4043 1 -5.43301 31.8721 10.3996 1.83419 0.372884 -1.73257
4044 1 -4.14543 29.665 9.38688 4.01533 3.06357 0.426335
4045 1 -9.2926 29.2186 6.67921 0.271566 -3.90261 1.18763
4046 1 -8.3716 32.0287 6.63744 -4.12161 4.62656 -2.85107
4047 1 -5.61593 32.109 6.12942 -0.314446 1.52271 0.853179
4048 1 -4.1727 29.7117 6.38065 -1.41248 4.92952 0.0255956
4049 1 -10.17 34.572 -3.90214 2.82435 -3.03169 -0.0450208
4050 1 -9.38924 37.1712 -4.58308 -5.02845 -3.35634 1.36558
4051 1 -6.58366 37.0681 -4.11544 4.5428 -0.784355 2.76404
4052 1 -5.53657 34.7985 -5.27247 -0.115418 -0.0638983 -6.07628
4053 1 -11.3867 34.5718 -8.19346 -4.63538 -2.32247 -1.98149
4054 1 -9.90987 37.0832 -7.27919 -3.54198 -0.763256 0.458318
4055 1 -7.37205 37.1302 -8.80784 5.14132 -0.301047 -1.93138
4056 1 -6.1776 34.6367 -8.13048 -5.53046 4.05282 0.170012
4057 1 -9.56458 34.1444 4.02023 -3.95386 -2.92782 4.83
4058 1 -8.61334 36.3776 2.81704 3.67951 -1.21849 -5.60688
4059 1 -5.87572 36.5108 3.34351 4.05051 -2.53737 0.0854074
4060 1 -4.53601 34.3778 2.0747 1.9262 -2.17986 2.02911
4061 1 -10.3188 34.0436 -0.893032 2.63358 -1.07458 4.12746
4062 1 -9.06179 36.3242 0.030034 3.53879 2.9133 -0.394945
4063 1 -6.34477 36.8971 -1.10695 3.06555 0.832455 -2.33686
4064 1 -4.90574 34.4817 -0.728275 -0.56553 -3.70433 -0.00163195
4065 1 -9.46113 34.2496 9.6739 1.12119 3.67714 -3.59809
4066 1 -7.96412 36.7869 9.98992 0.138721 4.2259 -3.17334
4067 1 -5.23668 36.7157 10.66 0.818031 3.3857 -2.5092
4068 1 -3.97812 34.2473 9.73836 -2.92027 4.45859 4.58242
4069 1 -9.48962 34.4874 7.03822 2.15622 -0.0699416 -0.0583876
4070 1 -7.83004 36.7475 7.10663 -1.77427 -0.231541 -2.35332
4071 1 -5.37054 36.551 6.06697 -1.22037 -1.30595 -2.65933
4072 1 -4.14421 34.3285 7.01969 -3.58101 1.41977 -3.99065
4073 1 -10.3195 39.2829 -3.24979 -1.49099 0.421213 -2.03929
4074 1 -9.13097 41.4001 -4.55806 -0.70618 -2.1417 4.37164
4075 1 -6.39531 41.3911 -4.14171 -0.890983 -5.6286 0.418413
4076 1 -5.10839 39.0008 -5.20552 7.15268 0.038212 -2.78884
4077 1 -11.6507 39.3301 -7.87922 3.856 -2.64372 -3.39615
4078 1 -9.85066 41.3875 -7.3266 -7.56576 -0.530269 -8.3631
4079 1 -7.28411 41.5135 -8.11658 5.66698 0.36939 3.91448
4080 1 -5.6853 39.2607 -8.00821 -0.0455959 -6.10048 -1.78732
4081 1 -8.73352 38.8539 4.00788 -0.574781 1.75219 -2.85035
4082 1 -8.31008 41.1891 2.86134 -0.269714 0.908014 2.61965
4083 1 -5.58728 41.3181 3.48403 6.28031 0.892128 0.140584
4084 1 -4.61047 38.8821 2.47661 2.41919 0.842811 1.03138
4085 1 -9.9314 38.8104 -0.699967 -2.90465 0.575174 3.7422
4086 1 -8.8771 41.4047 -0.0352838 -1.96966 -1.07444 -2.90512
4087 1 -6.25351 41.4052 -1.10416 -2.45138 4.30969 0.58603
4088 1 -4.78367 39.0454 -0.347772 -1.53156 0.701976 3.46249
4089 1 -9.77671 39.0384 9.62355 -2.34967 3.76263 -3.48895
4090 1 -8.2732 41.4899 9.57591 -5.0587 -7.1449 -2.38325
4091 1 -5.74884 41.1692 10.4854 1.84388 1.61181 1.83089
4092 1 -4.21166 39.0516 9.58581 2.13759 7.96257 -3.34257
4093 1 -9.14362 39.0271 6.75155 -1.2708 -2.4996 2.46517
4094 1 -8.39328 41.7203 6.68256 1.65173 -4.11315 1.86275
4095 1 -5.65209 41.411 6.29424 -1.43275 -4.58078 -1.47162
4096 1 -4.13833 38.8554 6.8988 -0.71061 -0.849463 -2.47318
4097 1 -10.4558 43.8085 -3.61463 -1.60589 1.31141 3.43015
4098 1 -9.17238 45.8846 -4.88123 -1.84443 0.950255 0.80684
4099 1 -6.57614 46.1679 -3.96164 -4.00387 2.00241 0.922729
4100 1 -5.27503 43.8977 -4.77652 -0.0386926 -0.0567741 0.991536
4101 1 -10.6453 44.0147 -7.77405 -1.1865 -1.80071 -0.978537
4102 1 -8.25741 45.627 -7.53373 -2.11485 0.516755 2.91031
4103 1 -7.64095 -24.4457 -9.91275 -1.20024 0.372125 0.131925
4104 1 -5.63334 43.9157 -7.65967 0.9405 -1.73196 0.701095
4105 1 -10.0214 43.407 3.30383 0.582611 -1.6944 2.6086
4106 1 -8.97631 45.8005 2.6771 -0.500804 -5.83946 -0.503898
4107 1 -6.2711 45.7478 3.41079 4.32417 -1.10034 -5.74839
4108 1 -4.74012 43.7128 2.37098 -0.333649 6.71878 1.5377
4109 1 -9.81662 43.7929 -1.04767 -1.11296 -2.33564 1.84672
4110 1 -9.02396 46.1188 -0.0768653 -1.03447 -2.40504 2.42172
4111 1 -6.54177 45.885 -1.25555 -5.56531 -0.903555 -2.55511
4112 1 -5.14451 43.9002 -0.154459 0.786606 -0.327481 -1.33298
4113 1 -8.10194 44.2754 10.5118 -7.61206 -1.62622 -1.76135
4114 1 -5.77344 45.3254 11.2351 2.44978 -1.08263 -0.797707
4115 1 -4.02481 -24.0704 11.1707 3.73366 1.90471 1.48412
4116 1 -4.10251 43.5791 9.76968 1.20637 -0.83127 -2.21411
4117 1 -10.3247 43.954 6.1775 -1.04436 -1.62437 1.86636
4118 1 -8.59535 45.2065 7.87873 2.14991 3.77046 0.634003
4119 1 -6.21387 45.9157 6.30276 2.97569 5.91677 -0.55201
4120 1 -4.53279 43.8312 7.05279 -3.75704 -0.573493 -0.0390393
4121 1 -2.34018 25.4932 -5.654 -0.470379 -2.81478 -0.447986
4122 1 -1.46057 28.0857 -5.96004 0.19111 0.240731 2.3487
4123 1 1.126 27.4724 -5.33243 6.43314 -2.24595 1.17902
4124 1 1.71554 25.2137 -6.82073 -3.62593 3.3979 1.42254
4125 1 -3.55857 25.6853 -8.92141 4.32098 5.51257 0.141381
4126 1 -1.8587 27.858 -8.81874 3.15239 1.33336 0.110085
4127 1 0.685275 27.7357 -9.93962 -1.08072 2.28579 1.13946
4128 1 1.91081 25.3734 -9.48945 0.352565 -1.53732 1.02995
4129 1 -1.31565 25.0305 2.98098 4.08383 -2.0177 6.29023
4130 1 -0.897746 27.6133 1.65153 1.18506 -0.504009 0.971362
4131 1 1.75607 27.8083 2.29062 2.85367 -0.0449696 0.999381
4132 1 2.84116 25.2596 1.39368 0.0145378 1.12908 -1.62055
4133 1 -2.28094 25.1139 -2.83109 -0.0159307 1.52545 -0.354033
4134 1 -1.51228 27.4572 -1.09127 -2.52221 -1.48867 -1.43068
4135 1 1.05575 27.681 -2.31411 -3.27156 0.663218 -1.54953
4136 1 2.14739 25.3216 -1.31776 6.6757 -5.25342 -1.88429
4137 1 -1.13556 25.1203 8.61693 -0.955677 -5.61348 1.45776
4138 1 0.107464 27.6189 9.12429 4.19353 -5.35497 -2.87786
4139 1 2.80515 27.5106 9.91779 5.00971 0.335072 0.589839
4140 1 3.94721 25.133 9.16584 1.39243 -0.327657 0.994909
4141 1 -1.12635 25.0585 5.79793 -1.93364 2.21554 3.34739
4142 1 -0.00354158 27.7906 6.36631 -6.85352 -3.40307 -1.35013
4143 1 2.41459 27.589 5.19549 3.55896 -0.543948 2.80339
4144 1 3.92049 25.4771 6.32314 -4.42099 3.14662 -1.36076
4145 1 -2.89821 30.0769 -4.588 -1.16193 3.39888 4.71128
4146 1 -1.68491 32.3893 -5.5739 2.51317 -2.42931 1.86195
4147 1 1.1778 32.2379 -5.00026 2.15779 -1.16248 -0.161438
4148 1 2.29795 29.9267 -6.28906 -0.12261 -5.43323 4.65874
4149 1 -3.14986 30.119 -9.94329 -0.622795 -6.55451 2.75289
4150 1 -2.14015 32.2645 -8.43421 2.69872 -1.16273 7.03086
4151 1 0.222188 32.3582 -9.53454 -2.14183 2.14225 2.79819
4152 1 1.91209 30.1433 -9.0233 -0.869118 1.12474 4.30628
4153 1 -1.90537 30.0408 2.50849 -1.46432 4.30028 -0.773248
4154 1 -0.754347 32.286 1.49907 3.73051 0.0785052 -1.7754
4155 1 2.0648 32.4186 2.17874 -2.50152 -1.20814 3.27696
4156 1 3.23644 29.8426 1.22466 -0.522295 -2.29828 -1.14012
4157 1 -2.55432 29.9508 -1.9672 3.09317 -0.511431 2.24138
4158 1 -0.943811 32.1432 -1.16498 -3.0733 -0.185175 2.24311
4159 1 1.64241 32.2368 -2.15012 3.05325 6.06007 -1.52387
4160 1 2.67583 29.6358 -1.64355 3.0897 0.968082 -0.234739
4161 1 -1.47223 29.8892 9.71538 -4.05992 0.658328 0.878805
4162 1 -0.107148 32.1541 8.79974 6.37226 1.6855 -2.89885
4163 1 2.60709 32.0413 8.93827 -1.47773 2.39221 -4.54929
4164 1 3.78674 29.6665 8.37528 -2.1215 -1.20757 1.85039
4165 1 -1.44106 29.9288 5.35053 -1.01227 -0.227688 -3.38326
4166 1 -0.371222 32.3741 6.11834 -2.71861 -1.07929 4.63879
4167 1 2.56369 32.4609 4.91784 -0.56573 0.251972 6.40285
4168 1 3.71453 30.014 5.69073 6.89717 -3.62761 -0.390439
4169 1 -2.87426 34.6605 -4.72658 -5.49183 0.823272 -0.94956
4170 1 -1.71614 36.9587 -5.62571 -0.0994431 1.97323 -1.69705
4171 1 0.938257 36.8316 -5.00418 3.73652 3.04012 -2.41806
4172 1 2.22027 34.5865 -6.21489 1.46574 0.148902 -3.02758
4173 1 -3.56242 34.5307 -9.14997 -2.07402 0.115545 -2.08357
4174 1 -1.93935 36.7333 -8.36766 3.34074 -0.221041 1.58008
4175 1 1.00451 36.9386 -9.2244 0.175934 -1.99588 4.74209
4176 1 2.10447 34.5099 -9.16429 2.30175 0.790427 0.931074
4177 1 -1.82593 34.4591 2.76275 -1.19032 2.22321 -1.26309
4178 1 -0.706762 36.8804 1.82805 -1.55798 0.387185 -3.32905
4179 1 2.08326 36.8914 2.05517 -2.13074 -3.1996 -1.78726
4180 1 3.31498 34.7495 1.15168 1.88786 0.48693 2.15165
4181 1 -2.31276 34.8288 -1.82145 -2.65816 1.1561 -2.81955
4182 1 -0.88871 37.2097 -1.0051 2.73434 -3.51535 1.88299
4183 1 1.4884 36.795 -2.25906 -1.69672 0.915139 -1.45474
4184 1 2.81566 34.6751 -1.38 7.07414 -2.27472 -0.434158
4185 1 -1.03688 34.1429 10.3814 2.91955 1.0807 4.35079
4186 1 0.0247044 36.7066 9.52157 2.50579 3.20802 -1.75759
4187 1 2.80354 36.9359 9.2921 2.84108 -0.908337 -3.56079
4188 1 3.90583 34.5288 8.57804 0.896609 0.244625 3.12574
4189 1 -1.66703 34.738 5.63622 3.41669 -0.271703 0.740824
4190 1 -0.34732 37.0094 6.65873 -0.353645 -4.66675 -0.485836
4191 1 2.0904 37.2371 5.11363 3.38044 -3.15292 -1.91173
4192 1 3.44679 34.697 5.8184 -0.420939 2.48533 1.29494
4193 1 -2.5709 39.2022 -4.26579 -4.92374 -0.820906 -3.14147
4194 1 -1.41247 41.3651 -5.30778 -0.994489 0.210694 -2.33284
4195 1 1.23365 41.3407 -5.02834 2.24498 -8.5836 -0.6263
4196 1 2.52968 38.8722 -5.82125 -2.09969 0.781624 1.6058
4197 1 -3.18388 39.2898 -9.08396 2.93227 1.14442 -3.62345
4198 1 -1.88038 41.518 -7.85691 5.53982 -1.11112 -4.274
4199 1 0.596908 41.606 -9.21013 -1.49782 -1.34257 6.05375
4200 1 2.26631 39.5486 -8.68049 5.42186 -2.99035 -3.21435
4201 1 -1.82698 39.3378 2.66795 -1.19516 4.04181 -0.201764
4202 1 -0.810688 41.9368 1.90836 -2.24747 -0.652827 -1.97449
4203 1 1.97474 41.7953 2.38667 -3.37062 0.951505 -2.87864
4204 1 3.11454 39.4342 1.25627 1.42273 -2.8586 -1.85514
4205 1 -2.38051 39.5454 -1.5349 1.57483 0.105129 -0.308205
4206 1 -0.986835 41.6198 -0.892671 4.54895 -4.31654 -2.34143
4207 1 1.48342 41.8764 -2.06723 -4.029 -2.63602 -2.30987
4208 1 2.74601 39.3472 -1.70204 4.64416 3.11307 -5.09935
4209 1 -1.40948 39.0243 10.3138 -3.37596 -4.58289 -0.425717
4210 1 0.0333359 41.1007 9.02457 -2.32576 4.03614 1.70098
4211 1 2.76367 41.1352 9.89266 2.90196 3.92337 -0.449733
4212 1 4.19684 39.2044 8.63469 -3.46578 1.34479 -0.904
4213 1 -1.67061 39.0932 5.59992 -1.02536 3.3712 1.17834
4214 1 -0.376778 41.3227 6.40223 0.0559927 -0.664723 -4.54469
4215 1 2.34931 41.6456 5.10438 -0.855994 4.76163 0.370423
4216 1 3.6266 39.3657 5.93314 -0.708135 3.23821 -3.61706
4217 1 -2.48906 44.0378 -4.26138 5.94315 -2.44316 0.913286
4218 1 -1.12342 45.6096 -6.17729 -4.26246 1.93345 1.34953
4219 1 1.49335 45.8543 -5.1135 -2.0069 0.226948 2.96925
4220 1 2.59584 43.4894 -6.06781 0.220162 -0.222623 -1.75742
4221 1 -2.76173 44.1714 -8.30625 0.957051 2.11176 -6.48112
4222 1 -2.09867 46.2224 -10.3584 -2.83721 -4.19959 0.0673588
4223 1 0.297955 45.9427 -8.42309 3.61835 8.81601 -2.35893
4224 1 2.14184 43.9123 -8.6438 1.0262 -1.54082 0.279555
4225 1 -2.09031 44.0368 3.06071 0.2982 3.65449 -1.5588
4226 1 -1.02984 46.2001 1.91049 1.07488 -2.79117 -3.60678
4227 1 1.71238 46.2786 2.45795 0.195281 -4.99365 2.71297
4228 1 3.2076 44.0523 1.32531 -1.03767 -0.603687 -5.67641
4229 1 -2.59079 43.8991 -1.45233 -0.172219 -0.907718 2.12908
4230 1 -0.753442 45.916 -0.930306 1.82651 4.64182 -0.812932
4231 1 1.68726 46.0936 -2.26378 -3.10472 2.25861 0.35478
4232 1 3.00149 43.8816 -1.39196 0.307854 0.0441352 1.27001
4233 1 -1.10456 43.3672 10.035 -5.40996 -5.70819 1.4421
4234 1 0.0193215 45.8252 9.67259 -1.51868 1.85803 2.28761
4235 1 2.88578 45.883 9.9151 4.25682 -1.53847 -1.06958
4236 1 3.87106 43.5846 8.83536 -2.81593 2.40106 -0.384479
4237 1 -1.867 43.8029 5.74654 1.53572 -7.21924 -0.281812
4238 1 -0.3976 45.9826 6.95949 6.13003 4.03017 -1.17578
4239 1 1.90615 45.9993 5.2636 1.12341 1.79884 -1.97096
4240 1 3.55776 43.9169 6.1499 0.215548 1.6287 2.08989
4241 1 4.34917 25.6533 -5.52358 -4.12683 -3.16402 1.26451
4242 1 5.77377 27.7097 -6.96658 4.37401 -1.11464 -4.94477
4243 1 8.16007 27.029 -5.62211 0.992217 0.45302 1.90101
4244 1 11.5567 24.7044 -6.49822 -3.68686 0.547232 1.85155
4245 1 4.62455 25.1537 -10.09 -0.639313 2.41795 -2.23525
4246 1 5.73521 27.7346 -9.65415 -0.663143 0.50484 -4.08552
4247 1 8.26187 27.8046 -10.103 -3.08076 -2.27663 -3.8107
4248 1 9.27476 25.5146 -9.43255 -0.383654 -1.84877 2.0518
4249 1 5.73631 25.2896 1.89161 0.208967 -1.99662 -0.498432
4250 1 6.61662 27.5529 0.741736 -0.121874 0.248722 2.07827
4251 1 9.27368 27.5879 1.57889 -0.0336561 -0.320736 4.07107
4252 1 9.82731 25.0734 0.600131 4.91089 1.90387 -0.280687
4253 1 4.45825 25.3846 -2.86199 -1.00035 -0.169787 -8.15336
4254 1 6.33296 27.2671 -2.08564 0.845021 -1.9451 6.64135
4255 1 8.87785 27.1761 -2.90121 0.0750519 1.01283 -1.08282
4256 1 10.1216 24.8348 -2.21476 -1.40814 1.26564 -5.13358
4257 1 6.73559 25.437 9.93244 2.22739 1.16594 1.3195
4258 1 8.08567 27.351 8.41388 -2.35045 -3.25743 -1.7975
4259 1 10.8976 27.712 8.63627 -1.88311 -4.52453 -5.32505
4260 1 12.9867 25.9239 7.86338 2.30577 1.6167 5.74717
4261 1 6.24398 25.4459 4.56709 -0.29809 1.20696 -1.30834
4262 1 7.5514 27.7256 5.5002 6.10405 0.769823 2.75788
4263 1 10.173 27.7814 4.13381 0.496668 -2.6487 3.80255
4264 1 12.1982 25.7435 4.95102 0.148834 1.18226 0.989955
4265 1 5.19816 30.0842 -5.51014 2.68139 -2.31272 2.52347
4266 1 6.17269 32.4294 -6.7062 2.60685 -3.16262 2.21463
4267 1 8.73066 32.2786 -5.50076 -4.1494 2.48302 -0.651584
4268 1 9.52695 29.6225 -5.79836 0.204794 2.98821 -2.47354
4269 1 4.50944 30.2369 -10.2156 -3.54863 -0.807093 -1.82595
4270 1 5.96915 32.5265 -9.41098 -2.21606 -1.04944 1.30102
4271 1 8.56362 32.1632 -10.1517 4.57819 1.791 -4.22109
4272 1 9.42907 29.8597 -8.60526 -2.51731 0.0848158 1.10635
4273 1 5.85709 29.8988 1.9164 -1.95044 -1.34301 4.33531
4274 1 6.881 32.3023 1.04953 -1.38636 -2.55519 1.69045
4275 1 9.77647 31.9295 1.52714 -3.02645 3.59102 1.95716
4276 1 10.9021 29.8362 -0.0292086 0.796044 0.000590064 0.6231
4277 1 5.18811 29.765 -2.74241 1.21453 -1.22203 3.91882
4278 1 6.32149 32.0216 -1.69442 -0.0991497 0.764446 4.28587
4279 1 8.92675 32.1831 -2.61957 1.91172 -0.808946 -1.42423
4280 1 10.2143 29.7346 -2.85221 -3.02206 -1.28771 3.06397
4281 1 6.58488 29.7165 9.2439 0.635182 -2.24595 5.4809
4282 1 7.76436 32.146 8.30958 2.18514 -0.6856 -1.92028
4283 1 10.4282 32.3009 8.62516 -5.29494 1.09304 3.61776
4284 1 11.9718 30.1349 7.80851 0.364467 1.10547 -1.10441
4285 1 6.24465 29.9363 4.58785 1.41298 -2.48911 3.15779
4286 1 7.4165 32.5222 5.47504 0.623849 0.971161 2.78758
4287 1 9.86133 32.4801 4.17663 1.65026 -0.534505 -1.24086
4288 1 11.164 30.3269 5.10238 2.40839 1.74166 -0.238796
4289 1 4.91056 34.6551 -5.5636 0.820738 1.87017 2.777
4290 1 6.57154 36.8308 -6.28603 -1.7501 -5.52631 6.56087
4291 1 9.1188 36.6244 -5.46271 -1.13939 3.09074 0.0336857
4292 1 10.3017 34.4392 -6.54357 -1.97681 1.62518 3.0656
4293 1 4.60626 34.6518 -10.4095 -6.44904 3.96268 -0.0750789
4294 1 6.34227 36.7356 -9.3028 3.67525 -0.642689 0.644322
4295 1 8.92613 36.4724 -9.99258 0.561102 -1.96357 -1.08068
4296 1 10.2319 34.2349 -9.20984 -4.92093 3.34048 2.96272
4297 1 5.98229 34.691 1.92291 -4.47521 1.71275 1.57741
4298 1 7.01204 37.132 1.18995 -0.160022 -1.54616 -1.02247
4299 1 9.55128 36.8069 1.79181 1.9995 0.0605302 -0.145953
4300 1 10.7189 34.5138 0.815579 -5.95534 3.07713 2.42064
4301 1 5.22458 34.4554 -2.69076 2.02186 3.46788 -1.27171
4302 1 6.70996 36.9499 -1.70781 -7.16643 2.44213 -2.40951
4303 1 9.28402 36.9128 -2.82059 3.00172 2.63047 5.15914
4304 1 10.1775 34.4829 -1.91725 -3.15389 5.71555 2.8874
4305 1 6.57849 34.4493 9.08148 -3.86226 -3.97549 -5.32773
4306 1 8.04442 36.5874 8.20285 0.384294 3.38462 1.06077
4307 1 10.5248 36.8346 9.57626 -1.76267 1.51191 0.346111
4308 1 11.5676 34.6196 7.87051 -0.409449 1.46427 2.76547
4309 1 6.20471 34.8884 4.71191 -0.237986 3.41122 -4.96272
4310 1 7.70163 37.0887 5.64257 -4.03979 1.05704 -4.44698
4311 1 10.3088 37.4891 4.4594 1.81941 -2.69072 -2.17306
4312 1 11.5403 34.7912 4.86365 3.50539 0.0513665 -0.61968
4313 1 5.13163 39.0398 -5.3693 2.92867 1.0591 5.0719
4314 1 6.53882 41.3145 -6.43524 -3.74758 -2.32446 1.09811
4315 1 9.211 41.398 -5.47127 -3.99505 -2.21506 1.67933
4316 1 10.2783 38.9262 -6.43821 -0.42103 -1.75352 1.95416
4317 1 4.87136 39.4527 -9.47823 3.17589 6.6459 3.87793
4318 1 6.46366 41.7791 -9.22492 2.64964 -0.860373 -0.352431
4319 1 9.20758 41.5311 -9.93097 -2.56024 -2.23826 -5.61667
4320 1 10.3913 39.1157 -9.16555 -2.95912 -2.50181 -0.850569
4321 1 5.71001 39.6743 2.0785 -3.15895 0.853834 -0.457237
4322 1 7.32907 41.8111 1.04592 -2.4888 -4.63661 0.96948
4323 1 9.88847 41.4099 2.07737 -2.17762 -2.06651 0.121739
4324 1 10.8837 38.9044 0.601106 -5.34249 0.641856 -3.8957
4325 1 5.31077 39.0876 -2.69497 -3.97484 -0.374958 0.0340922
4326 1 6.76904 41.6501 -1.7223 -1.35885 -1.20401 1.17541
4327 1 9.32777 41.6357 -2.76227 -6.77096 -1.37733 -2.35147
4328 1 10.6574 39.2902 -2.27202 -6.1445 1.32982 0.912445
4329 1 6.97981 39.1323 8.64541 -0.0632998 0.126608 -5.39104
4330 1 8.02702 41.6979 8.39053 1.28299 -3.13069 -2.79606
4331 1 10.6542 41.8468 9.42423 -0.502726 -6.92678 1.63505
4332 1 11.6617 39.1939 8.90391 4.23129 -1.00624 3.42469
4333 1 6.1791 39.6492 4.86221 0.672937 -0.0263076 0.892893
4334 1 7.75152 41.7474 5.55652 1.64638 -3.31813 -1.62167
4335 1 10.2996 41.3682 4.80552 -1.60516 2.32492 -2.94492
4336 1 11.7216 39.3666 6.10636 0.231373 3.06675 -6.08151
4337 1 5.43896 43.5364 -5.30192 -3.80779 3.36864 -4.54959
4338 1 6.9352 45.7858 -6.5584 1.45578 2.06423 0.394254
4339 1 9.47452 45.948 -5.13594 -3.93115 0.142686 -2.57072
4340 1 10.5247 43.7236 -6.41822 -2.54099 3.97525 3.22309
4341 1 4.80546 43.9391 -10.0058 1.32439 3.95229 -0.889997
4342 1 6.64145 46.1223 -9.416 -0.486775 -2.36784 -3.42448
4343 1 9.31422 46.2173 -9.96228 -4.22634 -0.774015 1.44442
4344 1 10.5363 43.7315 -9.17889 3.92066 3.46879 1.99433
4345 1 5.91262 43.9538 2.15467 3.69916 -2.07418 -0.345466
4346 1 7.33219 46.3528 1.3974 1.59541 -2.98151 1.25077
4347 1 9.98261 46.1127 1.73278 -0.730889 -2.96473 0.374477
4348 1 11.2195 43.6183 0.982589 -4.07578 0.642731 2.77514
4349 1 5.48789 43.9183 -2.67615 3.04594 -2.96396 -0.215177
4350 1 6.27703 46.4995 -2.96433 2.17073 1.81583 3.87775
4351 1 8.99081 46.3241 -2.24917 -4.65007 3.86157 1.49919
4352 1 10.3153 44.0367 -1.61952 -2.3506 -1.41172 -1.01086
4353 1 6.64392 43.9473 9.37334 -0.837789 -1.03028 -2.2791
4354 1 7.55659 46.538 8.54126 7.01334 1.35272 -0.279877
4355 1 9.9944 46.2719 9.86106 3.32514 1.37635 2.67577
4356 1 11.7386 44.258 8.32243 -0.205406 1.87596 -0.263711
4357 1 6.14214 43.9925 4.86116 2.14296 2.55347 -2.7089
4358 1 7.65267 45.9857 5.75268 0.631164 -2.52832 0.724823
4359 1 10.1331 45.7682 4.56853 6.50359 2.5603 1.60849
4360 1 11.3933 43.7638 5.78762 -3.66844 -0.844688 2.9867
