ITEM: TIMESTEP
300
ITEM: NUMBER OF ATOMS
4360
ITEM: BOX BOUNDS pp pp pp
-2.4786008479348940e+01 2.3976844379348940e+01
-2.5065131634354106e+01 4.7581567234355077e+01
-2.4385526278120132e+01 2.4377324678120129e+01
ITEM: ATOMS id type x y z vx vy vz
1 1 22.568 -21.2943 12.9926 0.145728 -2.44411 -0.216428
2 1 -6.99513 14.4632 1.94234 2.20024 3.57843 1.80302
3 1 4.567 -7.57456 -24.1308 -3.14166 0.411027 1.2685
4 1 1.74415 -1.52597 -6.92283 0.343375 4.19039 -1.40401
5 1 -19.4266 -20.3779 22.1806 0.495224 2.58912 1.23988
6 1 2.38847 16.7104 17.9456 -0.0347686 -1.77811 -0.295906
7 1 6.26426 21.3372 6.7141 -4.79932 -0.954219 -0.0862802
8 1 -24.24 -10.5562 -14.6647 -0.234657 4.8245 -3.10338
9 1 -13.6771 4.52776 3.82052 -1.207 -3.8929 3.71931
10 1 -0.154444 -7.67077 15.2543 -1.29714 1.54376 2.18363
11 1 5.26992 -11.3048 17.0929 -6.59412 -2.37399 -1.86925
12 1 20.8494 -6.21547 -20.8265 1.5637 4.66615 0.0666204
13 1 -21.3434 -14.3244 14.162 -0.320378 -1.64368 4.60509
14 1 10.1529 2.3336 -7.56972 -0.689416 -3.69434 1.35768
15 1 -3.5016 -1.03742 -13.6834 0.0281553 4.14689 1.15575
16 1 -19.5395 0.175688 5.98486 2.38777 -4.94277 -0.823102
17 1 17.2226 -9.12508 17.7416 1.4818 -3.39943 -2.5403
18 1 22.114 23.0527 3.87683 -1.98208 1.01746 0.102192
19 1 -14.9772 21.3264 19.6717 -3.16643 -1.39076 2.05063
20 1 20.6327 2.96066 20.4882 -5.10038 -2.98788 -5.09779
21 1 -23.2239 -0.148438 12.1791 1.05388 -4.27236 -0.923353
22 1 -11.1543 -0.672043 -16.3027 -1.05904 -0.18786 -3.0962
23 1 -11.1791 -23.0642 21.4984 -2.16274 -0.728173 0.0250638
24 1 9.78736 19.2566 -4.51206 -3.21877 1.3676 4.49721
25 1 6.4115 24.3719 16.0824 1.36325 2.08416 -0.462138
26 1 -1.47837 14.9817 9.57483 1.73807 -4.85163 2.7285
27 1 -19.3776 7.56785 -2.23959 -0.693869 -3.01814 -2.90202
28 1 -20.4238 7.17387 4.30379 -2.56783 0.42931 1.26624
29 1 -7.90896 -12.0815 -10.4177 2.82157 -3.09123 2.57933
30 1 21.8714 -1.39768 -22.1992 1.75788 -1.35537 -1.87755
31 1 3.35909 -15.8544 -19.7668 5.25125 -2.30972 -5.29969
32 1 -9.8334 12.4818 -20.3816 -3.28057 0.906918 0.386721
33 1 1.60099 1.65528 -13.0676 -0.954657 -0.359704 1.93401
34 1 -20.7113 -23.2747 14.9948 -1.47055 2.79719 -0.173624
35 1 20.1333 5.11187 13.0937 0.831711 -3.27827 4.46629
36 1 -13.9072 20.0433 -19.1712 -1.11552 -1.93736 -2.79466
37 1 -11.6059 -7.30712 -2.45022 1.84188 1.64582 -4.48304
38 1 20.9181 11.2429 8.61478 -3.28445 -0.215134 0.34854
39 1 1.595 8.62656 -24.1565 0.561288 -1.98867 3.78931
40 1 -1.06041 0.642483 -17.9455 1.22729 -4.61059 -0.00202902
41 1 6.33037 -6.28151 -11.3296 -0.00359689 6.67418 -1.10724
42 1 -17.7347 -16.465 1.80738 -1.5666 5.34996 -0.0929171
43 1 -14.4978 -4.28033 1.93018 2.0058 -2.8346 -3.45335
44 1 -2.77696 -17.1541 -8.24118 -0.43264 2.07577 -0.383918
45 1 -9.79753 12.3881 -2.95534 -5.07318 4.11884 -1.2533
46 1 -22.9667 -20.8017 18.6105 6.12333 -4.41211 2.58093
47 1 -5.7648 4.25583 20.1568 0.864908 3.42998 4.58047
48 1 7.73141 5.57786 -8.11729 -0.200889 -1.21959 -0.660021
49 1 21.8093 13.0384 4.48939 0.424693 0.511503 -4.82328
50 1 14.9472 -20.7358 12.5479 -0.251637 -1.0934 -1.11141
51 1 -8.33501 -3.10916 18.917 2.39164 -4.04629 2.15896
52 1 14.9317 3.16842 -15.4736 -1.44779 1.09527 1.17216
53 1 -2.2928 21.1717 8.01848 1.25395 0.596015 -3.02548
54 1 -17.1059 -10.5205 -11.6792 0.47013 0.0215663 -2.6082
55 1 -6.48955 -3.62737 -17.0478 -0.381598 -1.49718 -1.23063
56 1 -15.1894 6.04021 2.15052 0.881958 4.07763 -6.78574
57 1 -16.2448 -9.14148 -3.65639 0.789887 -2.75971 0.637099
58 1 2.33075 -20.684 -3.98504 1.34745 3.13611 -2.73032
59 1 -20.3893 10.9485 19.5438 2.7201 2.84611 -2.23789
60 1 0.426189 16.3178 -22.6734 3.86493 3.91731 -4.27396
61 1 -12.8511 -0.58128 0.786831 2.96513 5.21429 4.34364
62 1 -1.85882 -10.6172 17.0554 0.416929 -4.724 -3.43812
63 1 -0.674414 10.2908 -16.553 0.0975367 -4.71647 -1.15848
64 1 -10.5818 -1.96506 1.60393 3.10154 0.558481 -2.4735
65 1 18.3634 -2.70025 8.79885 2.66577 -2.35172 2.48032
66 1 -12.1358 -16.3126 -12.3303 -4.09027 -6.11581 1.41928
67 1 -14.7913 23.4096 -11.5155 -2.6483 -3.40976 -1.37024
68 1 -1.18112 13.432 -20.5996 3.51879 4.58985 -4.14845
69 1 -8.0596 13.3262 9.17289 -3.52698 4.2615 0.674522
70 1 -16.1874 14.6203 -16.3333 2.52696 1.02932 4.64412
71 1 -10.2888 3.65685 1.36353 -1.82262 1.35122 -1.21806
72 1 23.0673 15.6962 19.8556 7.43673 2.28794 -3.84339
73 1 -12.8052 -18.1976 14.5377 0.212856 1.00065 0.822661
74 1 -0.00699171 13.086 -13.7925 -2.72803 -2.67121 -1.98463
75 1 -18.6076 2.50838 -13.1236 -2.46925 2.06208 -0.424449
76 1 -23.6461 -3.53486 1.72237 7.69687 -3.4653 -3.51463
77 1 13.5124 -22.0178 -1.94145 0.807446 -3.63094 2.5516
78 1 -18.3732 13.0839 -7.80276 -4.57058 1.01442 0.721698
79 1 -23.8462 -0.671459 -15.847 -2.83408 2.19348 -4.85696
80 1 -13.6285 13.8087 -13.4651 2.60943 5.72975 3.80672
81 1 0.27491 -10.6796 -14.8554 0.234721 7.75539 -0.277114
82 1 5.40715 -24.2975 3.91087 1.08301 0.659364 1.60353
83 1 -21.4327 11.4474 -0.851677 -2.35642 -1.05865 -0.163535
84 1 21.1919 22.5721 21.1595 -1.58276 1.25372 -0.0879313
85 1 5.8421 13.9944 -2.23749 -2.51027 0.534664 -1.21209
86 1 13.1409 6.84876 14.6442 2.98207 0.166121 0.329854
87 1 0.930373 17.1852 -7.65823 2.92505 -0.932504 1.54927
88 1 -10.023 20.6081 -20.086 2.22455 2.72896 -2.78286
89 1 -10.5588 -3.90909 22.7139 -0.0832106 -1.16937 -1.76408
90 1 8.51151 -4.0963 5.94855 -3.31957 5.69192 -1.63661
91 1 17.6285 18.2877 -20.514 -0.803251 2.6697 -1.82939
92 1 15.7584 -22.4823 -0.0718881 -1.89806 6.24153 -3.3805
93 1 -20.2541 -22.4792 17.9058 1.51433 1.59347 3.78274
94 1 22.5046 2.06385 -11.4508 -4.69621 4.17987 -4.18682
95 1 3.06052 -4.29111 -12.8045 3.31847 -0.695268 -0.326937
96 1 -24.2888 -16.2117 22.0845 -3.71717 2.40557 -2.86455
97 1 -8.079 -13.6688 -21.6803 5.28411 0.10809 4.48697
98 1 -3.20826 15.3295 12.2077 0.800443 -0.898879 -2.10309
99 1 17.3532 -21.8102 -5.70311 0.858078 1.58024 6.78309
100 1 -23.6246 -14.6941 -24.0494 -2.1069 -0.988086 3.58355
101 1 0.482737 -20.4609 -9.84175 -3.05974 3.43573 -3.10133
102 1 4.33494 3.07843 5.12716 2.07184 -0.252832 2.98297
103 1 19.458 24.7504 21.8442 -1.36516 5.16615 -0.283819
104 1 -14.014 -22.7016 -10.2211 0.435417 -2.24552 3.95525
105 1 4.56034 18.4701 -19.3996 -0.185413 -0.722281 -2.17596
106 1 15.066 3.28608 8.64796 0.785955 0.364842 -0.0875785
107 1 21.0916 -2.46802 19.1003 3.50473 1.65276 3.51699
108 1 -10.715 2.73333 23.6472 -3.91814 -2.82567 0.585357
109 1 -12.3649 16.4114 -14.5697 4.06673 -4.37328 -3.83513
110 1 9.52939 -13.3699 -8.97611 2.65821 2.2613 -4.81697
111 1 22.6599 -4.18822 -11.5448 -2.75833 1.97217 0.279027
112 1 -17.1418 1.31686 -21.8085 -2.63236 -2.16007 5.67423
113 1 -4.76865 -8.52769 19.4631 2.52122 -1.07644 4.01693
114 1 -22.9981 -18.4085 20.2133 1.19025 3.14302 1.07787
115 1 7.21398 10.9222 6.06579 -3.49019 -0.310464 1.19359
116 1 2.83367 -14.9653 -17.1317 -2.3998 3.79679 3.34131
117 1 20.056 17.1299 -19.5236 2.19023 0.487496 -1.31469
118 1 4.59889 -18.1947 -9.5734 0.201832 -1.08604 -1.79816
119 1 15.4261 10.7789 -9.02371 0.359088 5.30198 1.00058
120 1 3.79547 -0.718832 19.5573 0.257185 -6.44761 -3.01063
121 1 -5.68033 -18.0025 23.8631 4.42584 -1.65057 -0.672278
122 1 -7.30155 5.36363 22.3616 0.225982 1.38708 3.70694
123 1 11.9042 14.7033 7.74197 2.85885 -2.09955 -1.68903
124 1 22.9878 -20.3864 -15.4915 -0.73644 -1.89616 2.63791
125 1 15.319 9.69483 0.169297 -0.450175 -1.92118 -4.20069
126 1 -9.76425 -0.112207 -5.05681 -2.90927 7.33186 -7.75753
127 1 9.13988 0.308332 14.9263 -2.38111 -1.07544 1.25843
128 1 -18.4363 -0.524464 -9.2357 2.45291 -0.320797 -1.60591
129 1 15.6655 -11.3612 4.05209 -5.05807 -6.54314 -3.82227
130 1 -9.885 16.1402 -19.6833 -0.50727 -4.34921 -3.94653
131 1 2.829 -8.25584 -20.2206 -0.213845 -3.44714 -6.51643
132 1 -7.18003 -4.51585 -23.3604 3.32483 -0.777071 -1.66448
133 1 -17.8975 3.22907 17.675 -1.42654 1.37937 4.863
134 1 19.9967 -8.27931 -23.0496 1.00122 -3.13557 1.27036
135 1 -14.2995 -5.41841 -21.5134 -0.635321 1.8494 -3.75018
136 1 -0.0571808 5.32384 -5.63767 -1.03486 0.649926 -1.71896
137 1 -10.5879 4.37996 -14.0906 -4.01354 1.31721 3.27939
138 1 12.16 16.2816 5.29317 -0.132517 2.69326 -0.837107
139 1 -19.385 -18.4507 -15.9708 4.49211 0.371005 5.82917
140 1 2.74956 -6.43501 19.8634 -1.1746 -0.0634548 -1.88065
141 1 11.7891 -17.4151 3.79365 -3.52216 -1.16312 -4.15138
142 1 13.3104 2.8446 23.047 -2.81637 -1.03912 0.041511
143 1 -3.63699 -2.29576 -3.92716 1.53235 -2.03077 0.66116
144 1 -23.4246 -7.96805 -15.5323 1.2931 -3.04884 2.48057
145 1 17.354 6.52903 20.5553 -1.93061 1.68174 -3.19099
146 1 -11.8015 -10.6497 14.4226 -1.43355 -1.79677 2.33592
147 1 10.0349 20.9277 4.62136 1.51569 0.52362 4.11769
148 1 -18.4942 12.7015 12.3008 -2.43241 0.613101 -1.10822
149 1 -19.0884 -24.3512 -19.5189 -1.4253 2.86878 2.86061
150 1 20.8478 9.83816 19.9694 1.09816 0.599987 0.178794
151 1 19.6704 1.37998 22.9357 1.35903 -0.199515 3.12315
152 1 -5.88084 -3.77509 17.8717 -1.10212 1.17776 -4.68901
153 1 8.97715 -14.965 -2.80074 -3.31495 -4.88238 -2.41789
154 1 -8.89319 20.4855 -5.13798 0.551853 -2.61687 3.26619
155 1 23.0181 -20.4801 -19.6484 6.90895 0.286245 -1.36846
156 1 16.1142 10.3284 19.0347 -3.33237 -2.30858 0.634309
157 1 12.3357 -13.2771 -15.1974 2.51053 -2.64907 1.25263
158 1 9.70655 7.21561 3.34918 -0.0807364 1.91781 1.02203
159 1 -22.5315 -11.8983 12.307 0.573614 1.64839 0.284247
160 1 -4.30302 -15.91 -3.6494 -1.88893 0.483542 -3.58354
161 1 17.7027 0.923086 -14.8445 6.80728 4.29703 -3.65351
162 1 -16.1185 -10.3697 20.4371 3.16838 2.17529 2.97292
163 1 2.37315 0.717454 17.2613 -1.27185 -0.301541 -0.507323
164 1 18.1345 7.47793 13.5426 0.197465 1.64484 -1.50429
165 1 -19.0192 10.7476 16.6881 -0.601176 -1.05859 -0.941014
166 1 10.6051 19.5906 -22.7656 -2.0873 -1.09005 -0.048461
167 1 -12.5503 1.08096 -3.15159 -4.15707 2.58279 -2.97413
168 1 -24.7151 22.5776 -3.53421 -3.47507 0.0681159 0.438967
169 1 4.40097 24.2801 -12.6039 0.813236 2.57513 3.3551
170 1 -6.21403 -18.7649 -13.6425 -1.47357 -0.28096 1.10416
171 1 -15.389 1.01096 15.8055 1.126 0.129892 1.16355
172 1 -19.0568 20.4031 -20.0051 3.435 4.10711 -2.30959
173 1 -21.9216 0.0208661 22.1425 0.289398 0.345279 -0.688268
174 1 -18.8701 6.0744 -21.9197 -1.88234 -3.2213 1.44948
175 1 9.92285 18.1202 5.46254 5.57591 -4.71834 5.04034
176 1 -3.56238 22.6537 -3.66107 6.0515 -1.03005 0.188063
177 1 -4.20083 -19.3909 12.6189 2.27307 -1.70329 -4.05959
178 1 -17.0746 9.81467 5.97751 3.1114 -4.07611 -0.0955951
179 1 -6.44765 -7.39665 -12.8522 -4.28507 -3.11868 -1.09519
180 1 -23.7298 18.8545 9.47769 3.45661 0.489065 2.1314
181 1 -4.42866 -4.18414 -20.8872 0.753603 -1.56961 -1.101
182 1 -24.0472 -1.88674 17.5101 -0.943707 3.06379 -0.855394
183 1 20.5596 12.8743 -4.13574 0.220996 -3.9851 -1.94137
184 1 5.49408 -23.2817 -21.7183 -6.41403 -1.67781 0.905566
185 1 21.1448 21.6967 16.5282 5.69482 2.59039 5.82898
186 1 14.2277 23.5931 -9.23719 -2.17167 -0.417762 3.45313
187 1 -11.6575 7.01149 -6.62471 0.506314 1.80469 -3.31545
188 1 6.88073 -22.3978 -4.4184 -1.20691 4.01303 2.93498
189 1 -3.70422 -4.93118 3.38754 3.09657 -0.779147 1.39708
190 1 -15.1142 10.626 -11.2859 -0.139478 -3.98528 0.867013
191 1 2.83974 -4.23256 -22.2885 -3.48396 -1.33119 0.930983
192 1 7.61013 5.23847 -4.01572 2.58597 -1.44196 -2.32165
193 1 9.06115 1.25171 4.5465 -1.07532 -0.431245 0.0332579
194 1 1.2465 23.8122 -22.1818 3.86232 -0.334104 -0.523077
195 1 7.31257 -0.344357 -9.45618 -1.77928 -1.84234 8.55291
196 1 -15.9536 21.9229 5.71054 1.67524 -2.73032 -2.86052
197 1 -24.4425 -3.50066 22.9262 0.368908 2.93553 1.21511
198 1 -10.2679 -19.3245 -17.0663 1.75221 -4.39269 -1.09859
199 1 -23.2544 -4.0663 -10.83 -0.313632 3.38879 -1.43959
200 1 15.7524 7.88551 -16.795 -5.38861 -2.6859 4.1705
201 1 7.37884 4.48147 -23.4307 1.48084 2.44574 -0.601475
202 1 11.2396 13.3523 12.7028 1.6912 -0.335513 0.384374
203 1 -23.4859 18.2604 6.7676 -0.551953 5.21073 -0.0277246
204 1 -6.83299 -16.4149 -9.04329 1.21375 1.51919 2.38531
205 1 19.6979 -5.89419 11.3036 5.14747 -2.52748 1.43164
206 1 -2.69003 -14.4941 -19.347 3.40269 2.49523 -0.859786
207 1 -7.74341 6.89324 -23.6706 -0.95006 -1.15268 1.64039
208 1 2.57933 -5.87215 16.7884 -0.845841 2.09789 1.40462
209 1 -6.86288 16.1287 -15.4437 4.68716 -6.79941 -0.930753
210 1 -18.5485 12.118 -1.05884 -1.45637 -1.97333 -0.417477
211 1 17.5985 -0.641508 6.89517 -1.61972 -0.262454 -1.07966
212 1 -14.8031 23.9603 -4.80302 -0.146891 -4.07472 4.19541
213 1 -21.0148 -18.897 -1.66693 2.19775 -5.96619 -3.71429
214 1 16.0523 -4.16027 -21.1589 -0.618102 -10.4365 1.39544
215 1 8.96027 23.0257 16.4477 2.97787 1.39336 -0.176745
216 1 -19.2086 -25.007 8.28139 -3.35236 0.532621 -0.171821
217 1 4.00151 21.6744 8.49339 -3.38675 -3.85603 3.86026
218 1 12.1655 3.95188 -2.96305 -6.99634 -1.08339 -2.49092
219 1 -5.95443 22.5012 21.0527 1.03673 2.96946 0.935275
220 1 5.56429 19.2914 16.603 3.81144 1.59084 -4.6936
221 1 -16.3928 3.09173 -2.66619 0.503641 -5.77093 -3.32739
222 1 -12.4618 -8.86513 -0.192195 2.92884 -0.729164 4.00648
223 1 -23.8413 -5.67818 -0.0904796 0.154459 3.2321 -8.21384
224 1 -13.0069 -3.36288 23.814 -0.761723 -1.85615 -2.87467
225 1 3.35646 -13.86 -6.2414 0.103665 -0.545605 4.57776
226 1 23.2249 16.0132 -14.0785 1.06323 -2.11872 -2.43803
227 1 16.4523 16.5411 1.66544 -3.56919 2.73343 1.74009
228 1 -10.1579 19.0712 0.182861 -0.809339 2.45592 4.81962
229 1 10.5539 10.9242 -10.4322 -0.201358 2.67665 -1.45121
230 1 -8.22465 13.6961 19.9359 2.80032 0.634861 0.941744
231 1 -24.521 -2.59208 -21.6099 3.29069 -1.90607 -0.356055
232 1 -1.89512 -13.4455 10.9848 3.21244 0.682974 5.16639
233 1 -12.7484 16.0726 11.6574 1.76248 -0.721116 2.18495
234 1 -5.9917 18.6746 7.79725 -0.0421234 -0.890094 0.278771
235 1 -22.3923 -1.17135 -9.77167 -2.54968 1.04235 2.64618
236 1 17.0319 -9.08917 8.38056 -1.5881 3.51942 1.106
237 1 -16.1839 21.0456 1.33183 -5.31726 1.0454 -0.058536
238 1 17.2692 -2.39355 23.8951 -1.89096 3.34115 -3.71842
239 1 -19.9837 19.3206 17.4917 1.56661 -0.461531 -0.497327
240 1 11.1535 1.16047 16.7529 0.299843 -3.0279 0.808147
241 1 -22.7926 -15.2272 11.5195 -4.74352 -0.227164 -5.04542
242 1 -9.55285 -4.5216 -12.8185 1.83079 -0.884716 -3.16064
243 1 -7.25533 -8.86546 11.2493 -1.08155 -0.985922 -2.21013
244 1 -20.6112 10.5284 23.644 -0.366407 -2.76351 -1.01778
245 1 -10.1324 23.7954 -11.7932 2.44706 2.77223 -3.97981
246 1 10.1661 3.30645 22.4958 0.897766 -2.02922 -0.666632
247 1 -24.4373 -6.85696 13.5885 -0.0215828 0.276509 -1.60258
248 1 -17.7174 7.17336 -14.0674 6.52433 -0.678908 4.12314
249 1 -1.50762 -18.9323 9.73816 3.84249 -1.36864 5.43103
250 1 -0.545237 -1.68589 6.24559 -1.41 3.77146 -2.60867
251 1 -21.9598 -1.42843 -22.3082 -0.0414526 4.29823 2.38137
252 1 19.8296 16.4025 -11.9608 -0.363952 -0.81805 -0.356754
253 1 -1.27651 -2.98868 -23.5043 -0.0693837 0.476541 -0.0350217
254 1 5.65649 -11.6139 -9.148 3.19102 4.66445 -8.14906
255 1 23.5543 -22.0621 10.3685 0.495267 -4.4734 -0.662548
256 1 -11.8057 -5.23516 -10.8178 2.8917 1.47853 2.18129
257 1 -1.1478 4.08996 -21.759 2.24929 -1.82694 0.40047
258 1 -5.69114 -2.01546 -7.07501 -2.71803 -0.223221 0.765443
259 1 17.5497 -15.7125 -18.2884 -2.83289 -0.132119 0.679123
260 1 14.4601 7.92153 -3.59339 -3.27145 -0.436348 1.00933
261 1 -2.75996 -24.6734 11.0834 -0.360091 1.26351 2.92796
262 1 17.9374 19.0997 10.5135 -3.37942 -0.414567 2.87646
263 1 -20.4565 8.33475 -9.40637 3.47948 -1.66212 -4.16588
264 1 23.0375 3.98605 17.3188 0.449138 0.888162 0.916888
265 1 13.4535 -16.3146 -6.65459 -2.60226 5.28629 -6.73887
266 1 22.7008 4.16902 -15.9037 6.02457 2.20991 7.7912
267 1 -12.126 20.4522 -10.6813 1.59995 -3.48546 -2.01001
268 1 -20.7021 18.3345 -12.798 -0.690492 1.15024 -4.34597
269 1 -19.3261 -8.28303 -14.2697 -5.2558 1.633 2.69316
270 1 -22.942 -16.4755 18.0859 0.966201 0.325606 -1.39481
271 1 2.21089 22.7041 -12.7018 -1.68556 5.32903 3.4621
272 1 11.7068 -17.937 12.0582 -5.36923 8.32925 0.494749
273 1 -18.1339 -11.0238 12.9277 -2.06177 -0.85408 0.119204
274 1 12.2065 -12.4478 8.39824 -2.49247 0.288691 -2.60499
275 1 12.6707 22.6052 -21.0026 -1.9736 -0.924765 1.58017
276 1 21.5503 6.27733 -8.98088 -6.74471 1.53441 -1.41064
277 1 11.6411 -13.5172 -19.71 -2.43486 1.12847 -1.53228
278 1 20.3629 9.70407 16.9735 4.95017 1.29809 -5.09301
279 1 -24.0875 -1.97574 -0.758059 -3.28969 -4.98895 3.94069
280 1 -3.57002 -19.7126 -12.7477 2.23313 -3.47187 0.777329
281 1 15.2016 19.261 13.4724 -1.16666 2.74914 -0.53385
282 1 12.564 10.7501 12.3596 -0.735443 -1.53938 -0.651831
283 1 -4.43295 -19.7209 -20.9769 2.16719 -0.929502 -2.34287
284 1 1.89961 13.9832 2.30449 1.18728 2.00854 -1.58535
285 1 -15.3077 18.1373 15.1301 -0.542308 -3.67949 0.252149
286 1 -4.93109 16.839 -0.61429 -3.35197 -1.62644 -4.22779
287 1 4.8754 -9.36424 -7.60832 -1.48225 1.42936 1.62107
288 1 17.3524 21.9661 3.69862 -1.35193 -1.51648 -1.41882
289 1 -5.87667 -21.9789 10.8129 -3.2453 2.09323 -1.8238
290 1 -5.43022 -12.4681 -15.5405 1.18473 3.82766 -0.10201
291 1 -12.0049 -18.0459 11.815 -1.20159 -1.35235 -2.87281
292 1 15.4276 8.24971 2.72546 2.89237 -0.767884 -2.21595
293 1 14.1156 4.05419 13.736 -1.60905 2.20179 6.09902
294 1 -8.52474 0.70431 -1.33244 3.84351 4.15845 0.784684
295 1 0.02709 6.95057 9.41113 -1.91794 3.60466 -1.3248
296 1 1.68924 14.4424 -1.87131 0.88862 -1.57345 -1.40339
297 1 20.0714 -7.24233 -7.62425 0.250898 -3.26289 -2.44068
298 1 14.7656 -19.7761 -21.0198 -0.291169 -2.74998 5.59105
299 1 5.03709 -21.8667 -12.6294 6.0173 2.23483 3.64937
300 1 14.5497 -3.86688 17.5823 -0.754476 4.50944 -0.69748
301 1 -6.09692 20.9671 -21.575 1.76569 -1.7759 -2.273
302 1 0.60368 7.97217 -2.11101 -0.483795 -6.89927 2.97799
303 1 -20.5399 -17.953 -7.98882 3.95863 1.70924 -0.32909
304 1 -20.6951 -17.4158 14.5595 0.41072 3.15177 6.17481
305 1 4.11612 -20.582 21.8391 -1.07121 2.15504 -2.11306
306 1 13.4244 20.4708 -11.8516 1.84679 3.65274 1.8643
307 1 13.6938 12.4647 -23.8393 3.99393 1.76652 0.34261
308 1 -18.992 -21.9806 3.71428 -1.26428 1.52851 -1.8168
309 1 6.09727 -19.0295 18.884 -0.0318978 -1.87682 -7.64218
310 1 2.04649 12.9824 14.1147 -1.99868 -6.21755 0.539928
311 1 13.0966 -10.3936 1.49916 0.255151 4.19073 1.12507
312 1 -7.23995 0.607408 -9.12447 0.0010704 3.67957 -5.23235
313 1 -17.194 -14.3778 -9.44835 5.05613 -2.5378 -5.02192
314 1 -12.7079 4.95515 -8.18672 2.16569 2.61332 -3.43131
315 1 -16.324 -23.0529 3.41294 -7.8524 0.846104 -3.67757
316 1 22.3564 -5.26242 4.10065 -0.260832 -5.11456 1.19204
317 1 -9.98139 -10.4981 -23.3941 -4.43211 -2.98957 -3.56613
318 1 20.5602 -17.3368 20.4236 -1.29704 1.60821 -2.45804
319 1 -11.4949 2.5325 14.3676 0.280696 -3.71514 3.50549
320 1 -1.95727 -1.28497 8.9342 2.68178 -4.94519 4.32976
321 1 -19.8792 -10.6646 -12.9718 -0.630659 4.50419 -1.58443
322 1 -11.8209 12.9264 -0.753608 -3.60365 -1.79371 -1.29845
323 1 -13.8205 0.991571 2.94427 3.24801 -3.49486 0.59369
324 1 22.8024 4.01517 6.33113 0.760901 -4.46578 6.51657
325 1 -1.24796 -20.747 19.3002 -6.46907 0.733547 -3.5995
326 1 -18.3825 4.28758 1.25524 1.38109 -2.27846 0.0127552
327 1 -6.92758 -10.356 20.621 -4.35045 -7.09908 -1.30792
328 1 14.6761 20.7269 15.6872 6.32207 4.09656 1.65097
329 1 -0.817064 0.364403 -10.89 -1.07295 3.32363 0.628836
330 1 -14.8212 -23.2517 23.5439 -6.60501 0.39829 1.24868
331 1 12.5379 7.22964 3.74443 -2.57759 -4.90189 -2.85571
332 1 9.90016 0.543395 -9.82345 -2.18391 7.9518 1.13358
333 1 9.19982 -10.4861 -15.1863 -5.6175 0.323123 -1.65144
334 1 4.64917 -21.4791 -2.63735 -1.7202 -0.280052 3.94305
335 1 22.8474 -23.451 4.68878 3.87612 -4.41671 -4.36646
336 1 19.2959 14.7974 -22.192 -1.84651 -2.73782 0.719604
337 1 -18.2975 18.8349 0.849421 -4.97909 0.44563 3.94461
338 1 5.79774 -8.59775 18.1679 -2.26258 -6.4464 -2.78604
339 1 -6.58205 -15.7393 -23.2214 -0.249487 7.29372 0.855438
340 1 -13.3234 2.6005 -18.6481 1.10952 -2.6277 0.871791
341 1 -10.5242 1.38407 -14.0824 0.420375 -1.67783 -5.3699
342 1 -1.5517 -15.7393 -10.5654 -1.69326 2.14122 -0.131809
343 1 -3.11914 -11.9466 -5.79914 1.2412 -0.564917 -0.891252
344 1 9.46052 -16.4844 -11.554 -3.34085 -1.52584 0.365469
345 1 -11.2595 -5.07535 15.1643 -2.26943 2.87013 2.36346
346 1 15.8708 1.77368 5.97462 4.2133 0.938196 -0.203266
347 1 20.1645 -6.06152 8.41471 2.22584 4.04632 -0.141749
348 1 -11.973 -3.34864 10.2541 -5.40827 3.71053 0.665885
349 1 -6.07046 10.0345 21.7507 0.805912 2.08758 1.94907
350 1 -22.5457 17.2658 22.6943 -5.13187 -4.06403 -0.593738
351 1 -17.3124 3.20593 11.545 -2.44766 3.31263 2.30895
352 1 15.6103 1.44106 0.861069 -0.0636801 0.0765127 0.658132
353 1 18.1706 -21.6719 -15.8629 -1.39646 1.31939 7.95585
354 1 9.94983 22.5643 -7.33272 -0.429198 -2.84659 -2.00673
355 1 -4.7949 -1.73779 7.73682 0.412634 2.51838 4.28364
356 1 -2.48425 -18.3891 -22.7296 -1.18191 -0.56923 0.219864
357 1 -6.78731 -14.3477 2.12305 -0.213492 -6.56689 0.432441
358 1 18.9914 -12.5429 13.4296 -1.44 5.26473 1.66131
359 1 -14.1579 -19.6727 -9.81828 -2.22597 1.38257 -2.85956
360 1 5.76794 16.6295 1.1344 -2.84986 -2.65451 3.74244
361 1 -23.2365 -19.5797 -3.48283 5.8403 -1.69416 -3.10017
362 1 -20.9871 11.3253 4.72817 4.98416 -0.248272 3.11224
363 1 -19.5708 -18.8318 9.97738 2.18471 -4.64344 -3.59764
364 1 -10.5424 2.8462 -4.84291 -3.65863 3.03334 -0.394946
365 1 -0.950532 -17.2204 19.7624 -3.89645 -3.11039 2.87754
366 1 -20.9736 1.32744 -9.83225 0.0352223 1.24081 0.451883
367 1 6.89053 17.5137 -17.6676 1.42129 -1.01666 1.28021
368 1 3.85762 -6.60521 11.7843 0.600108 4.55157 -0.49091
369 1 14.1191 8.09234 -14.1333 1.0164 -0.65972 -0.83984
370 1 4.41886 -14.054 -21.9176 4.1925 -0.411115 3.4874
371 1 -10.7612 -24.7055 17.8621 -0.803666 -3.04161 -1.40344
372 1 -7.96921 22.4921 7.82808 -0.938248 -3.83447 -1.49076
373 1 -16.6268 5.83683 22.9287 3.31769 1.51831 4.94132
374 1 -5.21387 18.3852 -11.8623 -2.63103 -0.31551 -3.56605
375 1 -22.8785 -6.18962 23.251 -2.56178 4.8945 1.22148
376 1 -5.77455 -15.4313 -16.1225 -1.70025 -0.634002 -3.01287
377 1 14.5274 0.181278 12.1183 -1.61451 2.79825 -2.79603
378 1 17.8056 -13.9106 -3.98676 1.41281 -0.809392 1.68685
379 1 -24.0403 23.0302 2.83518 3.04145 1.96955 2.62587
380 1 13.9782 16.5019 -20.5234 0.072366 -4.01414 -2.34612
381 1 -22.7891 -12.9784 16.157 3.10304 -3.63601 -0.497787
382 1 16.8122 16.8289 -2.94861 5.1094 0.847157 -2.67499
383 1 10.6084 -24.6676 8.60182 3.80256 -0.554083 -2.69323
384 1 -10.9495 9.83739 -7.39685 -0.00484677 2.92872 3.24887
385 1 -8.10238 2.3128 20.8544 -1.76999 -0.3812 -2.12293
386 1 18.1357 -2.73874 -20.1322 -2.7041 0.494741 -2.13965
387 1 5.26528 -20.3653 0.917503 -5.17324 -11.7392 2.25367
388 1 -18.8678 -24.7162 23.7044 -1.92466 -4.99599 3.18218
389 1 -13.2537 7.59017 8.12488 -0.961943 4.49564 4.7906
390 1 12.7341 6.87695 8.37774 -2.34366 3.97956 -1.0333
391 1 17.0749 2.34031 19.7259 5.08515 1.40261 2.2314
392 1 19.3874 -11.2806 18.524 4.31261 -4.50559 -3.33066
393 1 -13.6613 -18.4682 -12.6023 0.476246 -1.85549 2.77284
394 1 -8.95786 11.5667 -5.65872 -2.27573 0.316435 -6.06955
395 1 -9.03262 -24.3636 20.1555 0.557222 -1.26193 0.196725
396 1 10.7324 -19.9605 0.403952 -1.62609 1.1101 -0.119954
397 1 3.67401 -21.0283 18.9431 2.79938 0.401832 -2.03413
398 1 -24.2926 -20.3605 -6.14733 1.51471 -0.842408 0.247722
399 1 12.9496 15.1645 -0.107125 0.243649 1.48139 0.103637
400 1 -23.4221 -15.6328 -2.56083 4.23212 -6.27162 -6.2032
401 1 21.4397 -16.3942 -6.06724 -1.95449 -5.01721 0.980121
402 1 -1.23454 8.09333 21.1482 -1.4495 1.80197 3.54347
403 1 14.4449 -1.44453 23.9831 2.18414 0.168273 -1.58156
404 1 -15.4392 -1.49265 1.98911 0.320655 0.837642 0.117549
405 1 5.87433 -24.022 -6.60317 -0.127724 -1.67264 -1.25359
406 1 -8.2964 -19.0245 23.3452 3.67295 -0.106755 -0.671781
407 1 2.54342 -11.2165 16.3549 0.56645 -1.76369 0.94616
408 1 -1.20648 -2.3785 -18.3675 -6.07869 0.250877 -2.25823
409 1 1.5761 1.95599 -6.93737 0.705714 6.37086 2.90152
410 1 -15.309 11.3868 1.67796 2.41492 -2.20126 1.42468
411 1 -2.05249 -3.26754 -8.81766 -2.66111 0.396329 -0.359658
412 1 -17.2434 -6.821 5.96963 1.62624 1.76153 5.10077
413 1 -23.446 23.639 0.0059144 0.0116506 -0.320895 -4.01574
414 1 4.27799 18.6 -14.7104 -4.33848 1.96674 0.827769
415 1 -18.1384 6.47551 -9.72542 -0.419154 1.6085 2.87877
416 1 21.7635 1.17189 12.2781 1.33018 1.83932 -1.23725
417 1 -14.0761 0.908539 11.3459 3.36434 1.07421 -1.37822
418 1 23.0524 19.9829 6.22654 -5.66125 -1.02626 -2.05703
419 1 -24.4986 3.05459 -24.3714 -2.66191 3.91004 -4.95028
420 1 -2.44263 -3.33415 12.5087 4.21586 0.189311 0.796085
421 1 -16.5055 -22.0705 -14.898 -1.19869 -2.91272 1.12392
422 1 -2.96869 15.0946 -24.0819 -1.54206 4.24544 -4.23995
423 1 -9.07993 1.70993 2.97246 -0.514727 1.56108 4.21856
424 1 4.59955 -5.66594 -2.31142 0.919525 2.94706 0.875217
425 1 -20.6792 13.7135 18.4056 4.44799 -0.202211 -0.476645
426 1 -16.299 -2.40918 -9.3556 2.98931 3.79316 -2.71701
427 1 -15.5606 -23.6891 20.8556 5.33742 -4.1152 0.321644
428 1 9.43955 11.4397 -5.93699 2.3869 6.02456 3.25971
429 1 -5.40975 9.32687 -13.3113 1.19749 -1.40063 -1.11701
430 1 -21.8645 -2.4022 23.8934 -2.9095 -2.64904 2.16904
431 1 11.6597 -6.76287 -15.9156 -0.792927 -2.07231 2.64314
432 1 8.33891 -5.431 12.6421 -5.55939 0.65692 -0.148247
433 1 -18.4679 2.25153 -17.6494 0.0359543 -0.128752 0.345777
434 1 -12.8788 -2.44013 -10.7419 1.43766 0.175702 -3.75112
435 1 3.99439 23.3833 6.1049 1.44228 0.668822 -1.22916
436 1 -14.6529 -10.4963 -8.17119 1.86664 2.52758 2.55013
437 1 20.076 18.2697 -9.74132 0.230258 -3.82442 -0.526402
438 1 -18.9698 5.61633 -4.42987 2.53382 2.31047 1.23816
439 1 -2.33357 22.8444 -6.31663 2.02926 3.36293 -1.82324
440 1 -10.1976 14.4667 -14.0238 3.59025 -6.73014 -2.12047
441 1 17.6978 1.97669 -4.49258 -6.00968 -4.64405 4.25548
442 1 5.65393 3.0934 15.7421 -0.122203 -0.640546 -0.596898
443 1 21.7214 23.4075 14.4043 -2.32396 4.32943 0.310524
444 1 -23.4785 7.643 -18.0226 5.6569 2.53231 -6.58285
445 1 20.9146 -7.8155 -11.6681 4.70977 4.03397 -0.281103
446 1 22.4516 -13.6726 -7.74746 4.6947 7.58849 -3.91705
447 1 7.62673 18.89 14.2025 1.791 -8.93632 1.5111
448 1 -16.4928 -1.00086 13.8965 -0.479543 -2.00222 1.21649
449 1 14.1134 -4.13824 -1.78739 1.14186 -3.57731 -0.0908007
450 1 15.6492 -20.6077 6.22957 0.290137 2.53525 3.41361
451 1 -24.5651 -11.6474 -19.9628 -1.58689 6.21447 -6.94455
452 1 23.241 15.1401 0.00669667 7.15042 -1.25021 -2.27142
453 1 -16.8308 13.222 8.55551 -3.29688 3.9914 1.07257
454 1 -4.74826 1.32924 -15.0434 -0.607583 -0.686863 -1.3494
455 1 13.8422 -11.9555 14.9547 -1.21511 -5.74691 -0.164299
456 1 -4.53077 14.7264 22.2343 0.561289 2.59656 0.74227
457 1 7.52972 21.1408 17.9723 -0.663058 4.40692 -1.34173
458 1 22.7742 19.3044 18.6224 1.48362 5.5878 -0.918595
459 1 1.90738 6.48232 -13.8185 2.55025 0.699333 1.65348
460 1 6.13258 8.02562 -23.2443 2.83088 3.29414 -1.57328
461 1 3.91418 -1.01559 -19.9563 2.04364 2.68749 0.726409
462 1 -6.91977 -18.8395 20.7786 -2.08642 -5.18751 4.43914
463 1 6.76062 13.7151 12.1538 1.314 -1.41769 4.39414
464 1 -15.259 -24.016 5.68838 2.28099 6.78709 -0.897509
465 1 -2.45514 -12.776 3.92945 -2.45329 -1.76082 -0.978624
466 1 15.626 13.7094 -21.9486 -2.40185 -1.36904 -1.0026
467 1 -6.39627 -11.0472 12.8379 -4.80599 -3.9541 -4.86792
468 1 22.9639 17.1953 -9.29132 -1.38027 -2.30101 0.855189
469 1 23.7599 -13.3483 12.2723 5.43903 -2.81859 -1.00159
470 1 -20.5512 6.64774 -13.2339 2.94549 -0.945977 3.8602
471 1 22.4973 -6.9098 -9.29407 -0.167006 1.61943 -4.05208
472 1 -15.4469 -5.67054 18.0796 -1.73654 3.96959 2.75743
473 1 4.54039 11.9677 12.7305 1.94628 -1.08714 1.6704
474 1 3.23223 -6.92953 -11.5375 -0.710754 -3.22954 -4.78879
475 1 22.6491 12.1027 -20.6607 2.98815 -1.7164 0.249245
476 1 -13.5637 -5.55309 -3.44201 0.10674 3.4324 -4.33638
477 1 -11.6477 -10.268 -16.2305 -0.322627 2.3231 2.83986
478 1 3.45196 0.423709 24.1884 -2.24923 0.408198 -2.28047
479 1 15.4214 -16.7437 13.5609 1.07243 -2.78814 -2.01253
480 1 1.39415 -9.64718 9.051 0.683384 -2.0333 -2.4774
481 1 -1.49923 7.05811 -21.0296 1.85503 3.0407 0.305245
482 1 23.7091 -3.11721 20.3423 0.732753 0.332339 -0.293472
483 1 6.00818 -16.8804 0.0305704 -0.374161 -1.48597 -3.49128
484 1 23.3753 -15.014 -13.1978 3.18295 -4.1484 -2.51158
485 1 21.0698 -19.9753 -17.6569 6.51784 -1.85787 5.54572
486 1 15.2135 3.5093 -4.39667 1.50004 1.18162 -2.38156
487 1 3.00316 22.4533 17.2378 0.8776 3.04531 -0.857333
488 1 0.895049 -15.5562 21.5647 -1.3027 -4.07992 0.353093
489 1 -12.344 22.3073 -12.887 -0.020806 -3.73296 2.18979
490 1 16.1004 -15.6559 -11.9182 -0.126534 4.39571 1.05184
491 1 -20.5106 -13.0866 10.1376 1.44441 -2.28617 -2.99725
492 1 -15.8791 -16.5881 -11.8061 3.28516 1.53113 -4.76682
493 1 14.6491 0.289311 -15.1972 -1.26125 8.72934 0.175146
494 1 7.2582 2.99421 5.83826 -0.230089 -3.51824 3.57489
495 1 -1.80914 -10.3217 -3.48079 -0.124186 0.347747 -0.631875
496 1 5.30613 6.20486 -13.4942 -0.95093 -5.20477 -1.22686
497 1 10.6893 14.9428 23.6281 -3.33439 0.550072 4.84206
498 1 22.4759 1.0292 -23.7819 1.50251 0.0277056 -1.0463
499 1 -23.6428 2.66635 -10.181 1.91681 -0.865888 -4.58829
500 1 -6.04305 -16.0375 8.57497 -0.487575 -3.99527 -1.96974
501 1 -15.2136 -13.2728 -6.54576 0.263356 2.41461 0.342478
502 1 12.3088 -13.859 18.2923 2.48043 3.44816 3.921
503 1 9.19548 0.631295 -12.6876 -1.25116 4.80208 0.398664
504 1 -1.92735 3.85534 4.94865 3.79042 -0.189423 -4.38533
505 1 -0.800983 7.01365 -23.9599 -4.4376 1.62349 -0.758411
506 1 -1.31163 -19.7603 -14.7876 2.48027 -5.08908 -2.15519
507 1 11.8744 20.2987 -14.5185 -1.55232 -1.88846 -3.33932
508 1 -0.76673 22.6004 -10.36 -4.99676 0.314431 -1.56354
509 1 23.5913 14.9936 -19.026 -0.362846 -1.62882 0.585305
510 1 7.05448 -17.3391 15.4147 0.573228 -0.465152 -0.76753
511 1 8.52084 -14.51 4.5377 -0.735365 3.60256 4.03306
512 1 0.929242 -4.49991 18.9297 -0.515991 0.437191 1.25288
513 1 -19.9409 -13.5059 19.5357 -0.387557 3.01516 4.9979
514 1 -13.9128 18.4673 19.4572 -1.55779 -7.42753 1.96761
515 1 -1.09667 7.47003 17.5254 3.87431 -0.960937 -2.86124
516 1 9.08227 -23.1532 -2.56849 3.35571 0.664638 -3.21504
517 1 -16.0084 -1.0267 -23.1124 -2.96923 1.38482 1.16413
518 1 22.4189 -24.1222 2.02213 -4.56759 3.16056 -1.71237
519 1 -21.4689 -12.071 -8.84765 3.05498 -4.19174 -1.77992
520 1 -5.33736 -24.4704 -13.5325 -2.83225 0.189772 2.31336
521 1 -9.73197 23.015 -6.4413 -1.47637 -2.74753 -7.76963
522 1 3.12124 -16.5615 6.53695 -2.05851 1.15114 0.899906
523 1 -9.42523 -15.8775 -7.61657 -2.70755 2.32709 1.67857
524 1 -1.46432 -2.92054 18.2702 -0.290813 1.50779 -2.80908
525 1 -6.95512 -1.68236 -2.24366 -1.69313 5.15688 -4.83769
526 1 -20.0653 15.0883 -5.01649 -3.50195 0.37341 -0.63723
527 1 -3.42623 13.7177 -8.29678 -3.25762 3.44009 0.814326
528 1 -15.2004 15.637 -11.9335 4.66969 1.94977 -0.830665
529 1 -9.39887 -12.1943 7.85213 1.67092 0.712163 0.856757
530 1 -9.03495 2.17335 10.1751 0.483859 -1.49509 1.0893
531 1 22.1406 -8.3914 12.7087 -0.044888 3.30632 -1.96443
532 1 -9.24964 -3.34354 -2.80872 -0.0810645 -1.3114 -2.29999
533 1 -9.91633 -19.116 15.0426 -1.08191 -2.73607 0.705806
534 1 19.6305 8.45719 -11.9077 -0.476369 -3.3416 1.34213
535 1 5.01607 10.5207 10.0469 -1.17927 4.21199 -0.0932268
536 1 -0.1365 -8.49391 3.881 2.99209 -2.21641 3.83555
537 1 8.76847 -4.57096 3.08777 2.04535 4.41884 -1.04292
538 1 -21.0618 -7.37819 11.6144 -0.261663 1.31021 0.397347
539 1 17.7138 10.6586 -7.505 3.49362 0.754335 2.08218
540 1 -13.9129 -11.414 3.47975 1.75598 1.80151 1.59959
541 1 -12.5457 0.118599 15.3689 -3.09469 -4.75391 -0.00454041
542 1 -24.5015 5.18694 -8.85237 3.12855 5.03564 0.166682
543 1 22.0332 -16.5512 -16.4711 1.80524 -4.61659 -1.95362
544 1 -4.61853 -17.473 -19.1931 1.88742 -0.181242 0.929025
545 1 22.1365 -16.7787 14.232 -0.386519 5.09887 0.526599
546 1 -7.29615 -15.959 -13.7955 -0.118669 1.44083 1.79895
547 1 16.7356 -15.5866 -21.9782 0.57912 -0.860413 2.05316
548 1 9.14526 1.4106 20.0246 2.27794 7.07783 5.47051
549 1 -20.1489 -3.9731 8.06173 1.19326 2.55037 -0.280818
550 1 0.696688 -21.2322 -13.5662 -0.3829 -6.87431 1.50202
551 1 10.0801 5.05128 -17.4913 2.8726 -2.41378 -0.544968
552 1 1.48475 -18.4742 -0.742305 3.46409 0.870945 2.6713
553 1 -11.7136 5.58928 -0.177065 -2.10607 -0.447063 0.375763
554 1 2.78823 15.9883 -18.7596 -0.180662 -0.271625 1.69352
555 1 -15.0222 -14.3793 -0.117968 -0.466238 1.2392 -1.60839
556 1 -10.8777 16.7654 -3.229 -2.48886 1.39754 1.50198
557 1 11.0156 -22.9056 -11.3234 -0.0246984 -4.11447 -0.762738
558 1 -4.41248 -12.5817 14.3502 -1.47015 -2.32756 -5.13677
559 1 -8.67353 -19.5992 6.57365 -1.02846 0.106759 -2.34187
560 1 22.8137 -21.1784 -4.00579 0.627321 -0.0335824 0.0912708
561 1 6.95578 -24.091 19.5885 3.99531 -0.608985 3.37312
562 1 6.77714 7.45306 -20.3925 2.01313 -1.74042 -3.45829
563 1 4.96523 -20.2813 6.3431 -1.45869 4.13965 -2.0587
564 1 -11.059 -20.4475 10.4386 -0.0808837 -3.74019 -2.53884
565 1 14.6996 -21.4506 22.1086 -2.55033 4.07053 -0.705444
566 1 20.3365 13.7906 14.7823 -4.08686 -0.683656 1.98049
567 1 -20.0555 21.8749 -2.62503 -6.03842 -0.0682758 0.724619
568 1 5.14531 -6.43283 6.44705 -0.966475 -4.7132 -0.233838
569 1 -6.34087 23.1715 -15.8157 1.23205 1.4587 -4.15141
570 1 -23.5563 12.7409 17.7618 0.255262 0.958251 -5.50222
571 1 -0.641432 -12.9308 21.37 1.22018 -2.39549 -0.661516
572 1 9.30511 -23.1593 4.02805 3.8992 -0.394866 -2.48076
573 1 17.7949 -5.93847 5.1616 -0.740439 -0.149916 -0.089757
574 1 14.4183 -21.124 -5.89574 1.43207 -1.45977 0.663737
575 1 -16.0522 5.49747 -4.04154 1.40165 -6.13384 -1.53873
576 1 20.5988 0.229083 19.1658 2.66422 0.203586 -0.730631
577 1 -6.91954 22.0507 0.584932 -0.528924 -4.76481 1.54582
578 1 23.7721 21.0628 -22.797 -2.18723 3.11009 -5.53649
579 1 2.84381 -19.8205 -11.9362 2.974 1.33395 -1.95547
580 1 -4.98857 3.05726 -20.9431 0.0573861 -0.0552885 -4.52922
581 1 -16.1157 -9.83623 14.9677 1.72709 1.79104 0.69725
582 1 -2.77765 -13.5824 -16.4504 -4.69414 3.23859 0.28007
583 1 -21.6579 21.8453 12.615 3.39084 -1.39513 5.78124
584 1 15.0865 4.73677 -7.21841 -2.39742 -2.80957 0.679786
585 1 -8.00101 10.8713 14.8984 1.22593 -0.578425 -4.43737
586 1 17.4184 23.0415 -20.9441 2.68919 -2.46617 -2.61162
587 1 -20.1529 -23.5456 -9.69912 0.230627 -0.448476 6.95605
588 1 -18.9314 22.1747 5.82053 0.416047 -2.82405 -0.556019
589 1 -1.89753 3.08376 -0.206966 0.271283 -1.74132 3.29293
590 1 -4.99078 17.5064 20.801 1.76936 -1.36423 -2.17809
591 1 18.6357 -18.8008 12.7077 -4.20683 2.47928 -1.64405
592 1 -15.7491 -13.7528 10.8259 0.614376 -0.159573 3.64335
593 1 -12.9569 -21.426 17.6081 3.6778 1.75648 -2.65846
594 1 -19.6833 -0.425044 2.91654 1.71764 -2.12186 -1.8328
595 1 9.05351 -17.4287 24.265 1.06462 -0.236186 4.08415
596 1 -12.9726 -20.303 5.94383 1.55602 2.28366 -2.33707
597 1 -23.5902 -22.4247 -11.9117 5.13278 4.32019 -3.92203
598 1 15.0733 -14.1645 4.70684 3.86634 3.25394 3.43761
599 1 10.9052 -14.4697 13.6012 -1.45911 -2.19269 -2.58198
600 1 -22.5696 24.5453 17.0339 -1.17584 -0.847894 0.363786
601 1 1.09276 -3.14053 21.6918 -3.28784 -0.5929 0.497087
602 1 -10.5933 4.1907 20.8703 2.43104 0.333163 -1.30335
603 1 -5.11656 6.31033 -4.04908 2.75767 -3.27183 3.15903
604 1 0.429532 23.2589 23.7616 0.606809 2.00373 4.72029
605 1 -21.3371 -2.54324 17.7086 -1.19206 3.30274 3.95086
606 1 2.69191 -1.56736 -22.6118 -0.421381 -2.96868 0.983395
607 1 -1.02178 -3.12116 15.3512 -3.77431 0.649899 -0.543389
608 1 3.76042 7.46363 -9.82148 -3.37583 0.471154 3.46425
609 1 10.1053 -20.6197 20.7292 -3.83207 -0.3726 -1.18545
610 1 16.7227 -3.71756 15.4916 3.05358 1.65505 -1.37521
611 1 -2.05841 -7.26094 -6.30591 4.82579 1.84542 -3.73942
612 1 -4.08424 11.9632 -13.1247 6.11477 3.8363 -1.80576
613 1 12.6347 7.1176 -20.8664 0.609524 1.88323 -1.64014
614 1 -18.6575 -9.29633 -5.56357 -2.8423 -0.900822 0.201512
615 1 11.7494 -3.38048 19.0045 -0.31467 -1.1163 -1.54849
616 1 17.7183 -2.5569 21.1862 -0.554207 1.53036 -5.10191
617 1 -11.8278 22.1381 -18.2712 -3.17702 5.76856 -0.622828
618 1 13.7041 5.97252 10.727 0.911615 6.93469 0.893296
619 1 16.4159 1.70639 10.6825 0.212657 1.69348 1.91918
620 1 20.8792 -11.7894 -9.56645 -3.39722 1.47585 -1.45978
621 1 -7.37563 13.8187 -13.6615 -3.66749 1.25717 1.26278
622 1 -22.6184 -10.0693 1.55664 2.41884 -0.286085 -2.50674
623 1 22.509 -14.0584 4.95771 -1.26347 3.44518 6.30096
624 1 -7.00586 1.26979 -20.0555 -1.64298 -2.922 0.196887
625 1 0.126148 -9.11725 -5.44191 0.765049 2.55708 -4.3868
626 1 -2.51024 2.62657 -19.2423 0.204164 0.177739 3.35027
627 1 20.5088 14.5156 12.0286 -3.25709 0.826695 2.09367
628 1 -22.3407 -14.9043 -0.111798 1.15356 -3.73613 2.75852
629 1 -5.51069 9.80098 -7.07657 -1.86946 -0.92767 -2.20138
630 1 -22.6163 21.3581 10.0172 -0.254493 -2.07736 -1.87198
631 1 -4.73892 -18.0097 16.9219 -3.51007 -1.94791 4.22321
632 1 -15.3756 -20.5566 4.25236 2.15576 0.738687 -2.57559
633 1 8.0236 9.88058 -24.0044 4.27179 -3.45256 0.646175
634 1 -10.1614 -2.39502 16.7377 1.22596 0.816472 -0.905059
635 1 8.09275 12.9955 -3.69349 1.06845 0.862213 0.1616
636 1 -23.0387 1.90334 -16.461 -1.15019 -2.26646 -2.01373
637 1 -9.50758 -23.0286 -23.7128 -1.23592 -1.55982 -2.85686
638 1 14.7626 18.1318 -4.57443 0.855572 4.93693 -0.803347
639 1 -11.0579 -17.6001 -22.8472 1.14122 0.804416 -0.759194
640 1 1.52671 -0.951526 4.38261 0.941961 4.27398 -4.10241
641 1 -13.7458 17.6364 5.78395 1.44376 3.433 -1.37137
642 1 -8.12909 -2.95312 5.10512 4.27003 -4.72323 0.858128
643 1 9.65032 -19.3227 7.71084 2.91724 -0.722974 -2.99217
644 1 -6.25222 10.8647 -4.2166 1.62018 -3.81925 -0.762438
645 1 -9.24341 -7.04069 -18.7235 -0.44878 0.55942 5.4798
646 1 14.9801 23.1127 14.274 -3.76502 3.15444 3.67885
647 1 4.13043 2.76047 -4.28169 1.37347 -0.472787 -3.22837
648 1 21.0645 -15.9583 -23.5228 -0.118225 0.400129 -2.251
649 1 10.3426 -16.9238 17.9002 -2.45435 -1.67338 1.19339
650 1 -8.42022 -0.457567 19.593 2.0561 6.70241 2.94621
651 1 -23.4048 4.52263 -15.2374 -4.77028 2.02006 4.31122
652 1 -8.23435 -4.17736 -19.1794 2.19268 3.23424 -0.766269
653 1 -23.3877 -19.9779 -13.6784 1.26368 -6.25666 1.97239
654 1 -10.9367 -1.0992 -20.1041 -2.4614 0.714692 -0.66854
655 1 -4.05024 -11.1169 -13.1566 -0.740163 -6.23888 0.165179
656 1 2.26831 22.2305 -9.77035 3.06574 -2.59114 1.53691
657 1 0.0674322 -4.89238 -13.7749 0.948941 0.555495 5.16024
658 1 21.1071 11.5265 12.9003 0.437057 -1.65242 0.287771
659 1 7.28373 -0.0912431 21.831 -0.372604 -5.13843 -1.31888
660 1 8.37593 4.41497 7.99411 -1.45356 2.92462 1.75654
661 1 -17.3218 -7.09006 -17.1369 2.11474 0.247699 -1.45719
662 1 3.54148 -5.55533 8.76616 -4.10971 -2.17699 -1.33508
663 1 -12.8837 -17.9776 -7.72809 -5.97246 -3.89797 -3.29642
664 1 -15.5443 -20.012 12.4811 2.85212 -3.93014 0.181998
665 1 -2.54408 -6.57402 19.0662 -2.63285 -2.60633 0.131618
666 1 -9.30742 -7.10916 -11.6011 0.811416 -2.24958 -1.49658
667 1 -21.2971 -19.9913 24.2104 0.228779 -4.02627 1.07597
668 1 -9.04204 12.1708 17.4509 -1.1602 3.18708 -3.92951
669 1 8.18036 -14.8568 15.1013 1.57104 -1.24604 0.296201
670 1 0.600719 -14.0136 -0.627766 -0.989018 -1.91734 -0.624384
671 1 19.9845 14.8089 3.30366 1.77891 0.930495 -0.486334
672 1 -25.0774 4.92895 -11.7087 -4.90583 -1.85793 0.0230475
673 1 -2.01388 17.7336 -23.6923 -1.21185 -2.60287 -3.71831
674 1 -8.71798 -0.270413 -21.8143 1.01424 1.06151 0.238014
675 1 -22.6842 -9.44061 -9.14997 2.48603 -1.62184 -3.49615
676 1 7.35725 1.78501 17.5162 -2.98553 2.09807 -1.50161
677 1 -22.4958 -10.3322 -12.046 0.339754 -3.47178 1.10106
678 1 -20.8849 -5.73978 0.115005 -1.06272 -0.717828 -3.39451
679 1 -18.8705 3.15683 -8.78864 1.15396 3.77612 0.127733
680 1 8.4303 21.1354 -9.52123 -5.43029 2.42116 -3.55417
681 1 -2.33131 1.06605 -8.63168 0.209293 -1.62468 2.80661
682 1 -3.15612 16.6368 -7.98612 -2.22985 -0.162319 -0.66537
683 1 1.22998 10.3497 -19.7682 -3.55407 0.312697 0.773245
684 1 10.3114 -20.1864 -11.6716 -2.42997 1.31824 2.33005
685 1 21.8711 0.110084 8.19376 2.42752 0.706008 0.0782994
686 1 -15.5843 -1.00648 17.6837 6.98623 -4.95325 1.8118
687 1 -14.2207 6.44086 10.722 2.03593 -0.312795 2.80687
688 1 -11.1313 -11.9925 -13.9998 1.62029 -0.132829 4.49587
689 1 -1.36922 -0.593085 -4.42119 0.716592 -0.367216 0.848051
690 1 0.549518 22.6666 -5.47845 1.84434 -6.5224 3.28909
691 1 0.30139 7.18706 15.0668 -2.41124 0.886271 -0.408328
692 1 -10.2692 -6.77762 4.1535 2.87973 -0.265929 0.557242
693 1 -8.70344 22.9163 2.76126 -2.10768 -0.108798 6.31953
694 1 9.48057 -18.1735 2.30551 -0.639314 -6.05958 3.71477
695 1 8.01897 -10.4708 -7.88472 1.29988 -2.03838 -3.0009
696 1 -8.33272 -22.4658 7.47746 -1.27512 -0.897463 -1.01865
697 1 -20.2667 16.0956 -19.2084 3.68295 2.30647 -2.94103
698 1 22.6138 -11.1612 -6.30961 3.17611 -3.30456 7.23554
699 1 -15.2231 -12.1884 16.4026 1.28026 -4.51088 -1.24344
700 1 2.8823 6.28688 -23.5605 6.15942 -4.92601 0.782351
701 1 18.3148 0.0518596 9.80524 3.68618 1.6696 -4.3261
702 1 -16.1335 -3.40987 12.1583 4.91765 -0.24964 4.28898
703 1 6.79153 24.4901 -21.9586 -0.803043 -0.844124 -0.29839
704 1 -10.3354 -12.4656 12.3064 1.1903 -1.54962 -2.35002
705 1 5.25696 21.0628 -15.7999 0.92714 4.50264 -3.4339
706 1 6.57628 2.91864 20.1477 1.03432 4.55712 0.92878
707 1 -17.4029 -0.561845 21.6674 4.79796 -2.73336 2.24569
708 1 10.5061 -5.90139 -18.5723 -1.00314 -4.65773 1.74502
709 1 -9.86867 -3.46033 -7.04239 -0.0767478 0.387315 0.529208
710 1 -3.59361 -9.68556 13.6125 -2.09109 -1.54206 3.04237
711 1 -14.3719 -5.77847 -14.7428 1.12088 4.8173 -1.78199
712 1 5.07832 -9.8373 14.4811 1.13796 -1.09765 0.633219
713 1 3.0297 4.20176 2.19346 2.26498 7.17639 4.46131
714 1 19.9004 -5.16083 -11.5803 -0.0542802 -2.02592 -2.91141
715 1 3.01738 16.3995 9.78537 -1.62564 0.551804 2.99384
716 1 -1.28776 -21.6687 9.24542 -2.14504 -5.6596 -2.37944
717 1 -12.4512 -3.95437 -13.5285 -2.10013 -3.65707 -1.8576
718 1 -13.1192 -6.29931 3.3656 -0.563606 -2.52096 1.03247
719 1 13.862 -7.87799 10.9499 4.79263 1.77669 3.25936
720 1 4.40141 -5.77197 -20.1354 4.65408 -2.32944 -3.76197
721 1 -8.92524 -9.94772 -16.132 -0.899564 1.27812 -1.27253
722 1 8.01249 -22.5158 -13.608 0.57997 0.937316 6.36049
723 1 -21.8449 13.2373 -5.1614 5.44717 0.669619 5.09863
724 1 -8.94861 21.9273 -10.0343 -0.503155 0.540795 5.31797
725 1 3.69449 17.3967 23.7835 1.48808 1.87236 0.863804
726 1 -4.59996 -8.37135 22.5403 -2.32879 7.05104 -2.89576
727 1 8.11365 -4.55773 -13.1133 6.41243 -1.90427 -0.937661
728 1 -10.865 16.7535 -8.14696 2.22405 -2.37563 -0.189918
729 1 -13.5465 13.9751 15.7986 -0.346775 1.76781 -1.01414
730 1 15.114 -19.2193 -18.2121 -1.38856 7.31096 -4.10606
731 1 -11.7185 11.6007 -23.4264 2.57143 -1.90491 0.81123
732 1 11.8256 -22.2985 -8.81821 3.49995 -0.768078 -0.054886
733 1 -14.6163 -18.0093 5.62346 -0.0224827 -0.193825 -2.23226
734 1 -19.7565 22.8624 19.7507 1.05281 0.273467 -1.34951
735 1 17.5031 8.5539 7.38134 2.39525 -0.243681 -0.514622
736 1 6.22559 20.7733 -7.74025 0.277743 2.88352 0.801779
737 1 20.9515 -16.5289 5.74294 1.70548 2.21557 0.404395
738 1 -10.11 6.86567 16.0243 3.15349 2.31051 3.56476
739 1 -18.816 -18.8853 3.29174 -0.955043 -2.3731 0.721322
740 1 16.8286 12.8138 20.3533 -2.97556 5.76995 -1.91135
741 1 -16.446 -19.5435 -11.8793 1.43702 -6.80427 0.45582
742 1 -7.11031 -22.6187 23.5972 -5.85953 -1.59369 0.580782
743 1 -23.4453 18.9024 0.979434 0.937913 -3.0525 -9.63532
744 1 8.66644 -13.519 -12.058 -0.193312 -1.94311 4.75637
745 1 -21.8183 1.71177 19.7477 5.65073 -0.879616 2.13906
746 1 -17.1907 -7.2062 24.0462 2.46375 -4.07544 -2.64792
747 1 10.6234 -10.4104 2.87336 1.7644 -0.89626 0.488053
748 1 -11.6217 -20.1258 21.7659 -3.62588 1.05769 1.17201
749 1 -0.0066519 13.5657 7.59949 -0.878601 0.130328 1.33966
750 1 17.0133 -4.41145 -12.5724 -1.31025 -5.57097 2.00715
751 1 -19.5611 10.9908 -12.7708 -3.006 -0.0452181 0.667393
752 1 21.3069 -21.0583 5.4268 2.1799 0.0433793 2.30094
753 1 -17.5996 -17.9553 23.624 4.76269 0.902803 1.84763
754 1 -14.2644 22.966 14.8396 1.00557 -3.00815 1.27445
755 1 12.0404 9.48565 -22.359 -0.814799 2.76117 -2.94512
756 1 -5.52585 -4.20657 -2.17132 -0.00626742 5.09264 -0.761904
757 1 -18.1145 12.8719 -4.07624 2.26098 0.446278 3.92084
758 1 -15.6717 -18.7475 20.1883 -0.948487 1.08102 2.63857
759 1 -0.11402 12.1097 -10.657 0.732076 1.82852 0.00268415
760 1 1.41289 4.7435 13.5422 0.987923 -1.77321 1.87113
761 1 -8.91185 -12.8762 -7.9412 2.53434 -0.183709 1.03607
762 1 6.17902 17.1972 22.3641 -0.584262 0.00909173 1.88317
763 1 16.2541 5.75831 9.04854 -2.92372 -0.548999 1.88668
764 1 19.9646 4.42079 6.96454 0.741465 -2.56936 -2.56507
765 1 23.8188 11.073 8.34258 -0.0602229 -2.12698 0.100492
766 1 -11.2361 17.9224 -16.7062 0.0152003 3.07489 -1.68571
767 1 -0.941584 -11.9948 1.15054 3.10407 -1.41875 -5.23919
768 1 -7.67113 8.98147 9.56432 2.41248 3.15644 1.55354
769 1 15.0138 24.3158 18.9967 0.240217 4.61408 0.419376
770 1 -4.29098 21.094 -23.8768 0.158029 2.94533 1.07572
771 1 9.50383 -16.1077 11.6805 0.0885101 -3.14772 2.43722
772 1 5.77447 8.06456 5.86575 -2.13461 0.523522 0.0572045
773 1 10.2107 -21.3245 11.8097 -4.02282 -1.82958 -2.43959
774 1 17.5142 15.2167 14.1572 4.50041 0.70208 -4.2929
775 1 22.3246 -18.7021 -10.6112 -1.97704 -3.66041 -5.82297
776 1 9.79236 -0.122971 24.2343 -2.12737 -0.165083 3.83165
777 1 23.1855 -9.627 -11.9065 1.34531 -5.56784 2.73168
778 1 2.14101 -17.4362 -15.8635 2.20353 -3.76351 3.96409
779 1 6.78887 2.67829 -9.00609 -3.49057 -2.10808 -3.31592
780 1 -6.23892 -9.00575 -19.9529 1.07988 1.18717 -1.89215
781 1 -19.2605 2.55949 7.72439 1.16968 4.23567 -2.59747
782 1 19.61 -7.55874 -14.5878 0.92889 -0.875359 -0.00147067
783 1 5.86226 -15.9339 22.5198 -0.223105 -1.61941 0.441829
784 1 12.5618 14.3699 -3.81954 -1.6371 1.12027 -2.00046
785 1 -2.89254 20.3689 20.6152 -0.693267 3.87123 2.95825
786 1 -20.6052 19.6458 22.4073 -2.83044 6.57138 1.32031
787 1 8.81247 14.4541 -12.9446 1.27173 1.97062 3.43368
788 1 -20.5756 5.01965 6.35032 -4.36432 -3.94144 0.259188
789 1 -12.9302 17.7554 0.107177 -0.177444 3.23754 -3.84377
790 1 3.84666 0.933153 14.768 -4.04695 -3.3262 1.98774
791 1 -2.5271 22.3933 13.7953 0.390999 3.14593 -3.32245
792 1 -22.9255 13.9753 -7.70962 -1.92047 0.181669 -5.92432
793 1 23.2038 -9.33831 1.12071 7.3456 -5.325 -1.69378
794 1 5.99522 16.7277 -23.3828 -2.21373 -0.692978 2.43117
795 1 19.3903 -7.68338 21.3655 -1.55018 -1.80901 -0.101497
796 1 -11.2898 -14.686 -14.4924 -3.45476 -1.88106 -5.10867
797 1 -18.7394 -13.5232 14.1719 -2.68334 0.148097 0.86578
798 1 -15.404 1.47051 -7.04635 -0.39369 1.38983 -3.37997
799 1 -9.82872 19.2544 -2.61152 1.33813 1.25251 2.03129
800 1 -18.9906 -11.1758 18.1951 -1.42444 -2.8769 -4.19462
801 1 20.0937 13.9398 -1.27913 0.47933 1.30024 -0.0170973
802 1 -20.8888 -20.4129 14.1559 -0.384316 1.56608 2.76895
803 1 19.2877 -9.26496 -9.61599 1.69863 -0.173007 2.44849
804 1 7.1856 -19.8104 -9.41324 -0.157948 1.85643 1.37945
805 1 10.7291 23.5522 23.2492 -2.41725 2.05241 -2.57391
806 1 -0.508709 -13.0358 13.2513 2.34186 -3.54494 -3.41972
807 1 16.2143 21.2688 -23.097 -1.6405 -0.844501 -1.99238
808 1 -1.8694 -18.8586 -10.4814 -0.549681 -0.420515 -1.34668
809 1 -5.10637 23.5023 -18.2504 3.5382 -1.92586 0.107672
810 1 -21.6843 -12.5545 -6.18221 9.36876 -2.97369 -0.55431
811 1 -14.9277 -8.38812 -5.95217 0.773089 -0.431913 2.31712
812 1 2.66684 -12.3162 -8.61525 0.395779 0.122959 -2.54176
813 1 -14.8225 22.8269 -18.3281 3.09462 0.724725 0.283926
814 1 -21.533 -1.71131 -2.1111 -4.79703 -2.43944 0.750283
815 1 -20.8668 11.8856 -16.5733 -1.11832 0.332269 5.07511
816 1 19.4229 -20.0035 19.6324 -2.77949 -0.300915 -0.396941
817 1 8.17696 -11.6707 16.0968 -1.22021 -0.864388 1.88212
818 1 -9.20721 7.01929 21.0696 0.0104828 1.11109 -0.730542
819 1 9.80662 11.8866 21.4131 -4.18897 -0.540624 -2.11863
820 1 2.69549 13.9072 8.24829 -4.06449 1.38437 -1.28979
821 1 -23.4242 -23.2628 -23.202 2.29498 -0.722154 2.72914
822 1 21.1903 -15.3768 16.5829 -2.03732 -1.48936 1.20123
823 1 6.45901 -10.6861 2.70075 -2.46016 3.48703 1.86065
824 1 3.31421 -20.0349 -6.7845 -1.05283 4.92957 -3.57363
825 1 -23.4378 5.39745 5.69061 -1.12541 -2.37067 1.99181
826 1 -11.7379 6.6583 -3.74075 -1.90799 0.167657 1.14599
827 1 -2.09464 -0.310536 4.08584 1.8978 1.84754 1.17336
828 1 -6.98203 -19.8681 12.7185 -2.08778 -6.15763 -3.70465
829 1 20.367 15.6631 21.0936 0.302778 -1.62652 1.75965
830 1 -11.0552 -9.83427 20.4358 1.89673 1.08962 0.401874
831 1 2.16478 -14.2933 -23.5659 -0.633225 1.50476 -1.00856
832 1 -5.3507 -4.29619 11.372 -1.4613 1.96301 1.47148
833 1 -12.3284 -4.84754 -8.08645 -2.63218 -3.9169 6.37304
834 1 0.384624 9.92804 -0.218709 2.53452 -1.36643 0.888815
835 1 2.39872 5.96042 -20.5587 2.26352 0.307101 0.920022
836 1 5.06471 -13.1648 22.2677 0.0424911 1.55786 -3.07111
837 1 -20.9214 -15.2657 -6.65159 -1.99888 -2.32089 -1.92802
838 1 21.992 -20.1685 2.78108 7.63059 -3.1126 -1.25955
839 1 -22.7394 19.0047 -10.7928 -2.62825 0.855717 3.62012
840 1 3.03381 -17.4783 12.9828 -1.64145 1.50052 0.170613
841 1 20.059 2.26372 8.86288 2.66607 3.46907 4.39259
842 1 -6.33304 -22.6052 -2.62136 -4.17122 -1.49909 -1.77924
843 1 19.2039 -5.48413 18.0319 -0.549542 -2.542 -1.67737
844 1 17.1137 -18.6058 -22.124 1.42643 2.2551 2.12317
845 1 18.7726 7.97849 -2.74813 -4.06967 -1.46045 -0.960858
846 1 8.76458 6.78118 -11.9506 0.917957 0.412899 -4.1595
847 1 -13.9939 -23.3147 -15.1877 1.40227 -3.80666 -0.395587
848 1 -5.11163 15.7585 -13.0443 1.62365 0.557813 0.0278692
849 1 22.0506 -12.5493 -12.2447 -1.22322 -6.31075 -1.41456
850 1 16.5766 -20.0582 24.2549 2.63671 -2.31028 3.94835
851 1 -22.6621 16.7779 -14.3989 -0.876481 0.664812 -6.55585
852 1 11.8877 -2.32793 -1.11549 1.18677 -0.150691 -0.770439
853 1 12.7564 10.8858 -14.5936 -1.62969 3.86029 2.12446
854 1 -23.5839 -13.3353 4.58808 -2.51839 0.436585 1.45389
855 1 -16.7834 21.7201 -21.0473 -8.82737 -1.04903 -2.50882
856 1 -20.0871 -2.6538 -9.47179 2.28885 2.29475 7.63639
857 1 -24.3109 -5.6563 9.32081 -0.141492 -3.28951 -2.39983
858 1 16.6349 -12.7844 15.236 -0.479202 1.45562 -0.914681
859 1 -15.2278 -7.87477 0.220532 -3.04348 -4.38507 1.89185
860 1 13.8101 -8.49039 -16.8893 -0.34311 8.44424 1.89471
861 1 -23.7895 21.3087 -12.7635 -0.59724 3.62582 0.969015
862 1 0.983153 14.4331 -8.90495 2.90875 -0.977706 1.27223
863 1 17.8942 -16.0873 5.6865 -4.96359 1.09471 6.23874
864 1 -14.9418 2.62803 20.07 0.68576 4.51359 -3.22618
865 1 0.113405 -21.88 11.8308 -0.296623 2.07842 1.97648
866 1 13.9736 -2.35454 21.0201 -2.38161 0.703966 3.67813
867 1 -2.3532 10.969 21.0207 0.978351 -1.70153 -2.90358
868 1 1.18237 17.1249 -4.78161 6.59288 0.506818 4.23829
869 1 -0.877721 19.2493 3.73173 -2.024 -0.455275 -5.16008
870 1 15.2204 19.5671 18.2295 2.31287 -3.69952 2.4372
871 1 4.68877 8.7668 -17.8134 -0.00511015 -4.63711 -2.12045
872 1 -3.84328 -7.2647 -20.5215 0.397478 1.77233 0.709701
873 1 -4.43137 -0.244341 -23.5998 -2.72848 -1.39112 3.79005
874 1 11.2335 1.31578 1.02632 -0.384464 -3.97269 0.770173
875 1 20.9533 14.0894 9.24141 0.943915 3.02258 0.270597
876 1 12.9136 -14.0145 -8.5164 2.08268 -0.0258664 0.133812
877 1 1.34447 -19.158 19.1828 -1.23709 3.69734 -3.15292
878 1 8.61319 12.7085 -22.9792 -1.77589 1.80346 0.32778
879 1 15.3006 4.91103 -19.4908 5.67656 1.58778 2.62712
880 1 5.40804 13.9541 21.1734 -3.587 -1.84153 -5.65513
881 1 -2.90302 -4.01925 20.6154 -4.65995 4.06694 -0.0442525
882 1 -13.1772 -3.18329 -1.9388 -3.3469 1.32342 -1.15344
883 1 17.32 17.0649 -7.29708 4.32713 -3.11421 1.09519
884 1 18.2945 -16.5965 -15.2902 1.02737 0.943704 3.03968
885 1 -4.71171 -18.6052 -2.75997 -2.3052 -0.304801 -1.89924
886 1 -3.87088 23.4987 3.17716 -2.07688 -1.04491 0.0157804
887 1 9.26425 -23.8745 18.0608 -1.17783 2.62203 2.65892
888 1 -8.52415 11.0232 -16.3434 -0.277614 4.09933 0.980821
889 1 -15.2451 -2.9622 15.6034 1.32525 -0.940381 2.11451
890 1 12.4222 -20.4439 13.5379 4.20656 -3.24208 -0.40837
891 1 -22.093 -1.98763 3.75933 0.759981 1.96976 4.92689
892 1 3.18348 -9.53277 -5.17182 4.87832 -3.40892 -1.89718
893 1 20.3677 -4.61866 1.66843 -0.375817 1.93323 -6.46759
894 1 1.60081 12.6971 22.7064 -1.33674 -3.76961 -2.10206
895 1 2.0676 -23.4797 5.65445 -2.59692 3.25583 -0.0646637
896 1 9.96642 -3.77653 21.1338 -1.40163 2.28259 0.622312
897 1 -12.8849 -22.8799 9.95255 -5.21773 0.757135 -1.33057
898 1 17.8699 0.139712 -23.7276 3.2769 -0.0717484 0.759763
899 1 14.1406 -18.3295 17.7564 0.454505 4.50175 4.05846
900 1 -14.3788 -14.2721 -12.6514 3.01391 1.3282 -0.207477
901 1 3.25142 -20.2596 8.80912 -1.68451 2.19623 3.22861
902 1 -8.25213 15.5862 -0.339508 3.97997 -2.07354 -3.67703
903 1 -6.05773 23.8124 -20.9821 1.13941 1.42125 -1.66811
904 1 -10.3771 -6.53605 -6.75498 -2.72615 -5.13196 -2.72324
905 1 22.6323 -6.74785 -23.5329 -1.43545 5.82202 -2.64332
906 1 -7.58328 -22.2863 18.9553 6.05182 -2.90585 4.39242
907 1 -16.3781 1.9593 -9.85879 -0.218881 -2.67972 2.5329
908 1 -8.99868 -17.7493 12.4774 2.0617 0.0325355 -2.2713
909 1 15.925 -22.3185 10.4938 -2.15651 0.61483 -3.22675
910 1 -8.59371 4.69886 -4.02631 3.69939 -1.01068 1.30338
911 1 -0.300094 14.2386 24.1685 -2.43439 -4.65116 0.00804372
912 1 -15.8474 22.4977 -8.96184 -1.41423 4.58593 3.11173
913 1 -4.80294 22.4792 15.7212 5.72527 -3.84875 -1.62962
914 1 -23.122 15.215 9.86318 0.747145 -5.70625 2.56654
915 1 16.6719 -6.94032 -14.1623 2.658 -2.90189 9.20338
916 1 -17.5484 -16.7522 20.9208 2.1757 0.593752 -0.785405
917 1 23.0566 4.64104 -20.9668 -0.905827 0.46926 2.48291
918 1 -4.91192 6.44321 2.02796 -0.522412 -1.73302 1.05922
919 1 -9.81921 16.4526 11.6142 -2.68298 -2.68148 -2.90326
920 1 1.4362 13.7701 -22.3576 -3.01155 -0.721097 -5.70877
921 1 10.061 -9.88092 -20.7556 -2.57583 -4.38446 -0.971812
922 1 -10.739 1.80619 -19.9577 -0.785895 -2.34622 1.7788
923 1 3.19348 -11.0947 0.878426 0.144257 0.762153 0.387785
924 1 -7.26904 16.5811 6.14287 -0.860097 1.48632 5.42273
925 1 0.490433 11.7769 -2.72682 -1.8501 3.46434 -2.37016
926 1 1.4805 -14.9472 8.19807 -1.66961 2.51254 -6.15855
927 1 6.95821 14.1 18.711 -3.30934 -4.05763 1.51297
928 1 7.7172 -18.4912 10.5753 1.61778 2.90897 1.22888
929 1 -7.82371 -14.1115 -4.05846 2.83878 2.68479 -7.49118
930 1 -20.0549 -17.0324 -13.5292 1.28086 -3.80257 1.82621
931 1 17.2499 -1.34759 -7.31744 -2.76669 -4.13865 -7.98158
932 1 -18.7733 15.3888 15.0613 1.39118 -0.0221981 3.14984
933 1 -19.3884 -21.9512 -24.0761 -5.25021 -2.0458 -6.55973
934 1 -4.03248 16.6563 -21.7497 5.20879 -4.47512 -2.48006
935 1 22.2652 -10.7129 -1.38923 -1.28849 5.49252 2.06129
936 1 8.70986 11.949 13.2207 2.53063 -1.04455 2.95218
937 1 2.56771 14.6259 20.9422 -2.31605 -0.631053 -0.707062
938 1 18.8494 9.12807 4.81627 -1.90737 -1.25466 5.62678
939 1 -7.89442 -12.4957 -17.1461 1.94314 -0.618824 0.0448901
940 1 20.7207 1.03211 -9.1747 0.133754 -1.20794 -1.40811
941 1 -20.7275 22.1181 7.87145 0.00379579 -0.189746 -2.6218
942 1 -6.70383 -15.9825 -20.4579 -0.15333 0.758969 -1.30075
943 1 17.6231 -5.3466 0.812499 2.41296 0.99294 -2.82078
944 1 -16.5793 -3.5315 23.8551 2.62874 -0.922054 0.961659
945 1 4.22158 -23.7939 18.4685 -0.775973 1.99013 6.09624
946 1 -14.8913 -8.55348 5.88325 4.10509 2.41723 1.06884
947 1 -9.96636 15.8147 18.7012 -2.21322 1.78465 -4.28979
948 1 -21.8019 6.04551 -7.97483 -0.0773409 -5.68063 -3.63273
949 1 -3.31028 13.4137 19.8442 -2.21187 1.49126 0.585915
950 1 -20.0325 6.52442 12.1958 -4.09714 -2.01607 -2.80469
951 1 -9.98001 -23.6273 -13.7487 -1.62804 -4.90443 8.81554
952 1 11.349 -14.2129 -11.0729 0.262101 -0.503902 -3.26075
953 1 16.9286 -2.8748 2.06006 0.156834 -2.58904 -4.99365
954 1 15.2813 8.45325 -10.6432 -3.03745 0.454256 -1.65146
955 1 -11.4213 18.3773 -19.7565 -0.589689 2.10783 1.76007
956 1 -13.1333 -7.47067 -9.74071 -1.15514 -0.454257 -2.27922
957 1 -4.18221 -2.48245 14.6808 0.278503 3.67829 4.1239
958 1 2.23032 13.4378 18.2674 -2.14578 0.0379934 -4.70288
959 1 -14.9783 -18.0214 -24.1053 -1.9208 2.06762 -0.361368
960 1 -2.21997 -21.6922 4.2105 -2.89246 -0.342987 -1.89831
961 1 -5.4445 11.9737 0.747792 -4.23739 0.544167 1.62767
962 1 -4.20342 7.02573 -6.81054 4.5441 -1.10886 0.412241
963 1 -15.8371 24.5672 -13.8081 5.23523 1.64943 0.522814
964 1 13.9555 -15.8319 -22.9211 1.33909 0.348977 -0.707423
965 1 -14.124 12.5713 7.59106 2.54508 -0.655117 1.32314
966 1 -17.5906 -7.56376 13.7834 0.0753643 2.94507 1.24369
967 1 19.4128 -4.72158 -14.32 -0.820485 3.29056 -1.30766
968 1 -2.08275 23.0877 -15.1975 -2.49139 -2.96734 -0.43217
969 1 15.5591 -22.9073 2.73336 0.0977749 -4.68495 1.65835
970 1 -3.98093 -23.5313 -9.52802 -1.81143 0.613913 -2.64892
971 1 15.2106 -5.1713 21.6977 -6.21419 -0.0818002 1.45226
972 1 -8.98191 -18.4875 -0.203707 5.08247 -3.13988 1.11845
973 1 -12.445 -4.57888 17.7055 1.12898 1.99244 -1.24267
974 1 -0.5087 23.9983 -12.92 -1.97769 -7.56487 3.5585
975 1 -11.4679 -10.0424 6.75898 3.01012 -1.565 -4.01593
976 1 -18.1443 -6.87048 11.1331 -0.804558 3.38394 0.429548
977 1 3.54111 -23.7821 13.6949 -0.531752 -2.63769 -1.94754
978 1 4.38777 12.7403 -23.0645 -3.06991 3.56822 2.62172
979 1 5.67343 23.3426 -19.4028 -1.7737 5.68182 -4.3218
980 1 5.57039 20.3548 10.7552 0.800355 -1.13352 -1.48294
981 1 6.40443 -3.01605 -5.62922 -4.10793 0.253155 1.63212
982 1 -6.63222 -7.67622 4.534 1.48426 -2.07633 -4.20287
983 1 -20.8311 6.87087 16.619 1.29188 -1.73212 -1.12349
984 1 -15.1081 16.5311 -4.95443 -4.0137 4.45533 -2.70277
985 1 -17.6123 17.341 12.0295 0.828697 0.633671 -3.17819
986 1 -0.657245 4.16082 11.5512 2.41959 -5.73849 3.84699
987 1 -22.9576 -17.906 12.5385 -0.0126085 3.30834 -1.91631
988 1 -10.1208 -23.6266 9.3034 1.31911 1.69758 -3.03583
989 1 7.73806 1.62938 -6.46513 1.30807 1.73602 0.980796
990 1 13.4391 -7.43697 13.7636 -6.87273 -2.97495 -0.509696
991 1 -6.40813 -7.05064 7.45153 1.0628 -3.20382 2.21695
992 1 -23.3139 10.412 3.37773 0.563715 -0.188855 5.003
993 1 -22.9826 3.22974 -21.7227 -1.51316 0.726345 -3.56554
994 1 22.8627 -16.504 18.7342 -0.7271 -2.79908 2.66903
995 1 9.90424 2.68811 -1.12419 -4.60469 -1.02187 0.52863
996 1 20.0388 10.9009 -17.0286 -2.50141 -7.06602 3.45861
997 1 -22.973 21.3912 23.7977 3.29589 -4.45029 -1.69831
998 1 -1.86958 9.8219 10.6808 2.24934 7.76787 1.55679
999 1 -22.3845 10.2692 7.18563 -1.22438 -0.094572 4.06437
1000 1 17.4757 16.7541 -10.0612 4.53777 -2.31225 -0.248782
1001 1 -20.1973 -3.86761 -6.82434 4.0047 -5.41994 -2.61721
1002 1 -14.1008 -15.7743 4.10734 -3.8805 -0.48924 -0.461197
1003 1 11.6586 -14.159 10.7038 -1.08065 0.703005 0.608247
1004 1 24.0261 22.9261 9.08306 6.39953 2.19032 3.60364
1005 1 -14.3794 16.1234 1.57155 2.53462 -2.74733 -0.711993
1006 1 -22.6959 10.0459 17.9844 -2.96116 -0.904824 -1.48087
1007 1 13.23 0.494626 19.0687 2.31119 1.8458 -1.66534
1008 1 5.28233 -2.42092 15.8691 -2.58567 0.218655 2.05136
1009 1 9.39284 -17.5666 5.29331 -0.763252 -3.29983 0.041182
1010 1 -14.8131 4.37044 -10.11 -3.2809 -8.05399 1.75031
1011 1 -21.0349 2.05244 -0.588051 -1.2645 -1.93475 0.931636
1012 1 0.51723 1.60935 -1.30339 1.02727 -6.81893 3.69912
1013 1 4.52412 -17.9097 2.68704 0.928249 1.84333 -7.70693
1014 1 -21.5339 -23.5915 3.24044 -5.02108 -0.88205 -1.02081
1015 1 0.721996 4.54241 -24.1257 -1.67603 0.223764 -2.55865
1016 1 -22.5918 4.13 8.36595 -5.82754 -0.254489 -0.910052
1017 1 -8.86135 2.30124 15.5853 0.699372 7.05774 5.20371
1018 1 -22.6327 -21.0094 7.02107 -4.74856 -0.739724 -5.10525
1019 1 8.25297 16.43 3.75722 -1.67108 -0.267642 1.09782
1020 1 -20.1853 -23.8424 10.7173 1.95424 -0.592038 1.88773
1021 1 20.2206 -18.4156 -4.52845 0.671036 1.62459 2.79763
1022 1 -9.00255 -21.2112 -10.05 1.86629 -2.03149 0.401712
1023 1 10.5184 -0.901277 5.7436 -1.69 3.8085 2.43033
1024 1 -3.66682 7.38745 -23.5206 5.9554 4.94725 -4.98187
1025 1 7.52483 4.3763 -20.6161 -2.07708 -1.20822 1.56798
1026 1 2.85842 11.8538 -10.6592 2.39447 0.0608411 -1.00402
1027 1 -22.3075 -5.00981 12.8097 1.21886 -1.54174 1.24185
1028 1 -6.97195 -11.5158 -13.2067 -2.69109 1.58141 -1.39644
1029 1 11.3614 11.0888 -0.26487 6.7444 5.54188 0.639509
1030 1 -18.1708 -16.4435 -22.5844 1.15379 -4.0288 1.56808
1031 1 -4.80088 -10.6578 -3.69892 1.03274 0.179551 5.08756
1032 1 11.7329 6.60178 19.4082 2.13885 5.26992 0.872648
1033 1 -5.178 -16.6603 2.18724 2.31941 -0.0619287 1.24461
1034 1 -13.5875 12.1356 -9.26925 -1.44575 5.07437 3.28595
1035 1 12.4565 19.6737 -3.13513 1.20146 -1.32698 -2.6979
1036 1 2.86896 -12.8708 19.4708 -2.2789 -0.34738 0.62751
1037 1 -13.6788 -17.9205 18.4474 0.355003 -0.806112 -4.81931
1038 1 -1.84889 6.86399 11.73 3.16615 -5.00032 8.21369
1039 1 21.2535 21.0294 -10.1224 2.25277 -0.223671 1.54731
1040 1 10.147 -2.69556 -23.173 0.0108119 -1.17278 -3.71041
1041 1 -2.20658 7.53257 -13.4767 -0.441733 1.49116 -3.02387
1042 1 11.6165 -7.2129 23.696 -3.55143 -1.38865 1.03561
1043 1 15.6068 9.25236 -5.85552 -0.978008 0.924725 -1.16937
1044 1 -4.04532 21.0922 -11.2514 3.68213 -1.65419 0.169912
1045 1 -6.76293 -2.14948 23.2327 -1.7027 -2.23548 1.76256
1046 1 17.6293 15.824 -15.7683 -2.19762 -0.313388 1.06519
1047 1 -17.9776 2.01746 20.418 -1.03173 -1.20535 0.839895
1048 1 -0.166116 -0.32947 18.0539 -3.68418 -4.94462 3.04072
1049 1 -24.1309 0.24283 -11.9233 8.4121 8.8264 -1.84094
1050 1 17.6948 20.5173 17.8253 -4.8327 -0.47637 -2.95761
1051 1 2.25746 -1.32577 9.55733 -0.896774 -1.71541 -0.368345
1052 1 -20.6848 -2.81651 -19.9648 -5.0731 1.30494 -2.33344
1053 1 4.68986 5.85918 -18.7299 -0.599108 4.62627 -0.123771
1054 1 -15.3928 21.201 -1.55214 1.09345 -1.95396 -2.01867
1055 1 -7.83658 16.683 14.9996 0.369501 6.3046 -1.76794
1056 1 -8.8538 18.7335 5.12599 1.84978 -4.03166 0.493162
1057 1 -9.34572 -16.6998 -15.6608 -2.7044 2.99729 3.44239
1058 1 0.783808 -3.09736 -9.26607 1.97376 -1.60516 2.53797
1059 1 4.58008 -21.3647 -15.3169 -2.25246 -0.868977 0.574823
1060 1 -18.6527 -10.6839 7.58452 -2.03718 -3.65956 -6.03497
1061 1 7.59085 7.80311 -14.1784 -1.83551 -2.84329 -1.54781
1062 1 -8.02607 -0.744961 10.4597 6.2255 -4.81563 -1.41698
1063 1 1.63653 18.9608 10.751 0.429686 2.16107 4.02428
1064 1 14.8141 -16.8083 5.58909 -1.12429 -1.27364 -7.06858
1065 1 15.2445 20.9607 -17.9735 1.33812 0.490489 -0.939334
1066 1 12.9803 -3.5283 -23.4484 -2.02771 -0.157862 1.1212
1067 1 -21.1004 6.28022 9.6044 4.66079 2.03081 2.63799
1068 1 -3.63288 19.2708 0.193193 -0.571656 0.93176 1.68827
1069 1 24.2935 16.328 -21.84 7.19692 -0.57463 1.32447
1070 1 -7.17425 6.52411 10.8881 3.98813 2.41859 2.25483
1071 1 -19.9979 23.9125 -12.5858 2.78565 5.66381 -1.67019
1072 1 13.9701 8.96486 -19.2886 -1.47607 1.15529 0.630181
1073 1 -1.09481 -23.0335 -9.76166 0.893339 3.13512 -0.67976
1074 1 -11.0264 12.0405 -15.3834 2.90574 -0.312207 -0.529519
1075 1 -0.0498487 11.4376 15.0535 3.65114 1.05332 2.60918
1076 1 21.5846 4.44635 -23.7861 -0.778964 -1.72957 0.0808391
1077 1 16.7869 -8.524 -8.73489 0.600316 1.96362 -2.82654
1078 1 10.6479 -7.45425 12.7095 6.26733 -0.431503 4.06393
1079 1 -16.4958 -0.349036 10.6805 0.133851 -2.12767 7.75085
1080 1 -20.3115 -8.0475 -7.64789 -1.85061 2.86674 -2.18612
1081 1 8.0475 -8.4697 16.2515 0.418099 2.36777 1.87718
1082 1 -18.4701 -17.1734 -6.23798 2.56234 -2.24998 -1.19951
1083 1 -0.211193 20.2575 -19.3215 -3.44625 3.64797 -1.35382
1084 1 -1.95499 -14.5056 -4.88519 0.320347 -3.53926 -0.651795
1085 1 -10.5658 -15.5043 -3.62937 3.4049 0.226845 -3.81876
1086 1 -10.115 9.18923 -4.48044 -3.27003 1.39186 -3.26004
1087 1 8.97745 -1.35111 -19.08 -2.38136 0.456077 -2.96745
1088 1 -22.5108 22.3446 5.31825 -0.660776 -3.96953 -0.528211
1089 1 -15.742 6.36931 15.9168 4.25699 0.420796 0.31323
1090 1 -20.8502 -19.5765 -12.0923 2.05131 -0.425433 3.66056
1091 1 -14.3855 9.81149 6.56737 -5.68398 -0.953979 1.178
1092 1 -20.2942 -17.5987 -4.07586 -0.52093 4.10644 0.550202
1093 1 23.1867 7.2363 4.78107 4.72318 5.65856 -2.08239
1094 1 -22.3029 17.4376 -23.2181 -1.77236 2.55957 -0.290188
1095 1 -7.08417 20.9394 -11.7986 1.69518 0.334391 -3.7652
1096 1 9.89045 19.0226 -12.6264 -0.195687 -1.75791 0.250405
1097 1 17.9248 22.1783 13.399 -2.44538 1.32542 -1.21257
1098 1 -12.2195 -5.07604 20.2645 2.17324 -0.838611 -1.32864
1099 1 15.963 10.0971 16.1083 -1.87956 3.57602 -1.17527
1100 1 9.28181 -9.07587 19.2593 -0.871735 -2.45874 3.53345
1101 1 6.75917 -15.1243 12.5719 1.15497 1.54787 0.350888
1102 1 14.1524 -14.4917 16.1269 0.957802 -5.13997 1.95465
1103 1 23.5373 7.81404 16.2776 0.0988774 2.37974 -0.0188289
1104 1 -23.597 -1.76996 9.01508 1.90936 -2.89 -1.41324
1105 1 20.0157 2.34736 -0.267713 4.93518 -1.77171 5.24684
1106 1 -17.221 -19.2743 6.0036 -1.43646 -3.68665 5.22769
1107 1 2.91538 -13.8847 1.3875 -0.751783 -1.60676 3.11945
1108 1 16.2596 12.5409 23.2124 -1.90146 -0.242569 6.51413
1109 1 -19.407 -10.6205 4.58166 2.85271 3.66881 0.781134
1110 1 -10.7614 23.3102 7.76212 2.11397 1.41197 2.84086
1111 1 12.1934 -9.00079 8.20058 -2.79441 -1.82136 -3.78186
1112 1 -2.14027 -14.5048 19.5414 1.44444 -1.575 -0.0422248
1113 1 -18.5176 18.8796 24.0885 -1.59256 0.248488 2.09603
1114 1 -18.8908 -4.19303 10.8199 0.8524 -1.18631 -0.920738
1115 1 22.0744 22.9368 24.0785 2.76592 -3.15161 -2.99934
1116 1 -14.7803 0.71676 7.20456 3.4075 -0.962559 4.86442
1117 1 -5.34965 13.691 8.76114 4.27992 2.51756 -2.68413
1118 1 22.068 -0.777664 -12.2409 -6.02446 -0.500252 -0.36276
1119 1 7.62929 -9.6148 5.12679 2.18756 -0.286341 2.1312
1120 1 -5.89428 -14.2148 -1.91892 0.408793 -2.55074 3.31084
1121 1 12.1523 -3.45706 -18.9209 -3.61395 3.79513 -0.386905
1122 1 -7.69862 23.4142 -2.17543 -3.6442 -5.0035 -1.02391
1123 1 14.2039 -5.77659 -4.30532 -2.97881 1.17036 0.52599
1124 1 -2.28215 13.6145 -17.1126 2.41029 3.14183 -3.08908
1125 1 -22.8748 8.21081 5.38164 -1.50476 1.6174 2.29636
1126 1 -1.02837 -13.02 -12.0197 1.8067 2.19988 -2.30439
1127 1 14.1905 18.8579 -7.49684 1.91535 -5.48061 3.03981
1128 1 0.37386 12.9758 0.127315 2.25989 3.19047 2.51341
1129 1 -0.738592 -9.26268 -23.6974 0.329995 -1.21438 -0.235682
1130 1 -2.98845 14.4908 -14.3523 2.61617 -0.338082 3.11127
1131 1 17.426 -7.42883 -4.04081 -5.79716 -0.0981349 1.48895
1132 1 21.349 -6.16366 19.9059 3.18627 -1.95884 -0.0360606
1133 1 11.3904 12.5367 17.8219 3.78106 -1.47713 3.3603
1134 1 13.5377 -20.4023 19.6339 0.0732749 0.526598 -1.0949
1135 1 5.90369 -1.05878 24.1341 -3.57948 -3.21258 -1.05645
1136 1 -19.904 -20.7212 -21.5337 -0.292441 -3.63524 -1.51007
1137 1 5.8901 3.80406 2.64157 -3.82165 4.92343 1.10621
1138 1 -23.2527 -23.2622 5.45826 -1.5244 -3.69078 0.0951156
1139 1 -5.75562 10.3097 4.46957 4.94439 -1.75688 2.25788
1140 1 15.2872 -7.88435 -19.5338 -2.05998 2.56784 2.67287
1141 1 -19.2455 9.20747 11.4579 1.69945 -4.29697 -2.93693
1142 1 9.01008 13.926 7.56353 -0.209814 2.70104 -3.98409
1143 1 0.855099 -7.68153 -12.8188 -3.68853 -0.203347 2.13854
1144 1 15.8219 3.62992 -12.8459 0.541981 2.45618 -2.89955
1145 1 3.28721 20.1925 23.0351 3.7569 3.64934 1.4835
1146 1 10.9189 16.5729 19.2757 -1.96377 3.01967 2.35998
1147 1 -7.3146 9.91138 1.90129 4.18685 1.00963 1.64809
1148 1 -12.3485 8.45235 11.7326 3.37151 2.87163 3.08724
1149 1 1.45837 -15.8178 10.9983 1.95471 -4.8772 -0.815151
1150 1 -12.606 14.1835 9.35891 0.267443 0.374321 -1.12036
1151 1 23.3045 -23.4998 19.9831 0.999396 -0.540762 2.36263
1152 1 -13.6593 14.177 18.7823 -3.21885 3.03553 1.89649
1153 1 -4.80246 -20.275 1.41709 0.38807 5.22862 -0.598107
1154 1 1.12965 10.8506 -22.6086 1.24158 6.21316 0.582064
1155 1 4.60829 -19.7894 16.3243 0.767852 -0.0374471 -2.44011
1156 1 -18.6458 -12.823 24.1574 -1.77082 -0.788927 -0.928648
1157 1 3.89497 1.82874 -9.57067 2.25465 -0.344748 3.93724
1158 1 -18.2315 -0.54853 18.9106 -0.592712 0.909817 -2.16555
1159 1 19.2507 -4.68786 14.0247 -1.10139 1.42979 3.16894
1160 1 -8.39755 4.45779 -9.88806 -2.92054 -1.90261 -0.454917
1161 1 -8.89267 -23.2343 -19.4715 -4.07164 3.14117 -2.12438
1162 1 8.82984 9.82144 3.89742 4.36835 5.73945 2.53107
1163 1 -17.9248 -22.4486 14.4558 0.246054 2.32515 -2.30185
1164 1 -20.1313 -15.7255 9.72408 -1.68379 -0.30597 -1.0371
1165 1 18.5641 22.7782 -0.714561 -5.24232 -1.63802 -4.50672
1166 1 -15.9929 22.6406 17.4323 -2.77188 -2.75384 -2.23063
1167 1 -0.715419 13.9643 18.4286 -1.6628 2.15847 0.643
1168 1 11.3923 -9.33662 -0.50708 0.770471 -1.9389 -0.648714
1169 1 14.2264 -8.15892 17.9956 -2.25118 0.838843 3.1524
1170 1 2.26063 13.7562 11.3805 -3.92868 -1.513 5.76916
1171 1 21.8001 -1.31538 -7.76828 0.770416 1.42046 -0.900198
1172 1 -21.8845 -14.8231 -15.9363 -2.55457 -2.45589 1.1866
1173 1 7.22167 -21.4643 20.2466 -1.17328 0.18768 -2.39986
1174 1 -23.0949 -20.4841 -16.8755 -0.539803 2.96742 7.65169
1175 1 -10.5235 12.6269 21.3691 2.64423 1.20048 -4.31238
1176 1 -0.907591 -10.3154 14.1861 3.24582 4.28986 0.22846
1177 1 11.0074 0.938217 -19.3806 -0.709974 -2.39599 -0.256655
1178 1 -2.53014 6.51815 7.85428 -3.35026 -0.896129 4.44542
1179 1 9.0561 -8.06413 -9.38798 -2.1227 0.74686 1.33904
1180 1 -9.15601 -23.9146 -11.0187 -2.46311 0.697185 4.81503
1181 1 9.2895 18.2487 -9.61454 4.03144 0.923629 -3.6102
1182 1 17.7355 7.95331 0.714883 -2.21563 4.7976 -1.61839
1183 1 3.7529 -6.86442 -16.4703 -4.38955 0.204744 3.30734
1184 1 7.46851 19.6786 22.7059 5.22327 -0.885102 -2.18026
1185 1 15.6572 7.30198 23.6557 0.243926 1.95796 5.49225
1186 1 7.30459 -7.68423 0.368693 -1.8949 2.71349 -4.72395
1187 1 -14.9809 17.1331 -9.40586 -1.22036 -0.365185 -1.1424
1188 1 2.7709 2.10242 0.163097 -2.29669 4.11369 1.9153
1189 1 13.6391 12.9744 3.81007 2.60053 -2.33304 0.0374668
1190 1 13.9206 -2.01675 -20.8882 -1.91933 -5.47279 -5.27965
1191 1 -1.82979 -4.99006 -19.7292 0.318424 -3.27468 -0.825566
1192 1 -14.4243 -0.314135 -9.19537 -1.62005 1.48876 -1.16719
1193 1 9.44593 -2.6516 16.037 3.91421 -2.83941 -2.55762
1194 1 7.92214 16.0765 -6.74552 4.57328 3.1744 1.13899
1195 1 13.0999 -12.216 -17.5974 -1.49058 5.45734 5.72116
1196 1 5.01139 15.9121 -14.0261 -1.697 -0.694934 -0.414311
1197 1 -18.9517 16.6255 21.496 -0.0395391 1.29236 -0.0607322
1198 1 20.0617 -21.119 11.3952 -2.16965 3.74813 5.3323
1199 1 -12.4661 5.49555 -12.3474 0.0326113 -2.23107 1.57564
1200 1 12.5781 -10.647 10.7417 -1.2651 2.46103 -4.08675
1201 1 22.971 -19.218 19.8828 3.40154 -3.23956 -8.11259
1202 1 -15.808 -0.947034 -5.48883 1.35229 2.66243 -3.60742
1203 1 -16.0723 -11.9497 -15.9318 3.82554 -3.54032 -2.89647
1204 1 -2.54495 21.2985 2.18462 -5.61203 3.05092 -2.74458
1205 1 -4.0994 -17.4163 10.4214 3.21771 4.03552 8.23565
1206 1 21.5992 -19.79 -21.9486 0.0115056 -0.543979 -1.04476
1207 1 15.4293 -5.02631 -16.3419 1.53271 -1.0727 2.27459
1208 1 22.5586 -7.63358 8.01342 5.89721 -2.93514 -0.859513
1209 1 2.08309 -6.22678 24.3659 0.428593 -7.22022 4.43303
1210 1 -3.26467 18.8725 -4.79456 6.96342 -1.89272 -1.30306
1211 1 -17.8022 -11.7264 10.2703 0.651651 -0.798136 2.27221
1212 1 20.9256 5.69644 -11.7233 0.111093 1.65572 -1.69871
1213 1 23.6874 -13.9778 20.3904 -1.52473 -2.25773 -3.07647
1214 1 11.673 0.430084 -2.03074 2.77575 0.310728 2.17067
1215 1 5.21358 10.6732 -9.05583 -1.19641 -1.06981 -2.15672
1216 1 16.2041 -7.96682 -11.3949 -1.90249 -0.812212 -4.52386
1217 1 16.0409 -14.5259 1.91831 4.00098 6.40786 4.21727
1218 1 14.9129 -3.80353 -10.8124 -4.53828 0.375475 -0.231198
1219 1 13.8801 10.6929 9.66476 0.557471 -2.94585 1.01238
1220 1 -21.1164 22.719 15.3304 3.20075 5.43547 2.45216
1221 1 1.49699 19.9824 -21.3795 -0.693422 -1.12274 0.826834
1222 1 20.5957 19.789 11.7672 -3.45956 3.69297 2.09973
1223 1 -23.5972 9.52058 11.5959 -0.0114534 -1.70999 -3.84512
1224 1 16.4351 -8.3697 12.844 -4.21519 3.2218 -0.881742
1225 1 -0.00545354 -20.651 21.9933 -4.27521 5.376 -1.71503
1226 1 -21.005 13.7612 0.961608 0.745609 3.54256 -2.97788
1227 1 -0.327104 -8.42463 -1.52649 -0.0139535 1.14699 2.64931
1228 1 -23.0439 -19.5005 -10.1072 -2.55754 0.43731 -2.42362
1229 1 19.1994 -16.1609 -1.48945 1.84372 -2.74914 0.46717
1230 1 -15.0191 -16.4251 -8.96671 2.1879 -4.06044 2.02509
1231 1 -18.7423 -9.09948 -9.89926 -1.75981 -2.32302 -4.0451
1232 1 -19.9077 15.7107 -22.8329 -8.11318 4.50171 -0.62298
1233 1 -2.613 1.22887 -22.0361 1.66569 1.59224 4.61411
1234 1 15.0844 13.6772 6.22847 3.32444 3.5275 0.00937167
1235 1 12.1818 18.2896 1.95836 -1.63977 -4.08202 -3.20941
1236 1 -5.17775 -21.768 15.3383 -2.2633 0.380173 3.40114
1237 1 -18.9213 20.7754 15.2617 -1.2908 -0.226423 -0.385453
1238 1 10.0218 -2.23773 -13.6722 0.498872 -0.289431 2.19529
1239 1 -0.831821 -23.3402 5.95703 -0.809544 -0.0282019 3.39573
1240 1 -5.87883 -23.4152 3.64891 -3.15566 -1.58526 2.60689
1241 1 14.1315 12.6928 -17.6155 0.347224 -4.83885 1.032
1242 1 8.92679 -18.0272 -14.0566 -1.96996 -2.65935 -0.0725703
1243 1 10.0115 16.0695 -22.2938 1.84891 1.64563 -3.76047
1244 1 -16.732 2.00152 8.84132 2.4326 1.12084 -1.8881
1245 1 -19.1489 10.3687 -22.3296 3.01628 -0.598864 1.59203
1246 1 -6.93765 -15.2644 4.91931 3.23178 -1.35042 1.19659
1247 1 -3.85388 0.48071 -11.1661 -1.33591 -1.0183 -1.11689
1248 1 7.84165 5.3132 20.5311 -3.26207 1.69717 -2.71431
1249 1 7.5317 14.9541 -21.2677 -3.02798 3.02984 0.0391634
1250 1 7.41068 2.50933 23.2103 0.817607 -1.51811 1.21458
1251 1 22.2833 0.0787574 22.4006 1.00686 0.992297 -1.57057
1252 1 19.1693 -18.6702 0.395725 -1.4459 -0.660004 -4.38811
1253 1 14.8648 23.7372 -2.21353 -3.62084 -1.38115 1.89428
1254 1 -22.204 -18.561 5.48474 -1.56659 -2.03161 -3.05085
1255 1 -6.56506 -9.9509 8.22599 -0.967865 5.30031 4.31529
1256 1 5.86802 -19.7167 -20.323 -3.20015 1.01027 -1.04696
1257 1 -6.37392 -23.9816 -10.9798 -3.28858 1.63959 -1.63514
1258 1 -17.4011 8.3912 21.0824 -2.51872 -2.76339 -2.19802
1259 1 19.5544 -10.7953 7.71347 0.273615 4.42682 2.4076
1260 1 4.8026 -7.84387 -13.8845 2.453 -3.64348 -5.63978
1261 1 13.9707 -9.34793 -12.5306 3.2786 1.01238 4.80647
1262 1 11.0164 -14.1349 -4.63854 3.37712 1.94762 6.40376
1263 1 -15.9171 -6.70193 -2.51522 -2.49789 -4.0565 -0.71558
1264 1 -23.1762 -10.7978 -2.09917 -0.0472854 -1.70233 0.828702
1265 1 -8.84785 13.2519 -10.4436 -2.20596 2.13891 -0.567556
1266 1 13.9635 -9.07705 4.02377 -1.41705 3.26954 -5.17676
1267 1 22.2956 -15.9998 3.0899 10.4839 -0.977794 6.94472
1268 1 -22.1743 -11.8299 -18.0419 -6.1601 6.19213 0.517485
1269 1 9.51071 -6.14456 19.3 -3.48262 1.58648 0.800028
1270 1 -24.1159 15.2695 12.5655 5.99158 1.46515 -1.04528
1271 1 0.0245466 4.1794 17.0902 2.72703 -1.81744 3.58159
1272 1 -21.5567 9.35958 15.6568 0.0234206 6.03889 3.65987
1273 1 20.788 5.30254 22.3066 -2.64932 -0.879212 -8.56484
1274 1 21.9417 19.5048 -21.2619 4.90935 1.39667 -5.04315
1275 1 2.86887 4.03384 9.03933 6.59501 -1.03093 1.22535
1276 1 -1.60631 -8.68614 -19.4518 3.81547 0.891638 -2.10488
1277 1 -10.3728 22.3038 -3.1708 0.740625 4.50374 0.730414
1278 1 15.7776 -7.65616 -23.3882 -0.427598 0.767839 0.961499
1279 1 -19.0579 15.8869 -12.7269 6.85295 -0.239093 2.22665
1280 1 1.07718 -3.43966 -4.87767 2.55044 0.416538 0.0530637
1281 1 13.7404 -9.68935 20.4624 1.32332 4.00995 -0.441931
1282 1 10.3846 -20.6652 -3.18321 -2.65761 -0.806288 0.23003
1283 1 3.37937 -21.2653 -9.41419 -2.71976 1.01487 -2.277
1284 1 6.7613 -13.4895 2.48572 -6.21295 -1.91549 0.677795
1285 1 -12.4427 20.5393 15.5043 1.88794 0.308021 0.910057
1286 1 -5.26615 4.93903 -16.438 -0.0249807 4.02394 -4.84087
1287 1 8.78462 -18.3024 19.784 9.32447 -1.37836 -2.4483
1288 1 3.49369 -4.16179 -15.6327 2.40489 0.167138 -2.31787
1289 1 23.1022 -9.89398 -8.91736 -4.27985 1.19965 0.67778
1290 1 1.20711 6.8862 6.63192 -0.998033 0.928222 -1.50633
1291 1 -18.092 14.6209 0.990074 1.47625 -0.199885 -2.52958
1292 1 -5.52915 17.9417 -3.07862 4.64632 1.71534 0.197154
1293 1 -8.29004 -3.01118 0.140737 -0.729434 3.81985 3.35849
1294 1 14.2395 -11.4814 -7.1163 -0.253395 -6.15228 2.27326
1295 1 13.414 7.66983 -0.861887 0.971504 1.38327 2.68833
1296 1 -7.45178 -11.1469 5.59746 0.385531 3.41541 1.07602
1297 1 15.6365 13.0643 16.7975 -3.29628 -1.60621 2.69569
1298 1 2.31853 -7.26989 -2.46795 -0.410538 1.43272 2.42362
1299 1 -9.03423 -10.6747 -5.76147 5.78632 1.49166 -1.20925
1300 1 3.00567 -1.67947 -2.59904 3.63227 0.128696 -5.04274
1301 1 10.9389 16.1835 -10.6127 2.36607 -3.34585 -2.63505
1302 1 -4.33329 -3.20859 -23.6571 -2.43267 -1.56139 -1.13625
1303 1 -7.44107 -7.62879 -16.6995 0.454886 -0.912188 -5.98574
1304 1 2.94141 0.0523898 -4.78961 -0.0877233 2.12501 -1.56506
1305 1 -4.01487 3.69577 9.89908 -2.67896 0.942361 -3.43001
1306 1 7.04296 -22.0255 -0.77557 -0.0103312 -0.482252 2.40074
1307 1 -15.5663 -22.4311 -3.89481 1.65826 -0.276178 -0.913474
1308 1 -17.3254 -3.48194 7.4595 0.276764 -3.09348 -2.00318
1309 1 -0.890142 -12.3482 -7.97101 -2.74666 3.59965 3.30798
1310 1 -1.13866 -18.0451 -1.72546 6.30725 0.229831 2.5346
1311 1 -3.22774 18.9917 -13.8937 0.592932 -2.4274 1.38949
1312 1 -17.809 -8.3707 3.46703 0.419077 2.50398 2.63602
1313 1 17.2841 18.338 22.5471 -0.663166 0.167133 -0.349467
1314 1 -17.0872 10.0817 -18.4031 3.15239 -1.46264 3.54977
1315 1 -20.5478 -11.8367 -22.2638 -2.28043 -0.882098 6.56646
1316 1 18.7208 -10.1642 -15.641 -5.56992 -1.3141 0.840596
1317 1 -10.3479 8.54624 -11.4415 3.72497 -1.59029 -6.11889
1318 1 23.3239 19.709 -0.745766 2.27161 -0.223064 -0.553101
1319 1 14.6134 23.4363 0.743158 3.42674 1.87807 1.68325
1320 1 19.0267 -4.7458 -9.02541 -1.32316 -2.82024 0.449823
1321 1 8.53329 -21.3169 -6.44647 -1.63478 4.28857 1.67721
1322 1 1.04 -15.0597 -4.92101 0.0858248 -2.76539 -4.28984
1323 1 14.0265 -12.6504 12.1288 1.4332 0.758158 -4.6797
1324 1 -11.1242 -19.9228 -20.0929 0.089156 -0.910607 4.52808
1325 1 -4.75562 15.3291 6.37893 0.070381 7.09312 1.36515
1326 1 -18.8635 -18.197 -20.2292 -3.63737 -0.319442 -3.7802
1327 1 -8.69833 20.9701 -22.6162 -0.204131 1.80244 -1.15335
1328 1 11.1457 11.947 6.86151 -0.797716 -1.63483 0.582019
1329 1 21.6779 -12.6671 -3.56023 -4.87241 1.94292 0.173829
1330 1 -8.66942 15.1328 -7.08736 -0.434001 1.13591 1.47858
1331 1 -19.3858 3.08381 -3.05412 -1.2098 -2.88296 3.14526
1332 1 11.8351 -22.807 22.2456 -1.29376 1.57239 -2.22275
1333 1 0.665729 9.66008 6.5965 1.83926 4.25904 -4.23295
1334 1 12.1891 -9.69647 -10.0794 -0.0387652 0.364119 -0.744673
1335 1 -14.2698 24.4291 -16.1366 2.40453 -5.25686 1.74089
1336 1 2.58212 19.6949 -7.24284 -0.0033132 0.425028 0.634251
1337 1 7.62615 -21.251 7.46117 -2.12099 3.21164 -2.2538
1338 1 1.63385 5.48269 -1.21928 -2.24737 -4.41641 -0.457457
1339 1 2.06683 -18.4947 21.9507 0.557959 -1.73703 -0.335187
1340 1 -19.2451 15.5125 10.5466 4.61994 5.28066 0.234911
1341 1 4.19216 9.47589 13.7097 4.04413 -0.508563 -0.610908
1342 1 1.9505 -22.8073 -15.5234 2.84037 -2.49152 -1.38999
1343 1 -12.3571 -8.76384 -7.36778 -0.545453 3.67777 -1.07969
1344 1 18.1037 -9.53446 3.93034 -0.72057 -1.8701 0.582049
1345 1 -21.9224 3.15766 -18.9551 2.71638 0.985574 1.28121
1346 1 16.4982 -2.8044 -15.0488 4.53588 0.802997 4.86839
1347 1 -16.9825 -13.0985 -20.0933 -2.67047 2.66875 2.54169
1348 1 4.43021 11.6214 -16.0162 -1.64197 -4.86927 -0.796135
1349 1 2.42903 -12.4154 9.21512 -3.61128 -0.445099 -2.31351
1350 1 -15.2417 0.485103 -3.20666 -1.52121 -1.49808 -2.34627
1351 1 16.066 -15.932 17.6721 -1.80516 -1.88681 2.86015
1352 1 6.43188 23.3577 21.0201 2.69094 -0.302218 -2.38726
1353 1 6.18227 22.1006 -0.277712 -2.08837 2.20787 5.67213
1354 1 -1.29662 -5.48748 -16.7047 1.69612 1.67992 1.70437
1355 1 -8.57961 22.2242 17.7301 2.69297 -3.49865 -2.19353
1356 1 -20.6892 -12.4316 -2.02426 -4.02723 1.93066 -2.89717
1357 1 -20.0895 -7.35044 -11.4793 0.673029 -1.37995 -0.841867
1358 1 -10.5935 23.2027 21.3034 -0.57519 -0.313922 1.6554
1359 1 -21.4135 -23.4105 23.3096 -0.0148281 -1.82662 0.0535484
1360 1 18.5979 -13.8192 7.43906 -2.44976 -1.98649 1.18567
1361 1 -8.5232 -22.9884 4.79046 1.75003 -2.44189 -2.48602
1362 1 20.9739 19.5003 7.88886 2.75264 1.28941 0.31479
1363 1 -15.9965 -10.4592 -21.1416 0.257363 -1.1355 -3.35909
1364 1 12.7123 -12.2549 -12.7215 5.55191 0.532267 1.82456
1365 1 8.14941 -6.58672 -22.0224 -3.46623 1.7328 -0.520941
1366 1 20.4983 -14.7826 0.774814 -0.675484 -5.1863 -2.27622
1367 1 -9.20721 -13.7558 14.6507 -3.40644 0.237566 -1.10079
1368 1 -17.8222 16.8645 -1.12043 5.61591 1.04096 0.15375
1369 1 22.3021 2.68425 -4.6266 2.33598 -1.4308 -3.4482
1370 1 2.13212 -13.027 22.4281 0.6267 1.21874 0.442021
1371 1 -20.8413 9.59578 -3.05114 5.28716 -0.509432 -3.405
1372 1 -11.0347 11.8528 4.5128 2.63914 3.70274 0.495402
1373 1 -13.7727 -8.70393 14.1677 0.0182828 -5.78752 5.5299
1374 1 -18.8012 23.142 16.9831 -1.22642 7.4159 -0.812822
1375 1 16.5576 -7.28749 3.07474 0.264514 2.77538 2.65078
1376 1 5.29811 11.1915 -6.14634 -1.13008 1.49671 -1.10215
1377 1 -12.4733 21.066 23.5219 -1.48684 4.6362 -0.736127
1378 1 8.85937 -9.90278 0.709109 0.00428962 5.43711 -0.275587
1379 1 -19.4516 -16.9792 5.46041 -4.12379 4.15309 -5.34927
1380 1 16.4086 20.7837 -10.4161 0.549718 5.02589 5.96894
1381 1 18.0666 16.0814 11.322 -1.27775 -0.124601 -1.67739
1382 1 16.425 -13.1248 9.19968 -1.28535 0.830838 -4.88779
1383 1 -7.50739 -23.6402 -15.1757 -1.80326 2.09231 3.75223
1384 1 2.71656 19.8447 -12.5342 1.18194 -0.15905 -1.25784
1385 1 -16.1388 23.1859 12.6525 0.698253 0.410704 -3.8617
1386 1 -12.8115 7.65538 1.43495 1.17287 -1.11482 2.86114
1387 1 -19.7894 -0.490455 -0.234979 -0.396782 3.20828 -1.85045
1388 1 16.2453 -1.97799 19.0769 -3.05925 -2.63402 4.02079
1389 1 20.9933 -3.14357 -0.398812 3.23922 2.89043 1.261
1390 1 7.33961 -1.78045 11.7452 -7.95884 -0.427176 -7.17033
1391 1 -11.985 19.5117 21.2095 -2.20824 1.25437 1.44326
1392 1 22.3133 3.3885 3.53542 4.7571 -4.00738 2.1806
1393 1 -1.31273 -5.74842 1.92898 -1.60766 2.35814 -0.21444
1394 1 3.90818 6.52805 0.27006 -1.26199 -4.22953 4.07723
1395 1 0.624724 10.0726 -7.67604 1.09637 5.71794 0.956293
1396 1 -17.9769 -8.12429 8.43255 5.30062 3.72986 -0.833689
1397 1 4.59669 23.0989 -7.7172 -3.14645 0.532161 2.31727
1398 1 3.38205 21.7794 -5.24921 0.702842 6.43498 -3.293
1399 1 -1.92329 -23.9983 -1.64812 -2.08518 2.54713 -1.64845
1400 1 -12.0789 14.457 -23.5948 0.40002 2.46173 -2.05432
1401 1 22.3584 -21.5219 21.6802 0.784726 -1.03469 2.93134
1402 1 -18.4707 -4.61551 -16.0365 -4.36294 1.52667 0.581272
1403 1 15.1577 -22.2227 16.7818 -2.62921 -5.7522 -0.738064
1404 1 20.5253 -11.3452 10.323 5.19134 -4.21684 0.310473
1405 1 19.9999 20.9762 -24.2255 2.83388 2.0211 -1.53882
1406 1 -7.90596 1.35193 -13.0648 -1.51737 5.26377 2.41713
1407 1 -24.1635 8.25642 -1.71298 2.58856 0.240516 -2.58955
1408 1 -4.46564 -5.68575 -14.3275 4.73126 -6.76275 5.42816
1409 1 -1.21132 5.47032 22.4366 -1.90446 -2.84732 -0.719922
1410 1 0.107388 -18.8326 -17.1053 -1.99419 -2.35533 -3.26868
1411 1 20.0239 2.14728 -22.8783 -0.601032 3.10627 0.207583
1412 1 -19.0697 10.8728 -9.82642 -1.51294 -5.62311 2.21377
1413 1 -14.9666 2.9182 -20.8947 0.404283 2.30469 6.36633
1414 1 6.47331 23.2084 4.63884 0.85881 -2.30616 -2.43939
1415 1 -7.1193 -22.0535 1.15766 -3.4789 -5.22175 -1.51722
1416 1 -22.2435 -7.62855 9.11499 2.91455 0.907671 4.02991
1417 1 11.5085 5.49695 12.636 -6.6403 -1.12971 -2.12461
1418 1 15.6728 -8.20066 -0.610983 1.16425 -2.75077 3.88285
1419 1 9.68248 23.1696 -2.69979 -1.59283 -2.60274 -4.35438
1420 1 -12.4015 18.7081 -22.6252 1.13733 -1.38332 3.58213
1421 1 23.7962 -9.68365 6.37202 0.0413915 -2.49078 -4.77455
1422 1 -13.5776 -18.9129 -15.4324 -0.263392 -1.62889 -1.52842
1423 1 7.76201 21.2801 -19.7468 -8.92156 3.73773 2.489
1424 1 20.5507 11.4201 -8.42396 2.58923 1.29392 -2.8606
1425 1 -0.369825 5.5754 -12.0931 -5.34619 -3.7768 -0.554359
1426 1 7.62062 -20.1802 2.83288 1.89622 -2.18305 7.43288
1427 1 19.4863 -13.3212 -1.68948 -7.07933 -0.138714 -1.18898
1428 1 -4.54578 -17.4891 21.3269 -0.248984 1.70425 -0.886785
1429 1 -21.4135 -16.6189 7.34657 -3.81454 -5.92576 -4.07339
1430 1 0.097154 15.7794 5.59366 -1.38158 0.775528 -1.85157
1431 1 -9.32339 1.56432 -10.5928 0.490544 6.51909 -1.74239
1432 1 -11.4083 8.19386 22.9221 2.4931 3.12678 0.881549
1433 1 -18.816 -11.8781 -16.2356 -0.948531 1.58763 3.53682
1434 1 -23.1765 4.63229 22.3892 1.53753 -1.01627 -3.07359
1435 1 19.657 21.1129 -4.87166 -0.915365 -0.091309 3.64006
1436 1 -16.1632 -3.55728 -14.7036 0.740393 -3.76095 -1.00659
1437 1 4.08742 15.205 -21.4784 0.208817 -2.16968 1.75267
1438 1 -0.745218 -0.459452 -13.815 -0.596529 -3.82529 3.67248
1439 1 -17.5822 8.88264 -11.5623 -5.7592 2.86242 -2.29171
1440 1 -22.8173 13.2287 -2.4992 -1.81972 2.36281 2.98422
1441 1 -18.076 -15.5862 18.2041 3.92398 1.39773 -1.55288
1442 1 -22.136 -6.46658 -4.13022 2.4114 0.245271 -3.63417
1443 1 17.4132 -13.3822 17.9714 -6.04685 -0.392651 1.57281
1444 1 13.0892 19.1593 -24.1077 -1.53313 -1.48052 -0.566031
1445 1 11.4653 -19.8683 9.91542 -1.27163 -5.51136 2.72121
1446 1 2.61468 -9.33636 -9.42636 1.17592 -0.369107 2.07838
1447 1 21.9015 -5.45378 -18.0172 -3.57406 -2.4897 3.31908
1448 1 -15.2291 2.57044 5.06783 1.87595 -1.83011 -4.4277
1449 1 10.4668 -2.79941 1.14543 0.792863 2.59836 3.98146
1450 1 -6.46724 -5.465 -9.19913 0.0124196 -2.93497 -0.739534
1451 1 11.363 20.6035 -10.11 5.28085 1.19709 2.36911
1452 1 -6.7934 -22.2946 -17.9904 0.656437 -0.477384 -0.497803
1453 1 -0.803554 -21.7888 -7.17144 -2.38949 3.38984 -1.96365
1454 1 7.8929 -12.0526 -0.796102 2.75496 2.69979 0.608457
1455 1 -14.8909 -18.0851 -4.07814 -2.10767 1.58101 -5.5146
1456 1 -16.6089 14.6047 11.0729 -1.62958 -4.15004 2.57965
1457 1 -19.654 1.72211 -20.2295 -2.02658 4.80005 -3.97039
1458 1 -20.2544 12.5087 7.32267 1.23594 -1.02899 -3.85098
1459 1 -11.9699 -12.9309 -3.99816 0.436177 2.6309 0.238541
1460 1 -13.29 8.30885 -12.0185 0.527567 -5.46267 1.33776
1461 1 -13.6325 14.7939 22.8874 1.69765 1.52834 4.31837
1462 1 -9.81446 -18.5643 8.82623 -6.88827 1.9903 -2.4594
1463 1 6.51001 -0.279827 14.0625 -4.29833 9.17534 -1.46791
1464 1 2.96773 -18.9688 5.09709 1.9342 -4.7841 0.784153
1465 1 -21.5001 22.0302 -14.0393 -3.54252 2.8653 3.78048
1466 1 -18.382 -6.06308 -3.65556 1.50686 -0.421104 -0.922895
1467 1 -24.5591 -15.4596 -17.44 1.73677 -0.866558 -4.95615
1468 1 20.2802 23.649 18.4666 -0.866371 3.22486 3.35059
1469 1 19.7102 11.7802 5.81239 3.04805 2.05145 -1.20554
1470 1 -4.77988 -12.4473 5.76935 -2.48519 -1.43115 0.545804
1471 1 -4.7626 -5.64042 -11.2866 0.1938 4.32321 -0.590136
1472 1 21.7156 5.69078 15.6024 -3.94221 1.49853 1.22715
1473 1 15.782 -18.236 -14.404 3.1182 4.39319 -0.468429
1474 1 0.571784 20.636 -24.0698 -0.103537 1.37025 1.21828
1475 1 -21.9881 -22.2784 -3.07077 -1.26152 -3.36169 0.173903
1476 1 -20.5686 13.7983 -20.7011 -6.35618 -1.25595 -0.998295
1477 1 19.8695 -0.45353 -0.998826 -5.22505 -5.28941 0.185095
1478 1 0.746837 2.94673 3.49369 -4.91973 -0.160653 0.221542
1479 1 9.19852 -8.2078 7.05752 -1.25653 3.95644 -1.73762
1480 1 1.44869 14.2144 -5.05739 3.62756 2.2161 0.401807
1481 1 -6.46685 15.287 -2.67292 5.22256 -0.267886 -0.954861
1482 1 5.67524 21.5131 -22.742 2.76777 1.64308 2.70253
1483 1 10.2957 -22.1636 -19.9287 -7.32068 1.76507 1.28031
1484 1 -6.91169 9.71431 7.07642 -0.508126 0.0837404 -2.4016
1485 1 8.67914 -10.227 23.2891 -0.267983 2.01862 -2.22104
1486 1 -17.2545 -5.35726 15.818 0.714887 -1.42403 -2.54494
1487 1 -2.43444 4.15166 -16.907 -1.52377 0.672213 6.79658
1488 1 -19.0223 -17.0032 12.16 -4.17059 3.72271 3.30654
1489 1 -23.0485 15.5201 -1.36544 1.56532 -1.99844 -1.65797
1490 1 -22.8125 4.36858 -2.67446 -0.543447 3.43016 5.60339
1491 1 12.0176 7.69264 -5.27851 2.26485 -1.50091 -0.107088
1492 1 -11.5814 11.5783 10.207 -0.527372 1.18072 -1.01407
1493 1 -3.63039 -7.47148 -16.3779 -4.8876 -1.9916 1.36624
1494 1 -8.55714 5.73163 -18.8092 -4.15676 -4.04288 -3.09379
1495 1 -20.8296 -9.27929 19.8522 -3.9267 -0.303657 -0.940489
1496 1 -3.34254 9.00452 -8.76529 -0.46929 -4.93203 -0.600291
1497 1 13.3183 -9.80496 -20.5804 -3.38398 0.432296 -3.7077
1498 1 -13.512 4.75731 13.1555 -1.31832 1.05464 -1.32192
1499 1 17.1511 2.92576 22.6457 2.30903 -1.17575 3.70744
1500 1 -19.2083 17.9848 14.0406 0.470454 -0.724263 -0.293688
1501 1 8.93541 16.8962 -15.7049 -2.65289 4.7907 -3.48005
1502 1 -23.8737 -5.86962 -6.34534 3.78983 -3.20366 -1.77506
1503 1 9.08151 23.9739 -23.4538 -2.93124 1.62551 -1.10307
1504 1 -3.93324 -23.7528 -6.38454 -1.39462 0.305849 2.87444
1505 1 18.2142 -22.9573 -20.9358 0.101694 -3.75984 1.57542
1506 1 14.4624 13.3042 -1.99035 0.776588 -2.1668 3.54107
1507 1 -19.9653 20.447 -7.31545 -1.27528 4.01193 0.359644
1508 1 20.4525 -10.1449 -4.59611 1.08701 1.65529 2.11664
1509 1 11.8 20.2562 -7.21799 2.07807 -5.06916 -1.18331
1510 1 -16.0648 -10.4103 -0.0403017 -4.15866 4.33046 5.04225
1511 1 -24.7772 -6.25443 16.4242 1.62149 -5.0992 0.388813
1512 1 -12.5638 -12.9397 -1.03663 -2.68659 0.568033 2.61742
1513 1 -20.7725 0.343369 17.5613 -1.45275 -1.57934 -1.85222
1514 1 -14.153 -5.50571 -6.11996 -1.21817 1.52837 -1.36737
1515 1 -8.75786 -21.1882 21.6272 -0.886931 1.35856 -1.30211
1516 1 -10.2295 22.9215 24.2167 3.6989 -0.0926554 0.607288
1517 1 23.6499 -14.3084 -10.4057 1.70309 -3.95085 -4.34098
1518 1 -1.72937 11.6807 23.9102 3.00825 4.60865 -0.353614
1519 1 -12.4608 -17.0962 0.485538 1.14008 1.90125 -2.67152
1520 1 10.4025 4.00106 -14.2086 -6.61418 1.97499 2.40527
1521 1 -7.69829 -9.95764 17.7461 3.52755 0.412964 0.571018
1522 1 -12.6457 -1.22051 -13.9606 1.08039 7.00491 0.0929448
1523 1 -6.26756 6.08326 13.9787 -0.156877 -1.0109 2.91198
1524 1 0.367577 -18.6188 6.36139 -0.567539 5.66352 -3.9401
1525 1 -10.9901 -6.79062 1.39704 0.871591 -1.96412 0.366899
1526 1 20.6858 23.1511 1.37052 -3.27653 0.0465791 1.00082
1527 1 1.49071 0.250035 -9.41936 -2.04056 -1.415 0.668628
1528 1 11.2409 14.246 15.2662 1.04883 -2.62688 -0.403983
1529 1 -7.04436 1.38409 12.4148 0.617028 -2.85043 3.11777
1530 1 15.9624 16.1143 4.5917 1.41191 3.15187 0.505738
1531 1 6.30416 -8.55698 10.0222 -1.62616 -0.451474 -3.38798
1532 1 19.5941 -4.53396 -17.1077 -4.14103 -3.17388 1.15235
1533 1 12.4142 20.3065 12.6137 2.43059 -1.93688 5.06304
1534 1 -15.381 -7.77065 11.8751 -3.00406 6.52093 0.341505
1535 1 2.52167 -7.1398 14.2692 1.6218 1.25945 1.3951
1536 1 -7.12798 0.447961 -24.1283 4.34769 0.432682 3.24822
1537 1 -2.44553 24.0921 -17.8622 -1.75064 3.62425 -3.3394
1538 1 6.49961 17.0065 17.9802 5.92761 0.131711 -1.04836
1539 1 1.1744 6.78475 -16.5817 -4.61793 0.649784 1.14592
1540 1 -20.7997 4.58005 -23.2854 -2.01182 2.00827 2.89614
1541 1 6.75368 -17.775 -7.37371 -2.90872 0.254815 -1.78748
1542 1 -21.8534 -5.27479 16.5312 -7.2635 1.7443 1.68685
1543 1 3.01781 -1.76303 13.8822 2.16934 5.01567 -2.45477
1544 1 -5.0791 20.6748 -18.9071 4.35028 0.801315 0.347872
1545 1 -7.57842 -16.0187 14.3496 0.511521 -0.635327 -3.50267
1546 1 -14.8327 -13.2753 20.8827 -2.00232 6.95399 -0.729108
1547 1 14.377 -0.464833 -0.859722 1.19715 0.826078 -0.676954
1548 1 17.2064 -23.6948 -7.88898 3.16396 1.74102 2.38946
1549 1 -0.968874 -2.70133 -15.6243 -2.04626 1.20198 4.75066
1550 1 -2.64432 -7.63545 -10.7376 4.41595 2.46517 0.578548
1551 1 9.62839 -0.615555 -5.65481 2.78386 5.3829 -0.0955583
1552 1 18.65 9.76383 -19.239 1.63224 1.31595 2.7969
1553 1 -9.26083 20.0233 -15.5809 2.24777 1.02831 0.420008
1554 1 -6.78862 -6.244 -20.8584 0.955548 -6.16497 -0.512078
1555 1 -21.5099 -3.46396 -4.39631 -0.648148 0.308069 0.975571
1556 1 20.3611 -17.1518 -8.78953 -0.272906 -4.80256 -2.70324
1557 1 8.39996 -21.4249 -18.1115 3.78135 0.167102 -1.49745
1558 1 8.65438 -16.785 -0.364336 -2.70183 -1.70124 6.1463
1559 1 21.7231 16.9148 2.41573 3.18283 1.40658 -1.26683
1560 1 -20.0618 -18.098 20.5492 0.559472 -2.19486 2.63105
1561 1 21.8817 18.5542 -7.05901 -1.02965 -1.62594 6.09458
1562 1 -0.173887 -5.64576 -0.589505 0.879751 2.90009 3.12402
1563 1 -3.55541 -6.23019 12.5028 -0.206509 1.20086 -5.07192
1564 1 9.91478 14.005 -7.25971 2.98747 2.00163 -2.64046
1565 1 -7.37136 15.5575 -10.7989 -3.43335 2.26223 -2.19231
1566 1 2.77549 -7.99527 7.21307 -4.17125 2.48393 0.744399
1567 1 0.602738 -9.97769 -21.2622 0.372848 -0.432825 1.78322
1568 1 18.8739 21.6703 -11.6237 -2.57548 1.21398 2.28214
1569 1 8.14135 13.5268 4.85803 -3.34227 -1.18809 -2.0544
1570 1 -21.5986 1.50327 -12.7521 -6.43579 -3.22321 0.966696
1571 1 -2.88105 -9.87714 -0.506041 0.695489 1.36704 -1.93037
1572 1 -1.25337 -16.4564 11.3363 -0.835362 -0.893692 -2.0978
1573 1 -11.0431 -12.4133 18.941 -0.290979 -0.640959 3.37572
1574 1 20.1298 -17.7549 2.93013 -2.69745 0.888212 -1.46686
1575 1 -17.52 14.9288 3.99067 -3.7502 0.20524 4.61604
1576 1 13.2733 20.2797 -19.7682 0.411616 -3.63604 -0.564439
1577 1 14.6098 -23.383 5.32443 -3.05685 1.72913 3.32717
1578 1 17.044 1.19605 -12.0294 3.48428 2.15124 1.45221
1579 1 -5.38365 12.5807 -6.41958 -4.15807 0.387728 0.941677
1580 1 -16.2529 -21.114 -6.47588 -3.04699 1.85617 -1.09585
1581 1 -7.5387 -6.16232 11.4391 4.07313 -1.18273 -7.53185
1582 1 -13.9001 5.47179 -1.84583 0.515746 1.58005 -2.48163
1583 1 9.61094 -1.32574 -2.96797 -6.11914 -7.64811 3.80248
1584 1 -6.49003 -3.74777 14.1989 3.7976 -4.91346 -2.54557
1585 1 -9.21501 -12.8349 22.6431 1.34835 0.201139 -0.934676
1586 1 -18.0271 -22.6715 0.897404 -1.26511 -3.06236 -2.07338
1587 1 17.5508 -2.5483 -10.0491 -3.39187 0.65554 1.11966
1588 1 2.81855 17.7353 -22.1041 3.93778 0.856851 2.53363
1589 1 -11.1386 -22.7321 -2.16582 3.09434 -2.07347 1.21166
1590 1 21.3748 8.48909 -15.672 -0.538201 1.91437 1.85658
1591 1 13.9955 12.4538 0.896064 2.28996 0.481758 4.13064
1592 1 17.9764 8.07468 16.4358 4.31157 4.99047 -3.23829
1593 1 1.65915 23.1865 -17.6132 -1.2906 1.45763 0.735701
1594 1 9.57614 5.36705 -2.06543 -3.41249 -2.94827 -3.58642
1595 1 6.54327 16.0003 -4.10355 0.251982 1.77174 -3.65164
1596 1 -4.0416 -2.43053 -18.5805 -3.23159 0.0347684 1.98774
1597 1 17.5843 -23.1186 6.23148 1.95407 0.345024 0.504293
1598 1 3.62992 11.885 3.21117 -3.51272 2.28222 -3.6409
1599 1 -22.0616 -3.85645 10.1983 -2.15028 -4.41529 0.113045
1600 1 18.2097 -13.3298 -16.7707 5.26978 -5.19661 -0.165787
1601 1 7.18694 14.6135 -18.4697 3.93832 1.03957 -4.0046
1602 1 -19.9063 -12.7562 -19.5398 1.32016 3.77687 -1.70607
1603 1 6.78642 -10.1771 -13.7651 -2.91007 2.8095 3.06379
1604 1 21.0579 -13.7832 -16.6425 -3.87156 2.18065 1.14224
1605 1 -0.264855 -2.5742 -11.8263 2.69547 -1.78897 2.20258
1606 1 -20.762 18.5081 5.93319 -5.86947 2.72141 0.45173
1607 1 13.0077 -21.9423 -15.1901 1.10368 4.51834 -4.50026
1608 1 23.3601 4.91727 8.92088 2.28793 -3.86473 -0.491684
1609 1 -22.4205 18.2834 -18.968 -5.02889 -1.32914 3.26493
1610 1 -12.2994 20.3385 -14.9584 -4.80426 2.43328 -1.7847
1611 1 4.82646 11.2255 -2.2424 -2.68433 -2.55548 2.05661
1612 1 -23.5039 -16.7069 15.3503 -1.30865 0.744289 1.22407
1613 1 0.0302012 -15.9561 1.79264 0.660277 1.08546 -1.25541
1614 1 -15.9131 -12.4164 1.80105 2.38957 3.85816 4.3031
1615 1 -4.46833 -15.2676 -9.91623 -5.07267 2.76869 1.07755
1616 1 15.912 -11.9859 -18.5867 0.10021 -0.79146 -4.26424
1617 1 -15.3227 -12.493 -10.363 1.44248 -1.70823 -2.53935
1618 1 11.4395 16.981 14.3768 -0.495092 2.25329 -2.57669
1619 1 14.5203 13.8578 19.236 -1.48984 -0.510649 -1.00304
1620 1 14.1857 -8.842 -8.08253 -0.72029 -1.68083 -2.69497
1621 1 -19.9496 3.50096 12.3739 4.08378 1.88348 -1.53768
1622 1 -16.1469 20.6993 15.2646 3.64984 -0.275084 1.22658
1623 1 -11.1738 -17.0148 16.6197 3.03988 2.60744 -0.720534
1624 1 6.39273 19.1231 -21.4151 -0.865718 0.304572 -4.29069
1625 1 12.0286 13.6797 -11.1126 4.09355 2.40323 -3.3182
1626 1 15.7706 0.473695 17.7923 -2.20917 -1.03612 1.93943
1627 1 18.0733 -6.78066 23.879 1.33625 -3.01632 -3.11071
1628 1 18.3668 3.45907 1.93353 -5.01991 -1.78866 0.111377
1629 1 -5.71494 -23.6483 17.3828 1.79604 1.45265 3.20424
1630 1 11.5168 -7.93213 20.8923 -2.5729 -2.024 0.198477
1631 1 -24.6499 -19.8734 8.5771 -2.39348 1.80747 1.79309
1632 1 -6.10558 8.72075 -22.2921 0.559485 -4.2109 -1.93285
1633 1 19.9436 18.4128 -22.5973 2.57557 2.07629 -1.04375
1634 1 -20.2106 -8.83147 -22.5937 3.19011 -4.61175 -0.200952
1635 1 6.96249 -16.1668 -9.79291 0.693405 0.898423 1.83235
1636 1 18.4426 -10.3287 11.9716 1.63462 2.93101 -1.00301
1637 1 -1.82244 20.3899 -2.81311 0.210181 -0.727188 -5.11816
1638 1 14.51 -5.16344 -19.0636 1.98317 -1.09127 -0.144328
1639 1 13.4223 11.1933 19.4889 2.88513 -0.14989 2.12094
1640 1 -17.5405 -22.1816 -12.2001 -2.77158 -3.54653 1.44645
1641 1 20.0256 -12.8725 20.8475 -0.989797 4.41838 -6.30989
1642 1 -2.84387 22.9477 5.85751 1.19011 5.05788 -2.41091
1643 1 -7.35503 22.9591 -7.81021 -0.658162 -0.048274 0.138841
1644 1 -19.0948 -1.30826 11.2061 4.71122 -1.55414 -0.675882
1645 1 -4.49998 -6.12363 -7.02662 -0.333006 2.8945 -1.22506
1646 1 -22.4456 -6.50411 -19.214 0.683954 1.09727 -0.889541
1647 1 16.7346 11.7542 -18.4961 -5.57135 -1.2211 -0.273195
1648 1 -20.88 -14.4597 -23.4524 1.86098 2.5109 1.99893
1649 1 -16.5122 -5.91707 -11.8788 -1.25384 -1.04266 -0.764345
1650 1 10.9098 -4.65176 -12.2282 -0.334403 -0.609969 2.00975
1651 1 14.3802 -18.4159 0.263829 -0.0736082 4.57989 3.78986
1652 1 12.3255 4.91939 -19.3823 -2.05157 -0.819743 0.102046
1653 1 12.0368 -22.4441 3.59589 2.99924 1.71531 -3.02823
1654 1 5.30298 -17.0877 11.1811 1.74565 2.39372 1.37016
1655 1 -1.27078 13.073 12.8098 -1.23365 1.38816 2.37788
1656 1 -4.82464 13.1401 17.234 1.72573 0.655762 -1.08366
1657 1 17.0105 7.75965 -13.0634 -0.83126 -1.15721 3.40864
1658 1 -17.9488 18.9631 6.56725 -2.40149 1.74888 -6.45646
1659 1 -5.71589 -23.6644 7.28935 -1.50343 5.63584 -0.0263422
1660 1 4.41626 -9.76624 -22.2737 -2.72839 -2.03764 1.41982
1661 1 23.7148 1.14331 17.0323 2.63099 -0.0697416 5.49437
1662 1 -9.75343 -20.2008 -7.43535 4.45385 -0.46369 -3.1548
1663 1 -15.0549 -1.38243 -0.990438 1.43504 0.966304 -4.30913
1664 1 3.06998 -10.3081 -14.9659 -1.41732 2.04159 -1.05192
1665 1 -4.94614 6.24895 18.3384 -0.967018 1.63409 -0.954884
1666 1 17.8861 -6.80921 -17.0022 0.412368 -2.42448 6.0778
1667 1 -13.1446 -1.60502 8.26356 -2.76014 -0.00286828 -3.25493
1668 1 -9.68572 17.828 7.85143 -4.89122 -1.80247 0.460699
1669 1 15.9192 -22.7283 -11.3874 -1.65365 -6.13496 2.53528
1670 1 3.96037 16.1996 -1.05484 -2.31008 2.38746 0.17128
1671 1 -14.5955 8.344 21.3237 2.9503 -0.993744 2.72267
1672 1 3.92893 11.2298 23.2297 1.71449 1.83554 0.761353
1673 1 1.89903 -18.0972 1.92086 -6.07658 5.5439 4.10415
1674 1 4.00994 -2.95237 -7.67533 -6.39992 -1.24635 4.0963
1675 1 2.66975 8.67232 16.0564 -2.12515 1.88948 -0.915801
1676 1 -20.0769 1.77905 -5.442 5.66916 -0.671619 1.16613
1677 1 23.1205 -18.6323 12.2841 -0.671056 7.85786 4.68817
1678 1 3.54426 20.9766 -18.0436 -2.76941 -2.24795 2.4195
1679 1 -10.2757 20.9574 19.5799 0.0587434 1.22719 -2.03978
1680 1 -24.149 -18.3338 -20.6105 2.90233 0.284321 -0.152364
1681 1 -17.5612 -8.33442 -21.9241 -2.5175 4.19911 -1.88616
1682 1 6.89125 9.5544 1.92694 -5.13281 1.15314 -4.12347
1683 1 15.3985 23.4359 -16.5954 3.54583 -3.60918 -0.569946
1684 1 6.75956 15.7555 15.3937 0.444416 5.92156 -0.386416
1685 1 -20.8374 14.7684 23.0139 5.09471 -0.329684 1.52897
1686 1 11.5273 -10.6021 22.37 1.81503 2.87435 1.54446
1687 1 21.879 -17.973 -14.3681 0.766931 0.399865 -9.49322
1688 1 -17.8998 -2.41769 -12.823 -1.40125 -0.805487 -1.73622
1689 1 2.82547 -23.697 -1.56982 2.17401 1.1605 1.63424
1690 1 -7.11004 -24.503 11.5013 1.71798 1.84948 -1.97545
1691 1 -18.2262 -13.1274 5.79486 6.24441 -0.825315 1.38567
1692 1 -2.10553 20.0022 -6.88361 -0.426275 3.04876 -1.37739
1693 1 22.5686 7.73789 22.9225 -0.124213 0.0489504 3.35175
1694 1 -14.601 3.57347 -13.0733 -3.68712 4.40558 -0.775221
1695 1 18.5813 -23.575 -10.1392 -5.53703 0.270173 0.0220142
1696 1 12.2045 -1.75828 3.3222 -2.40284 1.55033 2.82888
1697 1 -12.5034 -23.2492 5.79597 -3.99471 1.66488 0.444447
1698 1 -8.20214 11.2393 -0.620138 -0.9721 -1.78241 4.10932
1699 1 13.2977 1.26579 14.8424 2.34254 3.33872 3.93264
1700 1 14.124 -2.22806 -13.2994 0.481059 1.79536 0.329718
1701 1 12.2562 23.8993 -3.58577 -3.58683 -0.429585 2.46624
1702 1 2.28714 -20.563 13.0283 -5.86927 -5.07016 -0.92596
1703 1 3.63133 3.90302 -12.9952 1.92153 -1.82431 3.69091
1704 1 -11.1474 -11.0628 4.19132 0.339055 2.97978 -1.65983
1705 1 -1.33581 23.9069 18.9429 -1.34436 0.627573 -2.8784
1706 1 7.27139 9.97577 -18.912 -0.848301 -2.38967 1.60072
1707 1 -10.5821 -10.3183 16.8511 2.18701 1.20951 -2.84066
1708 1 -6.54881 22.6934 13.3989 -4.87599 1.01295 -1.24512
1709 1 19.3628 18.3657 -2.76036 4.06584 -3.42726 -1.17655
1710 1 -8.32824 -21.112 -14.1524 -2.03428 -3.11487 0.715457
1711 1 -2.77253 4.56238 2.20089 -2.36947 -1.63974 0.340483
1712 1 13.1342 13.8151 -20.0191 -2.57549 -2.30852 -3.14733
1713 1 22.2352 16.4448 12.4117 6.44232 -1.27867 2.99288
1714 1 6.45276 -0.879989 -12.0813 8.02675 -2.56074 1.19242
1715 1 12.5167 23.5256 17.6954 -2.46502 -2.12579 -0.666876
1716 1 16.7646 -23.8471 23.7885 3.36033 0.836502 -1.5982
1717 1 11.2005 -16.2158 -1.67401 0.662211 -5.4717 2.07162
1718 1 7.36976 -19.985 -12.3867 -0.277578 -3.6976 -5.14974
1719 1 21.5152 7.34792 0.820515 -1.10448 -1.1611 3.24528
1720 1 -3.76758 -22.8649 9.23445 1.68535 -4.02544 3.33363
1721 1 5.11219 1.53098 11.3702 -1.73417 2.89173 -0.751631
1722 1 19.7445 -22.7004 16.452 0.06464 1.36436 2.78876
1723 1 -24.4382 16.341 2.47302 1.61015 -2.57704 4.05902
1724 1 -18.2114 -23.008 -2.92072 -1.43012 1.84301 0.931394
1725 1 -14.3439 6.37706 -16.5302 0.507662 -1.79994 3.59844
1726 1 17.4856 21.0451 23.3366 1.10064 1.53123 4.64557
1727 1 23.4127 -3.21635 -18.7765 3.28758 1.16528 -0.322509
1728 1 23.9162 -5.80505 -20.3776 -3.34999 -1.75767 -1.58497
1729 1 -13.7463 7.38065 14.1497 0.280059 -1.38507 -1.85875
1730 1 -3.72235 -9.68876 -23.8578 1.21399 -1.15667 -2.18598
1731 1 20.7698 4.97913 -3.95886 -1.81226 4.27977 3.88722
1732 1 14.7747 -12.2232 6.96258 4.00968 -2.715 -5.24992
1733 1 -11.7383 -16.8575 8.04746 -3.22696 1.95839 0.0932769
1734 1 -7.74667 23.7565 -23.1985 0.11727 -2.62522 3.15834
1735 1 1.18267 19.5517 -16.7417 -0.479617 1.15664 -1.25742
1736 1 18.6515 4.06152 10.6913 -2.73255 0.0285521 1.54521
1737 1 -18.2468 0.542712 -6.80891 -5.17533 1.31291 -6.69025
1738 1 4.17951 9.88629 -22.7917 3.30065 2.26345 1.94295
1739 1 -7.04095 -19.4667 15.6622 2.49974 -1.96795 1.61223
1740 1 2.89232 19.5899 17.5687 2.72014 -0.781632 -0.80574
1741 1 11.0684 11.9844 23.8946 5.05138 0.574176 1.30512
1742 1 -0.222381 -6.58074 20.9963 -1.14762 4.72212 4.51614
1743 1 20.1308 -15.3365 9.56595 -0.159598 2.09701 4.13877
1744 1 15.5795 21.7746 -7.49254 3.09122 -2.41598 -5.31977
1745 1 6.42589 13.7198 -5.98263 3.00964 0.18074 4.02115
1746 1 17.421 23.7084 -12.4309 -0.327558 1.76098 5.42482
1747 1 3.8296 -17.207 -6.62082 -2.07946 -1.25588 0.0596148
1748 1 15.6635 0.147654 -3.36765 1.544 2.46926 -2.21114
1749 1 22.2251 10.1611 15.1675 -0.584765 -0.406171 -2.66795
1750 1 16.3285 21.1571 11.2478 3.0729 7.37506 -0.425925
1751 1 2.08672 -10.0341 13.4211 -2.66053 0.277211 3.05401
1752 1 23.3828 17.815 -19.4631 0.612305 0.903154 -2.11044
1753 1 -23.2394 -15.7408 -21.0761 -1.3377 0.792594 -4.44234
1754 1 -24.7571 9.73354 -21.6809 -2.62349 -2.59198 -1.32945
1755 1 -9.4491 -0.592994 -7.88489 1.1373 -0.656931 -5.53976
1756 1 -15.5347 4.33698 7.49365 -1.98182 0.0406927 -0.291031
1757 1 18.7381 -12.7851 -7.82056 -0.408167 -2.34982 -3.9741
1758 1 20.3813 -23.8682 6.37737 -3.2769 -1.57453 -3.58458
1759 1 22.1155 9.90554 10.8036 1.17904 1.42414 -0.191964
1760 1 -16.5586 -13.7589 -22.7977 -5.3554 -0.795867 -5.05547
1761 1 22.1847 -17.1386 -21.0592 -3.42584 0.190284 -0.238336
1762 1 3.82339 19.7229 4.14219 0.263174 1.31808 -2.29994
1763 1 -2.68421 3.76718 13.2771 -4.7273 -2.04437 -1.64658
1764 1 -14.9566 18.4728 -13.4039 5.99735 6.25856 -0.26451
1765 1 3.62195 -18.0381 -3.90246 -1.32143 2.37627 -0.712161
1766 1 -18.4254 1.13143 15.9108 -0.920683 -0.0095579 -3.80526
1767 1 10.0964 24.3987 18.5115 -0.996466 -0.409677 -1.63579
1768 1 13.3046 -3.7181 8.21456 0.247635 1.80078 -2.18197
1769 1 -23.0541 16.2826 15.8232 -3.27096 1.37697 -0.823893
1770 1 -9.08612 -5.22939 20.7015 1.08864 -0.414647 0.0549401
1771 1 -0.100511 22.6526 9.33315 -2.19889 0.393236 3.20142
1772 1 12.0598 -22.629 0.402503 -0.667165 0.386617 -4.69899
1773 1 18.8016 13.9155 7.45973 1.699 1.87145 0.545253
1774 1 17.7943 -17.9485 22.6597 -2.08685 1.56714 1.83205
1775 1 9.33271 13.6903 -9.9844 -2.18189 -2.58678 0.478303
1776 1 10.4244 13.1437 -2.2943 2.13651 -3.58553 -0.0655417
1777 1 -23.4844 -10.3054 15.5484 -4.30247 2.44923 3.36001
1778 1 -16.4817 -7.69377 -14.5067 3.93809 6.30842 -2.30532
1779 1 5.77954 3.80085 -6.26314 4.65523 -1.7112 -0.268486
1780 1 5.70443 6.71325 -5.80682 1.2255 2.69798 1.99692
1781 1 8.4046 18.3449 -23.6702 2.6058 -3.72322 -4.26274
1782 1 -22.49 -13.3744 -11.2787 -4.25537 -1.78878 0.630522
1783 1 17.1452 6.5379 -6.21112 0.490796 -2.37413 1.05895
1784 1 -8.75618 14.2105 13.5013 0.623036 -2.41142 1.35544
1785 1 -6.71465 6.43964 -8.59795 4.04429 0.74445 -3.83808
1786 1 -4.86824 0.647319 -7.46422 0.683215 0.893794 -1.34898
1787 1 6.92106 18.5948 -13.2367 3.88184 -0.816992 -1.92631
1788 1 -15.6911 -16.7249 16.773 0.156746 0.165512 0.16955
1789 1 23.665 -1.2979 -5.71394 -4.97853 -1.82818 -2.62119
1790 1 7.77366 2.82022 -13.6307 -0.800471 -7.31096 -2.19656
1791 1 1.09136 -7.26486 -15.6599 -0.592749 -1.46907 -0.919555
1792 1 -14.8257 6.34179 5.74305 0.510249 4.10713 -2.26063
1793 1 19.4248 5.91287 -22.9114 5.0282 0.845807 2.20647
1794 1 16.9527 2.50002 -19.9763 -0.793269 -0.338705 -3.40372
1795 1 15.4152 -0.730749 -10.9567 3.19094 -1.4439 1.92935
1796 1 -22.5886 -9.91473 -23.9441 -1.49296 2.96436 -0.597809
1797 1 2.43674 16.5781 15.1265 0.422875 -2.19872 0.769512
1798 1 17.8883 -6.2583 -20.0684 4.69606 -2.50908 5.14875
1799 1 -11.5941 9.74385 -13.8132 0.74913 -0.107608 0.033524
1800 1 -0.587543 1.30042 11.1062 1.52421 4.50335 -0.659332
1801 1 -12.3431 -19.7763 -3.60908 5.11342 3.11783 -4.84082
1802 1 -18.9152 -19.009 -10.2479 -3.26421 -4.77006 2.51251
1803 1 -15.4395 14.3139 -8.45077 -1.29556 3.88121 2.30024
1804 1 -3.78007 -22.3995 -13.8036 -3.76174 -0.990777 2.86078
1805 1 9.80091 4.85636 -6.20638 0.848125 1.64077 -1.17716
1806 1 11.937 -3.99496 15.9324 2.01992 2.88649 5.41397
1807 1 -18.6498 -9.76399 23.6573 -3.90374 0.948352 5.25334
1808 1 22.0997 -11.6802 19.4673 0.289781 1.74538 2.69262
1809 1 9.83162 19.3179 0.144984 -0.169547 1.09928 -1.53107
1810 1 10.7113 -23.3553 -6.62229 -1.35583 -4.20125 -5.24556
1811 1 0.154117 4.46368 20.1182 1.77491 1.39661 -3.03276
1812 1 -11.9616 -3.68344 -21.3093 -2.0589 0.203944 -0.145293
1813 1 -16.8766 7.67667 18.3376 2.09059 6.37595 3.66177
1814 1 11.3983 4.38901 -11.6342 1.3144 1.91483 3.19882
1815 1 12.3423 -4.77262 22.5118 -3.4095 -0.660329 -2.33768
1816 1 0.111291 16.3963 -11.0898 1.40506 1.4623 0.584096
1817 1 -1.38157 18.1234 -18.0108 1.07373 -4.59379 3.82663
1818 1 -22.1144 -9.08122 6.69631 -5.80315 3.15138 0.00742235
1819 1 -13.8766 -11.353 18.8617 -1.18208 0.631984 -1.08365
1820 1 15.8462 11.6038 -11.8939 4.74622 5.38403 -1.26604
1821 1 20.1372 22.7851 12.0572 -5.01273 -0.985172 -0.94787
1822 1 16.3184 -2.56852 -2.38271 2.02477 -2.98508 -2.05044
1823 1 6.07135 47.3834 9.75342 -0.22341 -0.986282 -2.42564
1824 1 -17.137 -18.0804 8.63189 -4.7784 2.14719 -2.69628
1825 1 7.50843 -10.956 -5.10001 1.27572 -1.32192 -2.38649
1826 1 20.115 9.43287 2.30927 -1.41894 2.18158 1.5264
1827 1 15.8973 -21.4618 -3.17989 -3.75462 -1.59102 -0.820383
1828 1 -13.457 -21.5979 -22.3134 0.869444 1.61906 4.1449
1829 1 5.31872 18.1204 6.0501 -5.23762 1.63808 -1.66191
1830 1 -15.611 2.77897 -17.0102 3.30767 4.58749 2.39918
1831 1 13.0243 -15.7809 -3.50232 0.78469 0.10004 5.64833
1832 1 -23.3872 -11.957 22.994 -1.17377 -4.13578 -1.54163
1833 1 -10.4307 2.86277 17.9907 -0.886773 -1.79462 2.0083
1834 1 7.37114 -8.97626 -21.1458 -2.00476 -1.03674 -3.00052
1835 1 5.50545 23.0463 18.4903 1.42392 1.16887 -1.78351
1836 1 -11.1914 -21.971 -18.3431 -0.123206 -1.23112 0.142097
1837 1 13.8806 -21.0608 8.86235 3.32891 -1.40645 -3.7033
1838 1 19.9806 20.5041 2.41861 2.80601 -1.24469 1.81413
1839 1 20.0419 21.605 5.21577 0.670479 -3.12706 1.4367
1840 1 -20.9568 -12.4141 0.728161 -4.94466 -1.65565 -2.97404
1841 1 8.37344 -23.9615 -11.1563 -2.57253 -5.22835 4.94921
1842 1 13.6041 -20.6346 2.09914 2.66755 -8.46491 1.38775
1843 1 7.94764 -3.62419 -21.7184 -2.49947 -0.383764 0.378556
1844 1 -5.22004 -3.5011 5.55546 0.575537 -3.22965 -2.84427
1845 1 21.6577 16.3899 -23.5333 -2.76904 6.78864 -1.68774
1846 1 11.2414 -21.073 6.03007 2.8364 3.38081 2.92707
1847 1 19.4578 -14.9507 19.0299 -2.24319 -4.09761 -0.708486
1848 1 6.28637 6.76884 -16.4242 3.29765 -5.27138 1.06991
1849 1 13.2947 -23.2201 -12.6873 -3.78882 3.06442 1.13104
1850 1 16.4683 -19.5049 -7.39253 -1.53507 6.87701 -2.43482
1851 1 -6.47183 2.55187 -0.2732 -1.3641 -5.72065 0.324151
1852 1 1.06031 0.554878 -20.0116 -1.19811 -0.0413327 -0.61176
1853 1 3.62689 -11.7757 6.77064 3.26368 -1.27462 1.00782
1854 1 3.47742 -24.8197 11.0443 1.10016 0.254455 3.41312
1855 1 0.604481 22.2451 -15.0905 1.4163 -1.33544 0.272657
1856 1 8.30739 -4.21346 -18.8028 -0.946157 4.38722 0.941264
1857 1 -0.542111 -20.8334 2.03258 -6.35853 -1.93148 -5.50967
1858 1 1.96675 -15.7387 -11.8229 -1.29926 0.225307 -2.19751
1859 1 6.54622 -14.6468 -15.6401 -3.76971 -1.11396 -0.631148
1860 1 7.57062 -0.573685 9.09168 1.59399 0.928939 -0.117752
1861 1 -16.2657 -20.971 -18.5275 2.24459 1.06757 1.39001
1862 1 -12.2465 -2.01854 -7.9074 2.98 2.0846 3.08909
1863 1 -4.02955 -14.5708 -7.04712 0.76169 1.63508 -4.37125
1864 1 -5.9214 11.9078 19.68 -1.06205 2.98558 -7.19175
1865 1 -9.80849 -4.72107 6.30838 -1.24989 -2.18825 1.30608
1866 1 7.92265 21.0337 12.508 -4.77923 -2.26752 -2.36575
1867 1 6.16074 -8.00453 -2.15998 -3.14272 -4.93243 -2.50341
1868 1 -7.5629 3.48979 17.9263 2.39972 1.8741 -2.35302
1869 1 -1.1674 23.4794 16.1708 0.822977 2.50845 2.17762
1870 1 -18.0346 9.11026 14.3811 1.96799 1.15468 -2.25356
1871 1 18.2769 -12.1253 5.15254 2.57058 2.14761 0.435422
1872 1 -1.65105 -10.4311 -9.85287 -0.191911 -2.07315 -0.292828
1873 1 -9.87736 15.339 8.81372 2.77135 1.028 -0.239826
1874 1 -10.172 -15.2662 -21.0075 2.92631 2.3777 -0.0867648
1875 1 23.5139 -6.74117 -12.7604 -0.141052 0.423535 1.88768
1876 1 -22.6949 9.82445 -19.4939 0.882486 -5.20426 1.43939
1877 1 -15.4668 -5.49836 7.73644 -0.228914 -2.18085 -2.83414
1878 1 22.666 22.7013 -1.02024 1.40187 0.84356 -7.26836
1879 1 -20.1955 -16.3578 -17.8566 -3.61041 -13.0133 3.2334
1880 1 -0.63421 23.2407 -19.6162 -2.72003 6.52812 1.00579
1881 1 10.2846 4.14735 19.5204 -3.15755 1.7192 1.71991
1882 1 -9.00255 8.05317 18.4189 -4.33157 -2.82039 0.563169
1883 1 -6.5001 -12.9855 -6.39392 0.168251 -4.02376 3.75819
1884 1 16.8309 14.1631 9.54536 -0.448153 5.12325 0.0456638
1885 1 -7.75956 17.9301 21.8292 -2.07279 -1.43654 2.53872
1886 1 18.6531 21.4703 7.61578 3.14956 -4.02285 0.969382
1887 1 18.3663 -6.9354 15.837 2.79323 0.242739 1.45557
1888 1 -10.2005 -18.1051 -13.2497 -3.59829 0.0981643 -1.89725
1889 1 -12.0486 2.06081 9.85364 0.752418 2.73582 0.708222
1890 1 -23.4844 7.21466 23.7809 -4.42146 -6.5254 1.27749
1891 1 -10.3105 -13.4583 -23.4405 5.30596 1.3215 -1.01513
1892 1 -0.390552 -13.4475 -14.7635 1.11349 -1.85982 -0.106353
1893 1 4.6347 1.26066 21.3811 0.910435 -2.31128 0.297134
1894 1 -0.189569 -18.8613 -4.19433 0.0825504 1.60869 0.991723
1895 1 -19.4379 -6.87244 16.8705 5.37098 4.03031 1.84137
1896 1 16.2579 21.258 -0.879764 2.70469 -1.88126 0.53636
1897 1 -12.5332 -24.7413 -5.76451 -5.30992 3.79326 -3.16331
1898 1 -22.1218 17.2522 13.0695 1.35081 2.4983 -1.8613
1899 1 -6.09418 19.2695 -5.54807 2.3681 6.63485 4.57203
1900 1 -11.5836 0.755596 4.50217 -0.573843 -0.144607 0.305391
1901 1 -10.3955 -13.716 -18.5548 -1.55611 -2.4139 -1.17538
1902 1 20.2488 0.349477 -20.2132 -1.57893 -0.394001 -3.72312
1903 1 0.471932 -16.0876 -14.0654 1.04795 2.03752 3.04831
1904 1 -8.92064 -20.4258 17.6069 -0.215608 2.01194 1.02071
1905 1 -14.049 8.50792 -6.01696 -0.477486 -1.16207 1.50156
1906 1 -19.3103 -24.8688 13.2786 1.14569 -0.776303 -0.663754
1907 1 -22.7566 -9.17975 13.0754 5.51538 0.667896 -2.69855
1908 1 -16.4804 -5.29571 0.288682 3.36446 2.31442 -4.30214
1909 1 10.3115 -10.06 12.2016 -0.338441 -0.817782 0.517452
1910 1 -8.07271 -11.1085 15.0483 2.16509 -0.774169 1.37377
1911 1 19.6027 -1.79188 -5.84388 -0.509728 0.19051 1.86577
1912 1 -15.8535 4.26517 -0.178883 1.79068 1.28796 2.68053
1913 1 0.201087 18.8874 -1.16793 3.16887 3.48206 -2.87852
1914 1 20.3281 6.69455 5.16236 -1.33952 1.80449 -0.11475
1915 1 19.6855 -19.3954 -15.0849 -1.9223 -0.259486 -2.36019
1916 1 -4.75322 16.3877 3.83553 0.734252 0.863976 -0.513526
1917 1 -23.7717 23.5135 19.3339 -1.39063 0.801699 2.39439
1918 1 -18.4018 -0.922049 -20.5197 -2.35205 2.99688 2.32487
1919 1 -22.0399 10.5024 -14.2619 0.0863591 -1.01306 7.94892
1920 1 23.3563 -15.0137 0.439291 -3.13094 5.0865 0.0854238
1921 1 18.2375 13.3647 -6.13065 -0.919306 -3.79328 -3.49162
1922 1 9.62539 14.1533 19.7825 0.116961 -0.707384 -2.99952
1923 1 12.8685 0.807454 -10.5246 1.2338 1.35838 1.58708
1924 1 23.783 -17.4455 -0.720489 0.709213 1.69667 -4.83281
1925 1 20.6275 -24.1666 18.7611 -0.707948 -0.678435 -0.238693
1926 1 13.2417 -2.07942 -6.22405 -4.32515 2.33097 -1.75873
1927 1 -8.80981 -20.8318 -21.6465 2.14778 -5.02811 -0.454043
1928 1 24.0068 -2.86122 4.5182 1.34815 4.41372 -1.53619
1929 1 7.6362 18.6181 1.76248 0.362039 0.885452 -0.921232
1930 1 -7.85588 -15.5603 -17.9801 -3.6761 1.1989 -1.57605
1931 1 -9.60778 6.32014 -1.89153 5.4149 -5.16947 -3.60492
1932 1 -0.846549 19.1559 6.67829 -4.72307 -4.44449 1.35029
1933 1 -3.01282 19.0881 -20.2982 2.33741 -4.6165 3.82584
1934 1 1.31248 -11.0582 -1.31952 -0.643898 0.709154 -2.60714
1935 1 18.4687 -15.2655 2.90506 2.27774 -6.38961 -3.28755
1936 1 18.8789 -21.848 23.7606 0.737146 2.78867 -3.09434
1937 1 2.43241 3.22414 18.6928 1.54536 -2.43204 -1.38246
1938 1 2.33532 6.00506 17.1907 -1.18854 2.7867 1.64389
1939 1 10.9594 11.1251 2.61524 1.31777 -0.567219 -2.35215
1940 1 -20.1969 -24.1088 5.73502 -4.66607 1.13959 0.761956
1941 1 -1.18835 -22.9973 -12.5591 -2.25418 -0.504599 -0.744335
1942 1 -2.07698 7.59575 -2.75899 1.45792 -4.53855 -1.26956
1943 1 4.3046 17.578 -6.77535 -1.34815 0.790248 -0.189932
1944 1 -19.8017 -21.4881 -0.85528 -1.71169 3.64072 -2.56053
1945 1 -23.6717 -20.3244 22.3929 -1.64218 -0.568712 1.88994
1946 1 7.45194 9.34327 -6.03965 2.19121 -0.822862 4.16054
1947 1 -17.7839 12.3785 -14.4549 -0.242083 2.73174 3.47392
1948 1 12.1171 1.94252 -15.4263 -0.00719291 2.75368 2.22323
1949 1 -8.50101 -7.19346 -8.8878 -1.12621 -1.30431 2.42668
1950 1 23.5053 20.9832 -6.00705 -0.0561807 -0.278783 -3.15703
1951 1 -5.04487 -15.2096 13.3481 -1.70845 1.61757 0.240803
1952 1 6.28157 -15.0335 -12.6672 -0.67932 -1.27284 4.99375
1953 1 16.3774 -18.7319 -2.23742 0.108879 0.470317 -1.82971
1954 1 5.54127 6.5284 10.3076 3.26259 0.418326 3.87352
1955 1 -13.4882 -17.5761 22.1325 1.1018 -6.39643 -4.37933
1956 1 -4.98769 0.861236 6.25048 -3.41683 -0.930752 0.84181
1957 1 14.4952 15.4583 8.51842 0.249183 0.3088 -1.32768
1958 1 13.6164 5.87664 17.2279 1.10299 0.091106 4.50581
1959 1 23.1979 -4.24326 -2.04098 -2.48733 -2.35945 2.78564
1960 1 -16.0183 -4.16136 -19.6599 1.76495 -0.438367 3.66763
1961 1 16.6664 -11.8964 -5.81132 -3.21209 1.65181 2.83631
1962 1 0.0832921 -12.648 -3.53502 -0.689068 -3.00002 1.12182
1963 1 -1.26736 17.9539 1.00037 -1.21578 2.99837 0.222773
1964 1 21.1436 24.6741 -16.9362 -4.28695 7.19918 1.11178
1965 1 17.7273 -5.3663 20.5097 -1.00802 4.9531 0.557378
1966 1 -18.7635 -16.1338 -11.1534 0.577968 0.829107 1.31327
1967 1 -15.4016 -22.9836 17.9145 -2.76523 -3.11117 -0.0689214
1968 1 -22.6874 12.3176 12.2369 2.14393 -2.79697 2.96915
1969 1 -4.17935 -8.52729 11.1652 1.35221 5.54976 2.17732
1970 1 21.3213 -6.85619 -1.52209 2.51496 -2.02433 -7.75303
1971 1 22.9742 -2.51521 7.19351 0.968771 -0.343622 -0.255022
1972 1 -3.72789 -7.20089 8.7044 -4.52045 0.656926 2.94267
1973 1 12.6055 -16.4162 19.3993 -3.14309 -3.37621 -2.66819
1974 1 15.7398 -10.5308 10.8177 5.94855 -1.85409 -2.74586
1975 1 12.0598 -17.4545 -17.6481 -0.0326481 -3.24704 -1.0676
1976 1 21.4867 -10.3633 24.016 -1.17617 1.554 -3.50259
1977 1 15.6718 -14.6785 11.4413 -0.285292 -2.17435 0.52985
1978 1 6.03203 -3.75344 23.6307 1.4797 -1.81203 -0.338429
1979 1 -0.0683589 21.3343 12.012 3.79703 -0.316841 -1.49711
1980 1 -21.6985 6.17026 -19.5132 0.178742 -1.94405 1.26826
1981 1 17.6504 24.367 -2.89364 -2.07939 -0.125581 -1.58397
1982 1 -20.7121 -4.32568 22.1657 2.38646 2.57206 -1.6952
1983 1 16.7451 -5.0178 -5.31613 1.9722 -0.574844 8.00588
1984 1 2.77372 19.2587 20.523 1.20487 0.775171 1.02062
1985 1 1.79329 -23.9465 -9.5525 -4.22118 1.86452 1.32091
1986 1 14.0013 -6.07817 3.02353 0.253269 -3.55549 4.61088
1987 1 -21.0773 2.33612 9.99303 5.24209 1.75075 2.65651
1988 1 6.86829 18.9935 8.43387 2.70063 3.02349 -3.07529
1989 1 -11.933 -15.1153 10.4359 -3.36254 -0.764776 4.83458
1990 1 20.1206 -13.6341 -5.59455 -3.61771 0.24669 3.8855
1991 1 -23.1467 -22.7729 21.2033 0.2926 0.755168 -1.18428
1992 1 12.7365 20.7785 3.75393 8.46661 -1.93165 0.0889168
1993 1 4.19024 12.5777 -13.1529 -4.9439 0.399218 -1.73485
1994 1 -24.7216 -18.0614 3.93332 -2.61483 -3.2593 2.1734
1995 1 1.85267 1.7665 13.0379 -4.12381 -0.931613 3.67183
1996 1 -10.6805 6.59964 -23.5291 2.05376 -2.76242 -1.90582
1997 1 21.6108 21.7604 9.60345 1.02445 1.84945 -0.0129538
1998 1 -12.936 10.2575 0.362104 -0.114343 -4.16728 -5.71834
1999 1 -2.04358 -11.4951 23.394 1.6632 0.889879 3.02501
2000 1 3.73659 2.01634 -20.2802 0.307576 3.74568 2.36359
2001 1 -9.47581 -11.6637 -3.3544 -0.546894 1.47758 -3.10525
2002 1 -22.3552 21.0981 -9.08386 -4.49708 -0.471861 -2.31234
2003 1 12.1057 -3.88941 -9.65798 3.28759 1.91101 4.6107
2004 1 0.044207 -21.9072 -22.407 5.05528 -1.72284 -1.2065
2005 1 3.30872 -3.17468 17.9169 3.61713 -2.68653 -2.87575
2006 1 10.7043 -10.9913 -7.90219 -3.10443 0.404868 -1.57314
2007 1 -11.6593 13.656 -11.4553 6.02056 1.27673 -3.14418
2008 1 -9.39937 22.7366 12.8476 0.119403 -3.17321 0.664587
2009 1 -3.71093 0.976326 -0.924812 -0.476744 2.02957 3.30085
2010 1 -7.9338 2.89763 23.6142 2.04854 -0.279804 -2.54045
2011 1 -1.77883 10.2971 18.1299 5.83541 2.80114 -0.695221
2012 1 16.4015 -19.2872 14.4974 -2.81658 1.7994 -1.63708
2013 1 -13.6524 22.3212 4.18102 -0.910351 -1.72416 0.00777781
2014 1 -9.45112 -9.29689 13.347 0.563358 0.744225 4.37203
2015 1 -2.26027 -7.20005 -3.43401 1.08139 -4.85679 -0.98741
2016 1 -5.85721 -16.702 -6.0719 4.94025 -5.06737 -4.64983
2017 1 12.4588 8.43726 21.9579 2.17276 4.24695 0.82275
2018 1 -16.8238 -1.08792 6.07939 -2.5603 2.47596 1.90075
2019 1 1.04462 22.2386 19.2638 4.10867 -0.893481 -0.691599
2020 1 9.27079 -13.7042 -14.98 -0.414067 0.331332 4.79162
2021 1 -3.95214 11.8045 10.859 2.59564 -1.55229 1.13595
2022 1 18.2195 23.0707 9.85829 3.56488 7.49621 2.31759
2023 1 -21.3672 -11.6371 7.93642 -2.93505 -3.42343 -2.4392
2024 1 10.0486 9.38803 12.4569 0.728958 0.0250769 3.79883
2025 1 2.85402 -10.7176 24.1053 -1.06368 3.65236 -3.3849
2026 1 9.09244 20.1049 10.0003 3.4524 -3.99631 1.33113
2027 1 5.89638 16.6161 -11.0647 -5.21223 -2.16479 1.04391
2028 1 1.38705 -2.25068 -19.1943 0.0115578 1.50882 -7.14526
2029 1 14.6278 -8.54555 -3.36739 -0.171677 4.94694 2.23335
2030 1 10.1213 -17.0687 -21.697 1.75205 5.62263 -2.76959
2031 1 -6.67959 -20.981 -11.6074 -3.09674 1.08815 -2.17659
2032 1 -8.82869 4.58832 6.1938 0.424643 -1.11686 2.05989
2033 1 10.0708 15.3118 -0.147855 0.984226 -2.39998 2.29613
2034 1 -10.4091 -3.10944 -17.8266 -3.7315 -2.25778 1.58964
2035 1 15.2686 -16.4041 23.3171 -2.52842 -4.55845 1.91195
2036 1 -13.3134 7.01185 -22.5039 1.70822 -1.2908 -3.33868
2037 1 -16.5575 8.2428 11.0103 1.35769 0.72279 -3.58695
2038 1 19.3232 -0.211539 12.6233 1.18983 -1.10904 2.9698
2039 1 9.69895 -22.3447 -22.6578 -6.03724 2.8231 -5.78192
2040 1 -6.40472 -23.6151 -5.16637 5.83763 -0.986726 -1.35635
2041 1 -13.0839 -13.3295 23.1379 2.11713 2.26986 -1.80382
2042 1 6.46927 -21.5989 22.9232 0.997011 7.31015 0.148092
2043 1 18.364 10.736 13.1537 -6.42949 3.29355 3.38562
2044 1 3.20829 -6.42797 2.24173 0.691419 6.9288 -3.0653
2045 1 6.76401 -17.3632 -15.7527 -2.92024 0.460509 -4.17496
2046 1 -7.3367 14.8399 17.4564 -0.27271 5.47141 1.08316
2047 1 -6.84141 -13.4407 7.52533 -1.7406 3.62097 -1.00559
2048 1 2.45738 13.4291 -17.2494 -0.93863 -1.5894 -1.79624
2049 1 17.9877 20.944 -19.0364 0.592375 2.95209 -1.82135
2050 1 -10.7711 5.93421 -10.1438 -0.277206 2.87213 1.7683
2051 1 -23.2212 8.54055 -4.47487 -3.61859 7.22559 3.14671
2052 1 -8.47931 3.6361 -20.6598 2.15605 3.77185 1.35572
2053 1 -23.0762 12.4574 -18.332 -2.60973 0.774883 -2.05055
2054 1 14.3502 5.03202 -1.15052 -1.53794 1.96336 -1.66302
2055 1 4.6533 15.1841 6.70724 -1.138 1.12208 -1.93613
2056 1 -5.6216 23.7391 23.6142 0.759679 0.120935 3.14832
2057 1 16.315 -4.62055 7.45713 1.83084 -4.27606 0.454795
2058 1 21.7722 9.9674 -13.2378 -3.38617 -3.10907 2.18555
2059 1 3.44934 -9.34616 19.7675 1.99131 -2.19387 -5.67907
2060 1 -7.77658 -2.26013 -5.29601 1.42267 3.88461 0.34702
2061 1 -16.5385 -24.6694 -23.5094 -0.231473 -1.98928 -0.269529
2062 1 -17.1292 19.0229 -8.08294 1.11471 -0.109409 1.14986
2063 1 -10.8948 -10.9566 -19.3749 -1.18313 -3.19418 -3.88176
2064 1 -14.8627 -17.4904 11.6399 3.7484 4.04499 0.806897
2065 1 13.8035 -18.9729 23.6858 0.549782 1.64562 -1.145
2066 1 19.164 6.29553 8.85393 -3.49662 3.49674 -1.62581
2067 1 -23.8266 8.89026 21.4051 -2.91325 0.492079 -2.14865
2068 1 -15.7092 8.51897 -3.63362 -3.41208 2.30133 -2.10584
2069 1 23.1426 -21.341 -10.0248 -0.500656 0.349845 7.20198
2070 1 23.8386 0.85612 -0.725841 1.629 -0.161703 -3.99822
2071 1 -20.9393 -13.5924 22.3378 2.9337 -6.61027 -0.15401
2072 1 -19.1045 6.10625 21.5939 -7.0915 -0.527597 2.74036
2073 1 -18.8296 7.51442 -16.6471 3.62057 -0.847305 1.28931
2074 1 1.88937 10.6238 -13.3071 2.32637 1.15496 -2.83619
2075 1 -7.12607 -14.7879 22.81 4.24195 -0.714245 0.33795
2076 1 -13.531 24.3996 -9.13687 -2.89728 3.17008 -1.43529
2077 1 -17.7013 -4.43424 4.49387 2.75413 -1.3813 0.473709
2078 1 -12.8191 1.67434 -22.2206 -0.557258 0.797251 1.4169
2079 1 5.63267 -14.5631 -18.5984 -2.99815 0.655879 -2.99409
2080 1 23.6283 -24.0048 -16.6237 -2.98083 -1.6005 3.74476
2081 1 -23.7994 19.3675 -15.2883 -4.26823 -5.40298 -5.03457
2082 1 -7.36996 17.2952 3.05723 8.83468 -0.441718 1.41883
2083 1 19.5642 8.62736 -9.0676 -2.63584 0.0135902 -0.919632
2084 1 15.3423 18.0678 20.7221 -4.384 1.84008 -0.292757
2085 1 -20.588 -20.7771 -8.58398 -0.0384501 0.522154 -1.53497
2086 1 -11.0303 -13.4625 5.95109 -0.597795 -0.00154252 -1.14106
2087 1 -10.1881 6.04724 -16.5779 1.25348 0.0739368 1.47531
2088 1 8.92128 20.5285 20.4905 -0.923767 0.603512 1.3883
2089 1 10.0889 14.2281 -19.6488 3.92835 1.69225 3.60452
2090 1 15.4102 7.62045 18.1989 3.50826 0.563921 -2.82658
2091 1 -8.80036 7.62907 13.4977 -3.43378 -3.54667 2.02424
2092 1 -18.1201 22.6439 -23.1851 -2.43765 -0.441406 -1.21948
2093 1 -3.16418 12.6292 -2.04735 2.20946 0.106987 0.939045
2094 1 23.1432 12.1077 -2.95492 -2.3107 -2.00731 2.52054
2095 1 -21.5395 -8.79661 3.70813 0.498568 -2.00899 1.13765
2096 1 9.0218 -5.5367 0.405729 3.66805 2.29065 2.47805
2097 1 -4.19908 6.33139 10.2878 0.161797 -4.22785 1.46811
2098 1 -15.7388 -16.2322 -5.98067 0.485367 4.73863 -7.3657
2099 1 14.7082 -9.32344 6.83667 -1.40081 1.0018 3.01516
2100 1 -1.29301 -4.56451 22.8598 -2.0669 2.23362 2.88757
2101 1 -22.9313 -7.67537 18.2181 -1.88032 1.77085 0.424803
2102 1 6.15501 8.01735 -8.58541 1.19996 5.11123 1.58905
2103 1 10.8991 -16.194 -15.2812 -1.65466 0.52225 4.37611
2104 1 -22.0818 -4.66432 19.6182 5.2814 0.373629 -5.27124
2105 1 13.169 9.82027 -11.8362 2.88253 4.65485 1.65337
2106 1 -20.2126 -15.3658 -20.581 -1.11527 -0.009893 -2.54242
2107 1 -8.11565 5.277 -12.4837 -0.313198 1.98376 -1.90231
2108 1 -10.4465 10.5692 2.05145 -0.187298 -0.632307 1.44505
2109 1 -4.24599 8.30713 20.4227 -1.64349 -1.17438 4.66858
2110 1 2.81179 9.21766 0.820018 3.16769 0.467345 2.68108
2111 1 23.16 -10.527 21.6966 5.90523 -4.60067 2.08707
2112 1 -10.8272 3.61827 11.9321 -2.42052 -1.73706 1.46988
2113 1 -17.7972 -3.45616 21.3342 2.79335 -0.364837 1.26951
2114 1 0.0205479 -23.2527 20.3002 3.34264 1.77346 1.15016
2115 1 16.6189 -13.6422 -9.90886 -2.38681 -3.79315 -1.3528
2116 1 19.6091 -4.13926 4.43228 -2.95146 4.4648 1.4814
2117 1 23.6946 22.6254 6.40154 -3.70259 -1.01033 -0.574265
2118 1 -11.2372 -1.47298 -3.1774 0.321735 -3.93973 -0.71176
2119 1 -10.3476 16.8116 2.264 1.42929 3.66108 0.158416
2120 1 15.9686 -18.392 11.0035 0.353672 1.287 -1.81524
2121 1 9.04346 -20.1518 23.4523 4.09857 0.618207 -6.91365
2122 1 11.702 8.09573 -9.39743 1.16321 0.353493 -1.45549
2123 1 22.2511 -8.45554 -18.2779 0.477472 2.0754 0.10454
2124 1 21.6821 -0.952198 -18.2926 0.629667 3.62626 -3.05287
2125 1 -2.19137 -14.617 14.8393 -0.842726 -2.37606 -1.93007
2126 1 11.5129 -6.2712 -3.42931 -2.16093 0.657346 0.841916
2127 1 24.0693 -8.95452 -22.5362 3.46853 7.20583 -2.2574
2128 1 -18.1272 -19.3784 -1.88796 3.46861 -3.99027 -6.66825
2129 1 -13.6883 -22.6735 12.592 1.17868 3.47319 -2.63944
2130 1 -22.6768 8.70917 -7.42262 -1.22419 4.05072 -1.06814
2131 1 18.2797 -7.06494 -1.35344 -1.02887 -0.841717 -2.33621
2132 1 11.6185 -20.938 -24.3191 1.3423 -3.44943 -0.545977
2133 1 -13.8325 -13.2679 6.69784 0.175219 -0.995204 1.23521
2134 1 12.0807 21.6375 8.39851 -1.9262 3.58329 -1.60521
2135 1 17.3529 9.72304 23.7064 -2.52198 2.37158 5.92509
2136 1 -5.03858 -21.155 5.45998 0.207217 -1.57558 6.66082
2137 1 17.9696 16.5652 -24.1335 -4.03103 2.77993 3.8025
2138 1 17.6253 22.8871 -14.9993 -0.511075 3.71228 1.98515
2139 1 -8.11376 3.51893 -16.598 2.33978 -0.407212 -0.954063
2140 1 9.48457 -14.1283 17.5966 -3.11463 0.141255 1.30085
2141 1 -21.7101 -21.7007 1.10282 -3.07951 -3.83867 -0.470523
2142 1 -17.446 -8.88756 17.2857 -1.18012 -1.89926 0.618475
2143 1 19.7049 4.52455 -16.1688 -8.14048 2.37245 -1.29947
2144 1 4.12933 -1.84756 5.67781 -0.393264 -1.61365 -5.16295
2145 1 20.1663 9.99402 22.8129 0.270586 0.533315 1.69469
2146 1 2.97158 9.44587 19.0803 -0.797914 0.0620963 -1.08593
2147 1 3.92835 5.40403 14.8977 0.478388 -1.86732 1.25911
2148 1 11.7386 -22.5111 19.0934 -3.77496 0.868333 3.50854
2149 1 19.4518 -4.3013 -4.57697 1.87509 -1.05041 3.57624
2150 1 17.889 -9.92799 0.927993 -0.459056 0.596613 3.15907
2151 1 6.92076 4.68486 -11.4564 1.95916 -1.14742 2.96029
2152 1 8.8181 21.7632 -4.91217 0.508466 0.561046 -1.91333
2153 1 -8.32307 -11.4831 -0.708859 0.0799122 -1.82633 -0.957603
2154 1 -10.4336 17.0153 -23.6702 -2.77696 0.243267 -2.97901
2155 1 14.8245 3.83518 20.8327 -0.406832 -5.28305 4.07705
2156 1 -20.9932 17.8051 -8.62314 -7.39994 2.64774 -2.93189
2157 1 -2.63258 16.1089 19.5 -4.03915 -1.07484 2.67079
2158 1 -16.9623 13.1686 14.647 4.08506 -0.491355 1.28756
2159 1 4.8887 -21.5287 12.3722 -2.08611 -2.71304 3.29435
2160 1 -20.3514 -2.02858 20.5099 -3.6319 4.37028 -4.14943
2161 1 -0.350046 10.0339 -5.16505 -1.17725 1.16378 1.99626
2162 1 20.8942 10.5458 -5.72389 4.89422 4.16555 3.98278
2163 1 6.44454 -7.566 12.8954 0.542994 -0.745834 0.579394
2164 1 16.6187 2.68873 -9.29674 0.771603 -7.66655 2.15403
2165 1 18.1938 19.6413 -13.7053 1.51784 -5.64547 4.36642
2166 1 -14.5592 19.0024 -16.3261 2.80509 -6.28262 4.39936
2167 1 -14.2047 -10.9097 -17.6314 0.0223961 -3.94 -3.35104
2168 1 -20.2201 17.9139 3.06788 -2.95448 2.99925 2.26982
2169 1 10.9059 -7.02871 -21.073 2.86659 -1.34937 -1.18357
2170 1 -7.97029 -15.695 -0.295441 4.78085 2.0226 -1.86378
2171 1 -3.94485 1.95164 3.46926 -0.216177 -1.95808 -0.193355
2172 1 0.033982 20.0398 -4.92435 2.15773 2.07246 1.67354
2173 1 20.9337 0.650252 -14.6095 6.03087 1.54064 -2.93777
2174 1 4.96477 8.38393 -3.52002 -3.76733 4.34358 -2.49691
2175 1 10.2696 -24.0146 11.3286 3.81405 2.84975 -4.7888
2176 1 9.11614 -19.4776 15.7918 -2.84174 -9.12071 4.30895
2177 1 19.2445 16.3222 18.6123 -4.52605 -5.45214 5.71887
2178 1 18.1836 -15.6843 -8.45936 -0.923671 -1.83083 0.253355
2179 1 11.5729 -3.46377 5.9843 -3.724 -2.81927 2.71502
2180 1 11.2921 -7.16555 -11.0631 1.90139 0.884954 1.71871
2181 1 -16.6885 -21.0279 21.3378 -3.19125 3.00096 -0.724811
2182 1 -3.00888 -0.63398 11.6543 -3.41828 -2.77829 -2.77181
2183 1 5.86948 -4.47238 11.1989 -1.06736 0.363959 -2.02144
2184 1 16.1373 16.6037 -18.7437 -4.62504 0.441164 -0.804163
2185 1 7.16413 7.48917 18.5549 -0.453427 -1.90971 4.00556
2186 1 3.44633 -9.63281 -17.6848 -2.99646 4.70044 -0.883779
2187 1 14.87 -5.4781 9.83144 2.55561 0.999799 -1.38338
2188 1 -13.0251 4.43723 8.72591 -1.18052 1.51711 4.19079
2189 1 2.7389 17.4549 -10.4106 -3.76992 -1.10713 -0.143547
2190 1 -1.04423 2.83496 -12.5914 -3.92485 1.20221 0.961161
2191 1 13.3242 10.0651 3.97984 0.978483 -0.030437 -1.57414
2192 1 0.839905 1.64321 24.496 3.00571 -1.85605 4.86317
2193 1 16.9106 -14.0032 -14.207 -2.23831 -2.89692 -1.54184
2194 1 -20.5089 1.9998 24.0989 -5.86836 -1.20905 -1.72313
2195 1 -10.5518 -17.9367 -9.26712 -1.33046 -3.89388 -3.06488
2196 1 -3.48256 5.79113 -11.505 4.64585 -5.54493 -4.41384
2197 1 17.1087 23.1116 21.6822 5.76736 6.03502 -0.253028
2198 1 2.89982 11.4868 -4.48778 -0.978064 6.81849 -3.03064
2199 1 -17.8835 10.5354 0.958176 2.10964 0.492989 1.28503
2200 1 -3.47863 -23.0023 1.98523 0.224009 -2.06107 -1.07127
2201 1 13.7713 -12.454 -21.5644 4.77398 -1.08567 2.39588
2202 1 17.8793 -18.5137 -19.1759 -0.874244 3.71916 -1.2089
2203 1 7.32657 0.194226 -2.94004 -2.91773 -3.43293 -2.21926
2204 1 5.10727 -0.440558 -1.36575 4.1369 0.967378 0.243464
2205 1 -23.3349 8.36773 -15.2766 2.84235 -3.60476 0.246081
2206 1 -2.33402 -9.49857 -14.7298 -0.156199 0.153794 2.82712
2207 1 -23.4405 -7.8401 -2.14186 3.59304 5.66643 0.287997
2208 1 17.7254 18.9749 -5.18189 -4.78479 0.646486 2.39767
2209 1 -24.5982 23.0331 22.0523 -0.638093 -6.27783 2.62587
2210 1 21.1644 -18.5888 -1.71756 -1.8266 -7.26886 -0.714182
2211 1 -17.7271 4.01723 -20.2958 -4.309 2.47017 -1.13836
2212 1 -17.929 -5.11748 -6.16992 1.15329 2.00931 -0.393664
2213 1 18.9887 8.65927 -5.50696 -2.57603 0.967705 0.823254
2214 1 11.0049 9.52409 19.6092 -2.41848 4.47639 5.48702
2215 1 9.71489 17.5513 -1.9917 -2.44367 1.25802 -6.48572
2216 1 2.11039 -1.48703 -13.2747 -3.6558 -0.318497 1.88489
2217 1 11.8716 -13.1286 21.1381 6.31107 -2.54083 5.65039
2218 1 -17.6423 -6.39884 21.5886 -4.11856 -5.10783 2.91362
2219 1 -10.7214 -22.3871 16.0932 -5.18631 -3.56295 -4.3501
2220 1 0.330157 16.7215 -14.009 -3.57864 0.853829 -1.38046
2221 1 18.6489 4.62961 18.8558 1.30017 -2.41835 -1.15607
2222 1 1.77288 6.41822 3.65567 1.88764 0.592172 -3.04347
2223 1 -20.4259 12.7645 -23.4044 3.69018 1.33282 2.09128
2224 1 -14.6009 13.9805 -3.96288 0.478113 -0.35012 -1.64056
2225 1 1.15089 -16.832 -22.5305 1.96127 5.11019 4.27107
2226 1 19.0383 -0.769753 15.5846 -3.89431 -3.53751 -1.72425
2227 1 8.4314 2.55802 -3.8014 -1.82531 1.56166 -0.587037
2228 1 -8.35255 -7.43876 -23.0354 -1.95446 -3.60668 1.18737
2229 1 17.2308 5.05328 16.5857 5.80239 3.2507 1.88609
2230 1 2.35349 19.9626 -3.00718 -0.888621 1.79373 -2.39475
2231 1 -12.2024 21.7232 9.5393 5.18115 2.51663 -3.03614
2232 1 -22.7102 22.4035 -16.6053 -1.88516 0.797848 -2.43131
2233 1 -10.9186 2.31563 -16.9695 -5.62436 -0.918914 1.10284
2234 1 -4.13083 2.62902 -5.2835 -6.51351 -0.31461 -0.92765
2235 1 7.66628 -24.3907 12.0541 4.4587 -4.6984 1.07213
2236 1 21.6658 5.80516 -18.5195 2.07364 2.97044 3.8534
2237 1 -0.928311 -22.4825 -19.5622 -0.522361 1.37109 2.2849
2238 1 15.0051 14.6257 -15.9043 -2.22206 -4.63695 -3.03963
2239 1 -15.6382 -9.53892 23.2796 6.75036 0.208607 -2.22795
2240 1 14.6969 17.2226 16.4951 0.238736 -3.59909 3.48335
2241 1 -22.7162 -2.39421 -17.8077 4.06965 4.03447 3.14469
2242 1 -10.4921 -15.0633 19.838 -3.33729 3.93319 4.44559
2243 1 11.4894 23.3857 -9.57241 0.973897 -2.02241 -3.89023
2244 1 23.5784 21.8556 -15.2702 0.607998 -2.95928 -4.34936
2245 1 21.6847 -19.0726 9.97304 -1.11618 -1.89408 -0.502595
2246 1 2.31132 17.1141 -16.1891 3.67745 -0.475324 1.44857
2247 1 23.3057 -12.2012 9.66685 -2.23554 -1.74538 -4.27272
2248 1 -1.98558 -7.04588 -13.2528 -1.60416 1.14149 -2.53428
2249 1 -15.1755 11.9884 -16.871 0.0149103 0.312781 -1.23579
2250 1 0.27916 0.465495 8.04259 -1.90576 0.856609 -1.80675
2251 1 -11.537 -9.0046 -12.0152 4.74537 -2.67332 -0.597052
2252 1 -24.4996 -12.189 0.305167 -8.68055 3.23152 -4.69249
2253 1 6.53734 -18.5396 -3.55221 -3.22039 0.021344 -1.42721
2254 1 4.9461 17.7729 14.1822 -1.5545 -1.39827 0.896871
2255 1 1.82643 -1.98688 -16.1261 1.28068 -4.27758 -3.59618
2256 1 15.1547 18.8149 -21.9499 -1.70758 0.858742 -6.31667
2257 1 -0.625651 3.46895 -7.71941 -2.83329 -2.10019 -1.44303
2258 1 -9.59263 14.7366 -22.1164 0.373417 -1.30665 1.54153
2259 1 -21.074 -8.72382 22.688 -0.0337757 -4.46624 -2.18345
2260 1 20.6314 18.1002 -16.863 0.66792 -0.976497 0.602309
2261 1 14.0986 -4.4589 -7.76246 4.88838 -2.6634 -5.18433
2262 1 18.1041 -22.9378 -1.80864 -2.89738 0.381133 3.94506
2263 1 1.87184 -16.1322 -2.28315 -2.78286 -2.55552 -1.05064
2264 1 -3.70177 18.9599 3.7879 0.758657 -0.147035 3.2067
2265 1 -1.62515 2.37319 18.5307 -0.799363 -0.120253 1.92748
2266 1 -22.1496 7.89649 13.3397 1.10105 0.895627 1.9976
2267 1 -10.7112 -15.16 -0.812046 -1.54884 -2.12174 -0.236817
2268 1 13.6628 0.479938 -5.56222 -1.08 -5.20668 -1.96479
2269 1 17.9479 9.60653 -22.0718 -1.57916 3.97118 -2.438
2270 1 -5.87526 19.8482 2.01525 4.2947 2.71747 -3.39966
2271 1 23.1804 -16.707 -8.70235 0.910613 4.60859 -3.61163
2272 1 -0.0794244 12.2284 10.3503 -3.42582 0.34403 -1.94527
2273 1 -23.2552 -19.6091 15.6816 6.61993 -4.81536 5.58214
2274 1 -5.41812 -0.115293 19.272 1.35402 4.60331 -1.70923
2275 1 -11.8251 23.2025 -15.4897 2.66847 0.735112 -4.78949
2276 1 -0.552215 11.1101 3.79934 0.557849 -1.21272 1.17304
2277 1 -13.1373 3.85426 22.359 -0.478434 0.534866 3.93185
2278 1 -14.3498 -14.2665 -3.87587 2.39037 -2.7282 -0.80124
2279 1 -11.795 0.818505 7.4203 0.454066 2.3499 -4.16963
2280 1 12.0868 -11.0924 -2.56946 -7.29263 4.89467 0.354483
2281 1 19.9578 12.7201 23.2578 -1.70358 -1.03835 -3.21873
2282 1 -5.76661 23.6115 6.46933 1.17436 -2.61597 -0.574289
2283 1 22.2473 -12.0428 7.06917 -3.88731 1.15996 0.721116
2284 1 -20.9601 22.1355 -22.9577 -1.42018 3.41957 1.15651
2285 1 -21.77 16.4263 1.16215 1.51707 2.8465 -3.48647
2286 1 4.08046 -9.19037 2.93052 2.16533 -5.15602 3.06703
2287 1 21.0173 15.9923 16.3519 -5.86843 1.08617 -0.248433
2288 1 22.8203 -8.17488 -6.49564 -2.9341 -1.13486 -0.0740605
2289 1 -3.27216 12.7323 -22.5905 -3.3307 2.30398 2.78111
2290 1 15.6163 -8.20987 21.9577 0.42396 -0.203521 1.83897
2291 1 -0.266687 19.431 20.0131 -1.54076 0.299409 2.42323
2292 1 -14.0693 -10.3875 -2.20909 1.2031 1.16496 -4.59469
2293 1 2.05992 5.68313 11.078 3.13928 4.52384 -0.118665
2294 1 -19.9274 9.7135 -18.2176 2.52369 1.43033 -0.734871
2295 1 -13.5413 10.1557 23.4062 2.61916 1.58588 -1.61512
2296 1 -22.2313 -9.18547 -17.7553 0.189677 3.67791 1.28999
2297 1 9.79015 6.2294 -20.3865 -0.278079 1.13152 -1.42304
2298 1 -3.10448 -21.2377 -5.86288 1.25439 -0.974968 1.25479
2299 1 9.29168 -12.1556 -3.12639 -0.46075 3.1153 -3.21671
2300 1 6.97429 12.4328 2.37252 -0.728811 -0.753396 1.19387
2301 1 5.28022 -24.1185 22.0829 2.90296 -1.32422 1.70428
2302 1 15.5871 10.7103 -16.0714 4.84122 -1.07119 4.44445
2303 1 -12.1015 18.4842 -12.6321 2.92383 -0.835341 0.976085
2304 1 8.83226 17.1254 7.83579 -0.854143 5.22799 -3.32216
2305 1 -14.879 18.0375 12.2279 1.19132 -0.542645 1.85568
2306 1 3.64407 -4.85954 22.4621 -0.39642 3.25363 -1.25459
2307 1 -15.2377 12.4965 22.661 2.25355 4.14655 -2.2979
2308 1 5.73279 3.06958 -18.4206 -1.28849 -0.196784 -2.21363
2309 1 21.5424 17.9347 22.6874 3.59665 -2.88528 -3.87574
2310 1 5.04632 -17.8406 8.29156 5.44608 -1.57393 -4.90926
2311 1 6.72373 1.08413 2.4483 0.450444 -3.15069 2.65215
2312 1 -20.4652 -21.3733 8.94166 -6.38096 -5.09175 -2.48547
2313 1 -8.68507 13.351 -17.742 1.80738 -1.54497 3.18731
2314 1 -16.8234 5.71828 9.73757 -5.19386 -4.29138 2.73724
2315 1 -10.6405 13.3822 15.472 -1.06492 -1.04789 0.604379
2316 1 -18.6581 -12.0329 2.38796 -4.09487 -0.48431 -2.192
2317 1 -4.1411 -10.3573 -8.37514 -2.98361 0.287543 1.69244
2318 1 20.4582 -7.06505 -4.57652 2.23528 3.00862 1.87074
2319 1 5.4406 -9.58074 7.21989 5.0618 1.62574 0.706242
2320 1 21.5385 2.82855 -19.0717 -0.387519 1.77958 2.32318
2321 1 -2.58561 23.1218 23.9058 -0.209183 -1.78194 6.03914
2322 1 -4.66321 19.3004 18.5967 -0.341099 -5.17007 1.23184
2323 1 3.94029 -3.82666 -4.31701 -4.18362 1.11087 0.475082
2324 1 7.54219 -18.6044 -18.0498 2.17567 -4.42665 1.31161
2325 1 15.4981 -20.7376 -15.8383 -1.8327 0.755731 -7.57587
2326 1 21.6238 -10.5125 -14.6608 -2.22193 1.02808 2.07477
2327 1 12.887 -0.0872221 -17.427 1.86749 -4.06845 -2.93655
2328 1 -10.6129 -8.62977 -4.85136 -8.12535 0.365017 2.29527
2329 1 6.9223 5.72491 12.4682 5.86652 0.97684 2.9966
2330 1 12.4386 -21.723 16.3461 -3.96531 2.17199 -0.276595
2331 1 -16.8467 -15.3245 12.7613 -2.99997 1.10531 -0.209609
2332 1 20.1027 -16.5053 12.4686 2.28431 3.2649 -2.11937
2333 1 11.6675 -19.486 -14.0783 0.292155 -4.16213 -2.07329
2334 1 -10.4759 17.7755 14.11 1.61697 -1.75479 2.30793
2335 1 -3.57304 18.9034 23.0273 2.40143 2.00027 3.49419
2336 1 16.5222 -11.5884 -21.593 1.0467 3.419 3.43166
2337 1 8.83394 6.10021 0.804114 -4.67362 4.95516 0.686437
2338 1 0.258005 -4.19141 -21.3072 -1.09741 0.601188 3.15865
2339 1 7.49945 10.331 -3.23322 4.4575 -1.06653 3.11291
2340 1 8.42174 8.70918 14.8209 1.79922 2.05143 -1.83074
2341 1 7.31418 -17.9066 -22.0303 -4.33633 6.38157 -1.08683
2342 1 8.79906 -14.252 0.85916 0.105394 4.65058 -1.58398
2343 1 9.20557 21.7136 2.00022 1.1237 -0.686668 2.98106
2344 1 13.4285 23.4274 3.99267 0.0142892 0.810193 -3.32078
2345 1 7.1765 14.6853 -15.3343 5.63614 -0.157303 1.5773
2346 1 -4.42177 -19.9406 9.17955 -1.18032 4.27561 -5.15528
2347 1 -14.2043 10.8817 -14.3415 5.29278 -4.71037 0.525337
2348 1 8.14976 -1.62899 4.11943 -1.72532 -3.75832 0.25209
2349 1 -9.8757 21.5709 15.2487 -0.613494 -2.43689 3.11599
2350 1 11.6675 7.35935 -12.2387 -2.56218 -3.74994 1.31061
2351 1 17.1641 10.5825 -13.837 -1.19087 -3.00036 2.64996
2352 1 -1.84072 20.5243 -22.5184 -2.26115 1.98508 -2.41881
2353 1 15.0725 -1.92585 6.32797 0.249186 0.507664 3.07286
2354 1 19.525 -18.2768 -23.4821 -4.37413 2.62782 -2.65695
2355 1 -8.1963 -0.266642 1.30979 3.03601 -4.31441 -1.70508
2356 1 14.811 -22.4564 -8.6408 2.6988 3.77866 3.79447
2357 1 -2.20665 -2.57683 1.75624 -1.61225 1.16166 -5.47848
2358 1 3.38132 -10.7101 -12.0012 1.29254 -2.95011 1.31412
2359 1 9.22472 9.85734 7.80303 -2.6945 -1.99141 -2.54795
2360 1 13.6987 16.0223 2.68982 -3.54864 -1.11708 0.151342
2361 1 -22.3602 8.78588 -11.8421 -2.9633 -1.50472 -0.550532
2362 1 -20.4456 11.0306 13.4871 0.410698 2.36046 3.54469
2363 1 17.1981 -11.6244 -1.29786 -1.63348 1.69036 1.57655
2364 1 2.13958 -2.71743 -0.0854374 -3.76305 2.27986 -1.77397
2365 1 22.9061 -8.55337 -3.36673 -1.47291 -0.865878 0.0880943
2366 1 10.5264 4.01765 1.70473 0.446705 -2.49409 0.0288275
2367 1 5.5975 17.214 10.5337 -3.97797 -0.835056 3.12169
2368 1 -7.31921 -19.3761 -6.15043 0.159796 0.312003 -0.777996
2369 1 19.4772 3.55298 15.3262 -2.71588 -1.60883 -3.47102
2370 1 -22.9062 -8.59231 -6.19532 1.53658 -10.0118 -1.02506
2371 1 16.8908 -19.9013 0.159907 -3.07524 3.03399 -0.729113
2372 1 -24.6651 5.50023 -0.768932 -1.41399 -3.55019 2.79665
2373 1 13.2054 10.6279 16.7095 -1.8 0.298152 -0.225903
2374 1 -5.51265 8.14637 -1.5596 -1.9961 5.83963 4.10174
2375 1 10.3651 22.3808 13.988 -4.82241 -0.729591 1.34263
2376 1 -14.7881 -1.27584 22.9902 -0.920726 1.60705 -3.38932
2377 1 -6.31754 -7.33735 -5.26106 0.201299 -0.176219 6.19585
2378 1 6.52837 -1.92398 19.8922 0.886802 -0.289696 1.24137
2379 1 -22.4641 12.5362 9.16321 0.206329 5.02449 0.193527
2380 1 8.92524 -13.3861 21.5555 -6.64977 0.379517 1.81514
2381 1 12.1139 -8.76353 -4.85376 -1.30706 1.3739 -0.520297
2382 1 -13.9392 16.1467 -16.8693 1.12431 3.96026 -2.16137
2383 1 22.7939 -18.464 6.30478 1.80883 1.45837 0.282078
2384 1 7.53057 -12.5938 24.0664 -2.10506 -1.47946 -5.05825
2385 1 -0.883468 6.91587 2.51749 0.05814 0.416965 -1.02114
2386 1 2.11355 -3.30983 7.16116 -1.30287 -1.9133 -1.97197
2387 1 -12.7221 -6.39487 12.6996 3.13834 1.00871 0.42404
2388 1 9.04439 23.5117 20.9249 -3.90008 1.65144 -4.37616
2389 1 8.04836 -10.8599 10.6499 -2.51137 2.58228 0.436376
2390 1 -21.8679 -5.49403 -8.46256 -6.45529 2.38462 -1.06207
2391 1 -7.72537 -2.11899 7.81474 1.5303 -4.11261 1.63664
2392 1 10.2319 -22.4984 -15.6848 -0.972427 1.51491 -2.2697
2393 1 4.54563 -17.7062 20.9438 3.32783 -3.00531 1.25748
2394 1 15.8522 15.202 -5.50084 -0.307429 -1.82166 -1.64312
2395 1 4.47042 16.8179 20.0381 -0.207277 -1.8715 6.75127
2396 1 -16.1843 -20.7551 -0.276011 -0.646197 1.01523 -3.84599
2397 1 -16.178 -7.76164 19.5878 -3.16472 -0.4649 2.09382
2398 1 -8.5798 -1.77951 14.5346 -4.54638 -1.21441 0.394195
2399 1 -13.1282 -10.5095 10.5393 -0.96472 4.30344 -0.943692
2400 1 12.0823 -7.90019 16.0822 3.92542 1.67316 1.45275
2401 1 -17.5347 21.0005 -3.71789 0.763822 -4.67745 -0.27198
2402 1 17.3217 14.2932 -19.7865 -0.572002 -5.91523 -0.484009
2403 1 -10.7079 0.199667 -23.9248 -0.236038 -0.167606 2.34191
2404 1 -21.1775 -6.2193 -23.1573 1.60854 -5.41124 -4.38679
2405 1 -4.96411 -11.0394 -21.7827 -1.76355 0.137445 2.3172
2406 1 23.7875 8.04248 -12.0054 -0.68257 -2.91151 1.11915
2407 1 -13.1216 -13.3528 15.0022 2.71973 2.5962 -2.49011
2408 1 -21.433 -3.67117 -12.8383 0.358174 1.38963 -0.22614
2409 1 6.56801 11.1623 15.0221 -1.62885 2.47571 3.55449
2410 1 7.03513 -20.8919 -23.0913 3.14228 1.49395 -5.81348
2411 1 9.53611 11.6764 -18.1479 2.20187 -2.76675 1.25492
2412 1 9.85019 18.8753 15.9201 2.6734 -1.9468 -0.487743
2413 1 -6.1277 21.8965 4.17163 1.56879 -0.794583 -4.12046
2414 1 12.9851 -6.77055 -6.63584 7.12134 -1.01819 -2.9139
2415 1 22.8092 -22.5413 24.3431 -4.65467 2.105 -0.373363
2416 1 7.10641 12.4377 9.56622 -3.00146 0.597515 0.112274
2417 1 -3.76554 -4.73244 -0.11534 0.0312825 1.31688 4.08711
2418 1 13.153 2.45488 -7.76902 1.44148 2.3704 -0.0989589
2419 1 22.7126 8.19269 -18.1398 5.38552 0.77944 -2.39752
2420 1 -1.35533 -5.98096 -8.83774 1.40927 0.560442 -3.70529
2421 1 -23.5897 16.6714 -7.54393 -2.60078 -4.90305 2.25896
2422 1 -15.0639 3.66836 17.1006 1.2989 2.41238 -0.106818
2423 1 13.4018 20.3147 6.3767 -1.15125 2.63707 -4.83986
2424 1 -24.3874 15.7431 7.20334 0.632619 -1.16839 3.09521
2425 1 -15.4313 9.09868 -23.0614 2.48595 -2.00745 -1.76765
2426 1 0.210606 16.4591 20.0313 0.616124 3.62605 3.49315
2427 1 13.951 3.16223 4.23497 4.90016 1.07413 -0.749752
2428 1 12.7049 -16.574 14.5068 -2.12388 -0.988724 1.17476
2429 1 -8.72069 -9.34088 -13.445 3.45727 0.614446 4.35584
2430 1 -13.5324 -6.89667 16.1011 1.79723 -0.113927 1.80592
2431 1 -18.812 17.9865 -10.609 -2.02091 0.452428 1.29683
2432 1 19.2281 13.7339 -17.6786 -3.10352 1.26516 2.22868
2433 1 19.6736 -22.706 20.8411 5.06163 -3.14833 -4.0054
2434 1 -0.167074 -21.8914 -2.96287 -1.37761 -0.920584 -1.28551
2435 1 -14.832 22.2718 10.2182 0.315549 -0.0643294 -0.634043
2436 1 -7.11709 10.045 17.6358 -5.0109 -4.11388 3.85039
2437 1 -14.2481 -5.21311 10.6147 -1.46167 -0.347396 3.22707
2438 1 -4.39537 -22.4935 -21.701 1.30522 -4.18938 3.55248
2439 1 -14.5389 18.3887 9.46972 -3.37084 2.88708 4.2507
2440 1 6.37511 -3.86154 -15.4376 -1.4889 -0.313267 1.38268
2441 1 -23.0713 14.3885 20.0026 0.319721 -3.39894 -4.76533
2442 1 -2.66604 -10.7458 -17.2203 -1.60691 0.162841 -1.30729
2443 1 6.59308 11.9651 -20.8973 0.377301 0.173599 -4.98235
2444 1 12.9024 20.8648 18.95 -0.487158 0.376944 2.58632
2445 1 1.94017 2.5037 21.8947 2.02074 0.308503 1.99747
2446 1 -1.77076 -5.83239 16.4492 0.103178 -5.46866 -6.32566
2447 1 -1.22086 -13.2655 17.0402 -4.38701 3.7464 -0.513492
2448 1 0.724623 -13.9848 -9.85826 0.416946 -2.61095 -2.61441
2449 1 18.0566 -22.7012 12.3063 -6.62297 0.813103 -0.94294
2450 1 7.14107 11.3019 22.5518 -1.26824 1.29914 -2.42801
2451 1 6.85289 -21.9771 4.7561 -9.45074 -2.51994 -6.39642
2452 1 13.1326 16.2393 -14.2039 2.57242 -0.2097 -2.44493
2453 1 -1.10481 9.19301 13.6305 -3.01013 -4.17641 1.37268
2454 1 -5.08056 9.16969 -18.0302 1.1588 2.28282 -0.831812
2455 1 11.557 9.1148 14.9636 1.98379 -3.38585 -1.52342
2456 1 19.7505 19.9083 21.9414 -0.833633 -1.89154 -2.07294
2457 1 -4.33819 1.82805 12.0564 8.33133 0.734885 -0.725606
2458 1 -23.0166 21.0772 -1.72386 -0.204401 -0.525877 -5.00401
2459 1 -19.496 15.6122 -7.73778 1.08947 -6.58486 -0.0111111
2460 1 8.69829 10.6008 -14.5719 -2.35591 0.917683 -7.83123
2461 1 -20.7843 17.6187 -3.96242 -1.35285 -1.20251 -0.836492
2462 1 -12.2621 23.7473 2.26384 0.97264 0.170977 -2.18057
2463 1 -13.7054 -20.7995 23.7215 3.08567 0.351712 1.15146
2464 1 7.68285 19.6213 -15.8458 5.16098 3.15326 0.439834
2465 1 -8.55006 -15.1221 -11.2802 -5.59151 -1.98255 1.61419
2466 1 1.7159 4.20588 -3.59224 -2.64043 -4.35823 2.91044
2467 1 1.40384 -19.1808 10.79 3.93016 -0.967902 6.22011
2468 1 -20.0784 -23.2339 -4.92894 0.0565893 7.2482 -3.69342
2469 1 13.9145 -23.0913 -24.5176 -2.47981 -0.664637 2.26835
2470 1 11.9165 -19.3249 -9.42342 -2.25385 -1.11738 -3.10305
2471 1 -1.67948 23.6908 -22.1936 -0.545953 -4.02295 -0.0482476
2472 1 -19.5583 -0.741801 14.0619 0.291915 -1.45623 -1.39633
2473 1 13.3 9.34486 -7.45844 -1.05611 -1.565 -5.22428
2474 1 -5.35805 -9.758 -16.9788 -1.39485 -1.41669 2.37062
2475 1 -17.0262 11.0352 10.355 4.64601 3.12819 0.375555
2476 1 -6.93201 -19.6351 -19.4996 4.92119 -0.727808 -5.92271
2477 1 10.4453 8.33396 -0.989095 0.0766707 1.90328 -2.32097
2478 1 -4.22913 -22.0118 -1.0088 1.83348 -0.597711 1.7453
2479 1 -20.8358 -4.22837 2.36133 -4.0445 0.457252 -4.43828
2480 1 0.18653 21.1197 -8.1635 -1.57877 1.89689 4.89686
2481 1 -15.8046 -8.32716 -10.0315 -1.61713 2.23504 0.504154
2482 1 6.89544 -4.56354 -1.17143 0.718872 1.02868 5.97583
2483 1 -0.410557 9.47514 -11.7136 -2.50282 -2.51688 -0.359875
2484 1 1.64216 -15.9245 -7.76684 0.982242 0.323156 1.92166
2485 1 -1.97288 -19.0889 4.98944 3.54315 0.685999 -1.79442
2486 1 -4.13719 -18.6369 6.63537 -1.00118 1.87076 -1.55459
2487 1 2.65272 18.7473 -0.12846 -1.0358 -0.776451 0.0236555
2488 1 -8.95751 18.4105 19.3482 2.49039 -2.10009 -4.75167
2489 1 6.11564 20.926 -11.3159 1.10645 4.88646 -4.94117
2490 1 -12.3824 21.7231 18.0695 0.844258 -1.75323 -1.92534
2491 1 12.172 -22.2365 -4.48948 1.08821 2.2115 0.955482
2492 1 23.3318 13.4965 2.29255 -3.57844 -2.82059 -0.622579
2493 1 20.159 22.6766 -21.6939 -1.96437 -7.41503 -0.594637
2494 1 -14.1376 -15.2985 -23.5308 -7.26386 -0.786298 -0.540885
2495 1 14.4018 -12.0538 -10.2777 3.33588 0.395722 -2.42914
2496 1 5.06392 2.63107 -22.9142 -1.86635 -1.67343 5.30396
2497 1 4.6927 7.12218 20.276 1.01967 -1.13535 -0.493077
2498 1 -4.9751 7.14141 4.95065 1.4861 -2.22954 2.79777
2499 1 -24.2628 -14.7972 9.00832 -5.95189 7.56074 3.08884
2500 1 9.43592 21.7663 7.57345 -1.89338 1.1768 2.68056
2501 1 5.36773 12.9558 4.94952 -1.2277 -0.025641 -0.689616
2502 1 -6.63987 -12.1085 10.0744 -0.104729 -2.35272 -4.16079
2503 1 17.1684 14.3477 -1.66504 0.392123 2.68077 -0.198842
2504 1 9.56812 11.3009 10.3774 -1.44893 -0.0909484 -4.76121
2505 1 -10.6876 17.2959 22.1932 -3.95762 -2.43314 1.5419
2506 1 -23.3657 10.3483 -9.65419 4.54266 0.288895 1.57338
2507 1 9.01365 -2.77066 -16.3931 1.12771 2.80656 2.02261
2508 1 13.4387 21.7576 -5.28448 -5.75318 -3.32072 4.87667
2509 1 -3.75801 -7.77149 4.25057 -4.10628 -1.37179 -1.73394
2510 1 -22.7196 1.35962 -2.81677 0.561453 -3.17809 0.832794
2511 1 4.80591 4.69055 18.2696 -3.43954 -0.962539 -1.48597
2512 1 -10.3387 10.049 13.0749 0.558092 1.73476 -2.89722
2513 1 20.8377 8.56355 7.47755 0.530095 1.9716 0.0386856
2514 1 22.4999 10.3641 -24.3581 4.10517 -2.17118 0.876974
2515 1 2.26854 -20.8573 2.86926 3.874 -3.36345 -0.0853669
2516 1 3.93731 10.6141 -19.9618 -4.57878 -1.52915 1.78577
2517 1 -11.0061 -14.1295 16.5146 -8.901 5.13405 -1.6401
2518 1 -1.8612 -4.28331 -2.46245 -2.75218 -3.80614 2.92817
2519 1 -23.2013 19.697 13.8995 3.07631 -1.21351 -1.60024
2520 1 -23.4565 0.484657 -7.21459 1.28016 -2.08958 -3.98438
2521 1 9.75622 5.83057 15.1726 -5.23454 2.94712 -2.26429
2522 1 -4.49037 9.25559 1.02587 -4.66438 0.0569511 4.06865
2523 1 -18.0603 -23.1353 -21.6109 3.50399 2.40116 -3.61624
2524 1 9.92482 22.1141 -21.463 -0.602541 -3.30599 1.28137
2525 1 -13.4737 -13.9671 -8.77008 1.00811 0.339035 3.1431
2526 1 -10.4203 -5.03232 -15.6491 -0.173276 3.37384 2.11957
2527 1 5.41822 4.73982 8.35278 -0.685312 2.62289 -3.3194
2528 1 -8.88376 11.9438 6.71766 -3.03672 -1.14901 0.890506
2529 1 -20.0842 -8.34856 -3.38939 3.57856 1.34536 -1.88601
2530 1 4.14278 -12.9903 -15.7246 -0.114222 -1.27645 -1.05131
2531 1 -19.495 -9.26121 -17.0739 -3.60095 -1.40694 -2.96274
2532 1 -14.7808 -16.5063 1.79266 4.53787 -6.48084 0.821656
2533 1 -13.2215 22.6254 -2.78371 -9.32373 2.09483 -1.21454
2534 1 -18.4678 -10.4902 -2.1606 4.01753 -1.91785 -1.45021
2535 1 15.411 -6.31938 15.9623 -10.2365 -4.87423 -3.33944
2536 1 23.8245 -19.9856 -23.7067 -0.545424 -3.12861 -2.84946
2537 1 -1.45556 -23.5019 13.6741 -1.97213 0.263444 2.24806
2538 1 -6.70068 4.3527 -22.9014 -0.132827 3.1349 3.11727
2539 1 13.2597 -10.9879 17.4207 2.99598 4.82874 -1.15267
2540 1 20.0546 -9.43478 16.4382 -3.18838 -2.05914 -3.08914
2541 1 5.92866 7.22179 14.5507 -2.31156 -3.17345 1.48806
2542 1 -12.2482 -7.30207 -21.1446 3.08414 -2.47933 -3.44944
2543 1 -17.2428 -7.6994 -7.50456 0.274839 -4.64498 3.64868
2544 1 12.2775 3.03612 7.37887 1.83095 -3.3867 2.34181
2545 1 -12.3763 11.1937 -20.6294 -4.60127 -0.663773 0.756612
2546 1 -15.2762 2.53124 13.2303 -3.41763 -2.42586 -1.97503
2547 1 -12.7294 -3.35495 5.96372 -0.321123 0.924348 -1.17591
2548 1 16.6511 -5.5583 -7.97804 6.75703 1.52406 -1.70956
2549 1 7.16318 12.171 -16.9222 2.97514 0.89547 3.30317
2550 1 -22.5936 -17.7393 -18.0204 1.02029 0.346881 -1.24553
2551 1 -6.0305 11.7803 -14.9914 1.01582 -0.985869 -1.0707
2552 1 -1.24813 -13.9612 8.52265 -1.33722 3.07299 -2.28583
2553 1 1.50877 23.572 15.1382 0.93658 -0.961525 1.95317
2554 1 19.2984 23.9465 -7.09764 2.79619 1.27221 2.096
2555 1 3.86564 14.6255 -6.87225 1.33878 -2.3214 5.47719
2556 1 -9.3906 -13.7357 10.0984 -1.75329 -2.5897 0.620247
2557 1 17.5139 -21.1712 -13.0378 -2.16837 3.5045 -0.699022
2558 1 -20.267 8.30288 -20.7385 1.31551 -3.93352 3.45282
2559 1 -17.544 6.70777 5.2202 1.22998 -2.92436 0.234568
2560 1 21.2205 -21.8019 8.53486 -1.35852 -2.67068 0.439481
2561 1 -10.0604 -2.12207 11.9822 2.10792 3.2904 0.463633
2562 1 -18.9223 -4.52168 -11.4557 1.46412 -3.14151 -4.76328
2563 1 20.0319 -3.76554 -21.7021 1.61536 2.47096 0.331247
2564 1 -11.0235 -15.1841 -10.1141 -1.45828 4.23801 -2.62413
2565 1 14.1505 16.5064 13.5771 -2.82856 0.010327 -2.21269
2566 1 22.8531 -10.7757 14.1306 -0.156184 0.557706 0.548859
2567 1 -13.1381 -0.317801 -18.3749 2.10876 4.25936 1.43065
2568 1 20.3645 -9.11645 -20.1723 -1.5623 0.225124 1.74612
2569 1 -24.6131 -17.6725 -12.3824 3.32346 1.28998 7.28058
2570 1 -20.586 17.0822 -16.3348 2.7449 4.33428 -3.9333
2571 1 12.9131 0.234692 21.8713 2.10429 -8.94267 1.95352
2572 1 -23.0326 -17.1092 -5.02775 -1.36107 2.08709 -2.73684
2573 1 19.4058 -23.6562 -4.3945 -0.257155 3.55644 3.39323
2574 1 -18.2671 -22.6748 -7.26895 1.68072 -0.690514 5.04888
2575 1 2.97536 16.5791 2.03185 -7.36286 1.31935 -4.05616
2576 1 23.1718 19.4008 15.6265 -4.7726 4.78962 -1.46018
2577 1 15.7671 20.7767 -3.78773 0.913289 1.31397 0.421382
2578 1 -17.8959 -14.6547 -3.70885 0.507371 2.89271 0.0303718
2579 1 -10.4913 8.01938 3.17394 2.64554 -4.5359 1.18883
2580 1 -23.4883 13.8341 -21.1026 4.60378 3.01106 -2.44436
2581 1 -7.36506 15.1669 22.33 5.34072 -1.16198 -1.0839
2582 1 13.5591 24.0419 9.23531 -1.9867 2.16215 -0.708675
2583 1 5.59689 19.3119 -0.582857 1.04557 -0.602475 2.31765
2584 1 -11.3825 -19.811 -11.1064 -8.57934 -2.37821 -3.3577
2585 1 14.9837 -15.5817 20.4023 -5.42237 -3.49045 4.47581
2586 1 -14.3832 13.9999 12.7828 5.16758 1.09126 3.24205
2587 1 17.7104 -18.6787 7.12907 1.06596 0.377915 -0.871512
2588 1 16.5101 -0.871231 -16.9849 -0.0104949 3.51728 -0.970087
2589 1 -0.650747 -7.61141 9.06592 0.34285 -2.49043 -1.0425
2590 1 13.8575 3.78467 -10.4593 -4.0256 -1.7196 1.11685
2591 1 -4.06164 -22.3927 12.8458 0.0678011 -1.13723 3.07766
2592 1 -0.783439 -16.8818 8.00239 1.02516 1.4988 3.45886
2593 1 -24.1396 -4.97162 -23.059 -0.875717 -2.03124 1.00424
2594 1 21.9779 -7.84918 17.5142 1.17589 4.16519 -0.424692
2595 1 -1.75648 -17.1353 -18.2667 0.0804439 -4.50378 4.17212
2596 1 -15.3105 10.6853 -20.534 0.321374 0.836405 -1.318
2597 1 -19.5042 -2.36998 -17.3361 0.733953 2.91499 -1.66935
2598 1 19.865 0.0791508 -3.86064 2.45756 -2.38763 4.47305
2599 1 -5.77835 3.1609 7.99823 -1.88645 1.02573 -4.22123
2600 1 3.7145 23.3654 0.446461 -1.68029 -0.360933 -3.07503
2601 1 -1.30124 6.85533 5.38908 0.409048 0.352789 -3.86062
2602 1 -5.52295 -11.4692 -1.06222 -3.11227 3.73809 1.957
2603 1 -23.008 19.3559 -6.67337 0.899357 -3.36687 0.27471
2604 1 13.252 -12.7642 -0.530484 7.34106 6.7836 -3.5235
2605 1 -18.2193 8.26126 -5.66735 3.38948 1.38336 -2.28023
2606 1 16.8689 15.8568 20.0621 1.56338 2.21701 -2.43225
2607 1 11.2851 2.04268 -23.679 -1.79308 -0.210006 -0.89162
2608 1 12.7355 -18.4075 -22.6055 0.597396 3.42898 -0.0810268
2609 1 -14.0269 -4.76482 -17.6494 1.38454 -1.99092 2.35782
2610 1 0.393758 3.81973 -17.2856 0.0334861 0.555827 -3.72416
2611 1 -22.1221 23.3733 -20.819 -0.161561 2.54034 -2.99675
2612 1 -16.6243 -20.4906 17.8645 -1.75987 -1.73999 -2.48778
2613 1 -22.3527 4.64637 16.2114 0.278335 -1.28179 3.34854
2614 1 -12.6342 12.2257 -17.8754 0.879642 -10.2447 -1.1214
2615 1 -3.11262 2.8175 16.0536 -1.24536 -3.49211 1.49965
2616 1 23.7086 -1.81283 -10.0548 -2.63473 3.14326 3.10295
2617 1 -4.55759 11.951 -17.5589 -3.96552 0.946511 0.911774
2618 1 -8.09953 -17.972 -11.2594 4.41455 -2.74722 0.394123
2619 1 -1.5386 9.65722 -22.6724 2.50573 0.24833 1.56398
2620 1 -9.48941 14.7251 6.07451 3.87463 0.568914 3.67652
2621 1 4.7925 -23.3239 6.66666 -0.600071 0.880128 5.83419
2622 1 -1.75442 -18.51 22.2711 1.54018 0.500831 3.23604
2623 1 -19.8293 18.6935 -22.3086 -1.07346 -5.20781 -2.44187
2624 1 -18.6077 18.6288 -5.47353 -0.605137 1.08862 1.3561
2625 1 -6.76705 -5.00531 22.5301 -2.98479 -2.8585 -0.156014
2626 1 -3.622 4.23441 22.4485 1.13528 -2.36317 -0.26958
2627 1 16.0354 23.9509 8.15674 -1.6004 3.786 -1.56221
2628 1 12.97 -8.22521 -22.9413 2.28899 -0.756998 -4.73674
2629 1 -21.6531 -1.92259 6.72605 8.8372 -3.14681 4.60261
2630 1 -12.7396 -8.77011 18.0838 -2.80925 -3.51029 3.55694
2631 1 18.1274 14.4361 1.07524 -1.45706 3.38995 -3.97983
2632 1 19.0995 -1.97774 -17.668 -0.237488 -5.95831 -4.5653
2633 1 -4.60285 -16.3237 -12.5522 -1.06864 -5.64536 5.02025
2634 1 -6.01963 11.6415 -23.12 -0.486836 -2.21386 -5.03935
2635 1 0.273949 10.1993 22.6638 -3.97241 2.08618 -2.32052
2636 1 -14.5471 -20.6855 15.071 -4.82479 -0.569967 -1.54089
2637 1 9.55977 -14.8707 -17.8279 -5.50495 2.39335 3.94001
2638 1 12.5418 4.80639 -5.52103 -3.9154 4.76337 -5.3441
2639 1 -0.718001 -9.11107 19.1691 -0.179345 -0.287042 0.54529
2640 1 4.6528 13.5453 -19.1789 -0.486551 0.0420195 -4.0122
2641 1 23.3694 6.60344 -14.3938 5.63802 0.317518 -2.08041
2642 1 -6.35325 -19.0227 3.61891 -1.94519 1.27873 2.06117
2643 1 -1.7776 -14.6885 -23.453 -5.17061 1.90012 -2.6398
2644 1 19.6981 -19.3992 -12.155 -1.52156 0.920062 -0.538882
2645 1 5.0277 -22.8099 15.953 -0.0324969 1.29431 0.0135796
2646 1 -3.61068 10.04 -3.20794 -1.24802 -1.53887 -1.22334
2647 1 -10.8475 5.22739 3.80083 4.85242 2.06537 3.12852
2648 1 17.1285 1.10393 3.35456 -2.35854 -2.27283 1.97737
2649 1 -18.0857 20.8196 -10.1833 -0.571737 0.875634 2.26192
2650 1 -3.69447 9.15525 14.8747 5.53097 1.32959 2.27018
2651 1 -16.9344 -18.944 15.6437 -4.64912 3.94963 6.49927
2652 1 -20.9694 -5.74463 -14.5468 -0.113579 -1.41277 0.823213
2653 1 -8.16852 8.93854 -2.24574 -0.236133 0.620337 2.02368
2654 1 19.3046 -9.75691 -1.72607 -0.746942 -5.34729 5.06396
2655 1 -6.23461 -9.52919 1.17976 5.04642 -1.80823 -1.3526
2656 1 -4.30812 7.58596 -20.3314 4.34128 1.43034 0.526299
2657 1 -10.9587 -7.34165 7.38677 0.490949 -2.07875 -1.99775
2658 1 -5.42493 1.86113 17.2326 -2.76247 4.32413 -4.51598
2659 1 15.6496 -4.9381 -24.0536 0.194958 -0.87654 -1.03771
2660 1 -12.5627 22.5648 12.3757 -2.78376 -0.676392 0.186253
2661 1 7.54695 6.42822 23.2447 0.0106819 -2.89703 5.32753
2662 1 -22.9506 -23.4093 11.5203 2.34651 0.106604 -1.88915
2663 1 -8.35193 8.97144 23.1759 -0.281951 2.89354 0.26176
2664 1 -15.2398 16.9895 22.9541 0.912033 3.43779 -3.01943
2665 1 -21.9743 2.40255 2.07112 1.18378 -6.36208 -1.12757
2666 1 20.2321 -21.9031 1.65192 -4.94839 1.45555 3.70455
2667 1 -8.50212 -5.17223 -4.96995 -5.91654 -0.679913 1.87801
2668 1 -8.14832 -18.1819 -22.3863 0.200711 3.905 -0.0639358
2669 1 1.68379 -8.63757 17.4303 -0.336554 2.04988 -2.77716
2670 1 23.2937 22.8052 -17.9156 4.04171 -3.60524 2.43187
2671 1 11.5158 19.9152 21.3881 2.31821 2.64498 2.74651
2672 1 6.65845 -6.03779 8.99724 4.24371 -0.0472479 -0.930579
2673 1 -13.7257 -21.7904 -1.66706 -3.19764 -1.14089 -0.84296
2674 1 -8.69533 -21.236 -1.23343 4.79362 4.22484 3.18201
2675 1 18.5674 4.6055 -10.2019 0.259946 1.59224 -4.95511
2676 1 21.0699 21.3249 -19.3932 1.0037 -2.8891 5.31046
2677 1 -0.816269 -23.6216 0.90617 1.08794 -2.50156 -4.49899
2678 1 4.45528 -18.6047 -15.0269 3.16202 1.38669 2.51915
2679 1 9.2246 -0.372173 1.90512 -1.91572 -0.324889 0.285768
2680 1 9.09137 -3.20734 -6.95428 -3.3876 -1.3092 1.74978
2681 1 -14.3854 -7.7928 -17.6028 -0.379416 1.37711 2.3621
2682 1 -21.4538 1.1784 13.6026 -1.70359 -0.659628 2.73509
2683 1 -16.7286 5.41665 -17.5796 0.232684 -5.26882 4.30807
2684 1 24.1506 -10.7541 3.70232 1.28755 3.20745 2.06359
2685 1 -2.09642 -8.60095 6.46388 -0.458508 -0.154004 3.02468
2686 1 5.87861 -22.4271 -17.6513 -0.197895 1.49343 5.95355
2687 1 20.5063 -15.598 -13.2748 -0.0236028 -0.743814 -0.886547
2688 1 -17.5163 -2.63644 -0.662218 -2.72663 -4.40759 -2.53044
2689 1 -7.67261 -2.95318 -8.96423 -3.22121 1.10654 -0.570918
2690 1 -14.2133 -13.3957 -18.8822 0.144359 2.66398 -1.08709
2691 1 -20.0832 -22.7237 20.7344 -1.62427 0.433183 -1.63497
2692 1 3.86092 0.285763 -11.9751 4.59139 0.573896 -3.61018
2693 1 8.92646 18.7559 -19.2476 2.25341 5.88964 4.43746
2694 1 -4.67249 -11.9313 20.0207 2.95785 0.814914 2.71939
2695 1 15.3751 7.37343 12.6655 -1.91107 -2.41097 6.42913
2696 1 22.8214 -17.6286 23.4788 -0.0343556 0.51882 4.24571
2697 1 5.8053 -0.273337 -5.11925 0.642008 -2.41421 -1.17648
2698 1 14.9874 -12.9711 21.459 2.11892 1.22883 1.67877
2699 1 -16.5124 14.2787 -1.83235 -4.59555 -0.148643 -0.427575
2700 1 -8.70307 -20.5741 3.30944 -0.826061 -2.78655 2.3333
2701 1 -20.3152 23.5355 -0.275889 2.63763 -3.64728 0.650646
2702 1 -7.56127 17.793 -19.5775 0.270634 -1.52679 -0.785208
2703 1 14.0104 -6.25124 -12.1076 1.76284 1.89182 4.29984
2704 1 1.67547 -23.9422 2.67483 -5.39197 3.19902 -1.36282
2705 1 -3.15651 -5.64221 6.09554 -0.396927 -1.06541 -1.59813
2706 1 2.89456 -22.7536 23.2337 -4.94463 -4.10801 -4.20779
2707 1 -9.63296 -13.4221 1.2134 -0.891714 0.36668 2.5069
2708 1 -14.0581 1.36488 23.7757 3.48585 -3.75319 -0.676518
2709 1 20.1567 -3.9211 21.3445 3.53487 -5.07011 -1.43681
2710 1 -4.45191 15.873 17.095 3.57658 3.92304 0.90149
2711 1 -14.6559 -5.60574 -24.4712 1.39489 1.66651 -2.00435
2712 1 17.4499 13.2799 4.52641 -3.43538 -3.30761 -1.90094
2713 1 23.258 2.72274 -7.49744 3.78517 2.31471 -1.49067
2714 1 -19.608 4.57243 -11.298 -2.41614 -0.123938 1.22909
2715 1 -12.3052 10.4452 20.907 0.454901 -4.21538 -2.89365
2716 1 16.6398 12.1415 1.61459 0.234169 3.81926 0.626575
2717 1 11.699 19.4011 10.1651 -0.00983806 2.46611 -3.57648
2718 1 11.3297 -15.3525 -23.6632 -3.07199 0.491872 -0.694931
2719 1 21.0692 -9.8431 3.16665 -2.19222 -0.956186 -0.131651
2720 1 -13.3905 -9.44753 -20.0204 -3.65633 3.58227 -4.19715
2721 1 4.31243 -12.0816 11.2696 1.07188 -0.306354 6.84066
2722 1 -10.6807 19.5194 -7.24919 4.44874 -1.9847 2.54921
2723 1 -5.19471 15.9962 14.1604 -1.84012 2.17023 0.139884
2724 1 -4.25487 4.88578 6.34849 -1.42702 0.299704 -0.165116
2725 1 -2.0909 8.56528 -18.5082 -2.528 8.50841 3.21106
2726 1 -11.2728 -7.87517 -23.8091 -0.162709 -1.72964 -1.17985
2727 1 -14.2127 -18.6837 -1.29492 1.57815 7.16442 -1.73315
2728 1 21.8707 -2.8279 11.9998 0.331862 -2.47066 -2.68677
2729 1 -3.75524 -22.1876 -18.6501 -3.99025 -0.63227 -0.330732
2730 1 -8.41493 -16.5319 10.0716 -1.10077 0.970321 1.49007
2731 1 -24.4361 23.0017 -8.20856 -1.77346 -2.21843 -0.275253
2732 1 2.00108 1.56374 5.85778 -2.09513 1.56306 2.62204
2733 1 -7.80811 8.76641 -18.4982 -1.33517 -0.192497 -3.53468
2734 1 17.7916 -9.83194 20.4887 0.0770092 -0.515253 -3.26782
2735 1 -4.42441 7.5847 -15.6949 1.22254 -1.2411 1.98921
2736 1 18.086 14.7854 22.4827 -0.645315 -0.979239 -4.58451
2737 1 -21.0911 -17.3329 0.616562 2.12931 -0.046359 -2.51695
2738 1 -6.16456 9.08817 13.6655 -0.780434 -0.958499 1.08211
2739 1 -13.2164 -7.53855 20.4153 -0.207247 4.57095 0.883228
2740 1 -12.9778 -14.4356 -21.2185 -2.74471 -0.592497 -0.783965
2741 1 -7.88245 7.23061 2.47672 2.77117 0.748602 2.65666
2742 1 -15.1194 13.321 4.84083 3.27771 -2.80455 2.238
2743 1 0.332302 -19.1605 -7.08435 -0.757262 -1.24434 3.56302
2744 1 -16.1494 -18.2729 -21.3457 -0.539132 3.42377 3.02721
2745 1 -10.8285 20.882 2.21748 -1.408 2.97792 1.91066
2746 1 4.90294 -11.8847 -4.46009 -6.90939 -0.578183 -2.04257
2747 1 -0.362297 2.59362 14.7829 -1.10702 -2.22985 -3.0164
2748 1 -5.8216 -1.45005 -10.8564 1.87797 -0.143789 -2.10103
2749 1 -13.4656 -7.95141 23.151 5.2829 5.08146 3.1512
2750 1 -14.0093 23.3765 -21.3334 0.865551 2.1524 7.17569
2751 1 8.06782 -24.2424 8.00003 1.5915 2.23068 -2.14193
2752 1 -9.55252 18.9881 -9.91163 4.8753 5.89959 3.20939
2753 1 -0.812381 -6.75833 12.6215 -4.49043 1.18063 3.2155
2754 1 -12.544 24.2359 -0.493991 2.97392 -3.86871 -1.14173
2755 1 1.67993 -13.8063 17.074 -3.53177 -0.234647 -1.63136
2756 1 23.1453 11.6147 19.8073 -2.06276 0.736342 -1.75406
2757 1 17.6754 -17.1302 19.858 -5.02341 -2.02974 2.32441
2758 1 -20.9847 -15.2853 -9.43685 1.56663 2.71817 -3.74696
2759 1 -18.0154 -15.5018 7.56229 0.273287 -4.20061 -2.28237
2760 1 0.0274542 12.4522 -18.1683 2.26441 0.420075 1.31272
2761 1 -5.95534 -14.3745 18.8764 -4.75207 0.268766 1.73082
2762 1 -10.4922 8.9197 9.20626 2.17358 -2.44886 -5.60715
2763 1 -5.60238 -11.7802 17.0796 -2.48084 -3.71875 -2.93856
2764 1 9.35809 21.5718 -13.8727 2.57404 -1.83092 -4.97514
2765 1 7.92719 -16.165 -19.5901 -0.612926 0.708425 6.12405
2766 1 10.0401 7.97386 17.4272 -3.18683 -2.15854 -0.152667
2767 1 -13.2389 -18.939 -21.7931 3.82263 4.46008 0.168383
2768 1 -5.12401 24.0207 -0.385339 -2.58873 0.0970588 -1.61992
2769 1 -16.0986 15.5724 15.8729 3.60597 2.76706 -5.2585
2770 1 22.6239 10.1827 3.45142 -1.87007 2.39325 0.472741
2771 1 -18.2109 -14.3328 -17.5143 7.61466 -5.88657 1.55137
2772 1 -14.3209 17.2205 -19.6457 -2.06239 -3.19755 -2.33027
2773 1 9.33478 23.7332 5.11977 -1.24763 4.99224 -8.99615
2774 1 22.7241 1.20849 -17.0209 -1.55906 -4.29542 -6.93197
2775 1 -3.04237 -18.914 14.9916 -4.55041 -2.60449 1.14098
2776 1 9.62738 7.72224 -7.11623 -3.09023 -3.8152 4.88089
2777 1 -13.5319 15.3135 4.07427 7.5266 -2.79777 1.85028
2778 1 -21.5175 16.8962 20.0528 1.24615 0.740322 -3.52497
2779 1 21.7275 13.8033 18.2788 4.72006 0.268018 -2.06484
2780 1 -12.7188 -0.59659 -5.62176 -0.586096 1.09541 2.42794
2781 1 13.8427 22.5081 11.6406 1.30445 1.16489 3.03938
2782 1 7.8199 -10.1837 13.533 -4.33548 4.72408 -5.3677
2783 1 11.4248 -9.14104 -14.1504 1.60104 1.63452 0.3305
2784 1 -11.2377 1.39344 -0.549519 3.06841 -0.996027 -1.92375
2785 1 21.9622 -3.02039 -14.0558 0.849841 3.43419 -0.588466
2786 1 5.99856 -4.16083 2.8176 0.238358 2.42837 2.81188
2787 1 -14.5384 13.6474 0.282091 -2.90733 1.58055 -4.80381
2788 1 -20.6251 14.5334 12.831 1.23014 -2.2523 1.28485
2789 1 9.44785 -5.601 -5.12012 -2.91039 1.281 -1.17967
2790 1 -7.41911 -5.24917 -14.6814 -2.17184 -0.55135 -1.07412
2791 1 21.9859 14.5765 -5.83088 -0.502419 2.53165 0.876199
2792 1 -7.80798 -5.44105 3.31613 0.667199 -0.182728 -5.54317
2793 1 -2.13629 1.5448 6.68324 1.7777 -4.41262 -3.86649
2794 1 6.55506 17.8428 -8.38757 -1.66964 -1.42861 3.49516
2795 1 20.9575 14.5423 -19.8843 -0.458088 0.647084 0.497477
2796 1 17.8146 -15.1099 13.374 -0.52508 3.94473 3.99243
2797 1 18.516 -11.193 -23.9726 2.46133 -3.71663 4.7514
2798 1 -21.5393 -0.400419 -4.91608 2.52815 -1.50189 -0.709888
2799 1 -0.86452 -16.7715 -6.32592 3.93467 -4.2957 3.81787
2800 1 -12.4249 -14.7969 -17.1983 -1.93982 -2.77831 2.7039
2801 1 2.40657 17.3213 7.03637 3.29311 3.17536 -0.648898
2802 1 7.60063 11.0062 -10.9863 1.92399 2.03951 1.06603
2803 1 23.3752 -4.97498 -15.3851 2.66393 -9.49264 -0.882828
2804 1 -17.8152 14.8801 -10.3211 2.16232 0.324156 -3.63022
2805 1 -15.3602 7.14179 -10.3914 5.46426 -0.920258 -4.7723
2806 1 -4.02775 18.7767 -16.9179 1.77563 -0.144641 2.44126
2807 1 -20.5777 17.1575 -1.34835 1.282 -0.978315 1.94886
2808 1 4.75951 -23.8606 -10.4957 -0.428116 2.00756 1.12585
2809 1 -11.3726 15.9624 16.3321 5.98719 3.38218 0.0144855
2810 1 6.57866 22.6938 -13.6095 -0.722986 3.61036 -3.7957
2811 1 -13.6245 11.1626 3.92559 1.07788 0.897493 -2.21815
2812 1 -9.60456 -1.35813 22.3511 1.22712 1.57148 -0.64223
2813 1 0.493271 -9.7156 -17.48 3.79406 2.97874 0.111691
2814 1 22.312 -4.71859 -5.95011 0.485447 -3.11442 -3.35864
2815 1 23.6104 8.20715 7.46176 0.0469305 -3.95437 -5.89336
2816 1 3.13386 -15.6772 19.4207 -2.88796 3.35508 -2.84896
2817 1 5.41154 -16.2746 -23.4387 3.66652 2.45362 -3.35563
2818 1 0.554842 -3.21424 2.48961 3.59461 3.33242 1.5501
2819 1 18.3517 11.989 15.9311 5.0429 -4.14674 -3.15959
2820 1 -16.0815 20.705 8.41704 5.42701 -1.72465 -7.91234
2821 1 18.4161 -9.56623 -12.5101 1.3362 1.23104 0.624026
2822 1 -15.1199 -3.02572 4.35214 1.10319 8.11477 1.48512
2823 1 12.4578 -14.8152 4.63136 -1.55747 1.52865 -1.75719
2824 1 8.47088 13.5589 15.9167 -2.14468 -0.959114 -1.79852
2825 1 14.9945 18.2706 -10.5667 0.882778 3.0347 0.903622
2826 1 8.49036 -19.4894 -1.42345 -0.31286 0.019329 1.80085
2827 1 4.82988 -10.2767 22.0055 0.849763 3.73549 2.61779
2828 1 2.46877 -4.85329 -18.1901 2.51999 1.31049 -0.797744
2829 1 18.2888 -21.288 8.70547 1.31963 4.11856 3.88817
2830 1 -22.2024 6.35798 0.557211 0.847729 -4.1024 0.830774
2831 1 18.351 5.26069 -13.0911 6.42908 -1.0102 -1.64936
2832 1 -23.5926 -18.1683 -7.63638 -4.05415 4.96993 -4.69433
2833 1 -22.1935 1.51326 6.79346 1.31974 -0.253297 -2.49327
2834 1 -9.25444 -16.5798 21.9861 5.15001 3.03156 -1.62347
2835 1 -5.43626 5.30143 -0.427867 -1.29927 2.21927 4.16603
2836 1 -12.4425 17.6737 -5.57493 -0.845634 2.45811 2.702
2837 1 -16.5164 10.8248 -8.67122 1.74574 3.38347 -3.676
2838 1 17.7407 -12.1751 22.1826 1.26862 -3.94509 2.53845
2839 1 -17.8154 -3.2854 -22.1524 0.441634 1.19498 4.72927
2840 1 4.31306 -19.9007 -22.8122 1.77016 0.412514 -1.23426
2841 1 17.9309 -16.8077 -4.11712 3.6468 1.67301 -4.5424
2842 1 -3.76775 -12.5448 -10.3899 1.3239 0.420006 0.579573
2843 1 15.4344 3.58278 -22.173 -2.458 0.545993 4.31609
2844 1 21.771 16.6725 8.00124 -0.579083 1.32205 -1.2826
2845 1 19.3623 3.94034 -20.6306 -4.15619 -5.12729 -2.10311
2846 1 -22.8491 0.650967 4.10621 1.72136 -1.11307 -3.1085
2847 1 7.40647 14.3407 0.399167 -5.27647 -4.90395 2.29598
2848 1 -17.0503 -23.8347 -9.82825 4.96582 -1.75638 -6.02341
2849 1 -23.4794 -23.8163 14.0772 4.2873 5.08927 -2.91422
2850 1 1.15753 5.03945 -9.58117 -1.34831 2.1472 -2.79011
2851 1 -5.73817 21.8839 18.2142 3.09768 -1.24642 3.76148
2852 1 2.76005 -5.43809 -0.225039 1.70183 2.89556 0.975978
2853 1 -3.1537 23.1435 20.8839 -1.31125 3.4788 1.85194
2854 1 5.9492 -6.94996 -6.97107 2.39994 -1.25967 1.70272
2855 1 -17.7504 -6.42776 -19.8211 1.30674 -1.87808 4.94911
2856 1 16.2811 -16.08 -0.60352 0.234499 0.689569 3.84214
2857 1 18.8018 10.1472 10.1071 1.17323 4.05965 -6.98731
2858 1 11.1895 -1.37723 -20.9724 -2.75049 1.10012 -2.42745
2859 1 -23.826 -22.5074 -18.5939 -0.060289 2.14151 2.05753
2860 1 -21.7183 6.27993 19.3516 -0.686287 -0.435624 0.387966
2861 1 13.8829 11.0595 22.4147 -0.359961 2.38234 -1.00642
2862 1 11.8822 -2.53551 -16.1913 0.557186 -2.07917 3.82492
2863 1 20.7323 -17.4582 -18.7065 2.85401 4.21308 2.05545
2864 1 -15.0189 11.4458 15.7863 -4.40961 -1.1026 -1.59292
2865 1 4.78462 11.2558 0.699685 1.90693 -0.752506 2.35876
2866 1 -18.3386 23.0515 -7.48931 -1.94929 3.274 -1.15795
2867 1 -16.9205 16.382 -14.3225 2.73431 -1.2448 -4.56519
2868 1 2.41569 -24.8096 21.0762 -2.06165 -3.68545 -0.406703
2869 1 -20.2773 -17.4103 17.6413 -2.9343 6.134 4.0849
2870 1 -12.5067 16.3049 -10.5558 -2.32257 -2.63771 -2.35765
2871 1 -14.5035 19.2423 24.2157 -1.67374 0.340232 2.92355
2872 1 6.66111 8.6081 8.75208 -4.58726 1.94334 3.25706
2873 1 -10.7118 -1.92836 4.46826 1.17979 -4.50649 0.0748441
2874 1 0.4078 -10.319 -11.9377 3.56388 -3.8847 0.401463
2875 1 21.7427 -4.26006 -8.6565 -3.87954 -0.689939 1.75954
2876 1 20.5594 -22.4642 -22.6622 -1.53059 1.51141 1.79736
2877 1 11.1855 -5.65604 4.10647 1.16458 4.81278 -2.60901
2878 1 -17.8442 22.3355 -13.8091 1.87459 -1.34971 -0.327436
2879 1 1.54073 17.8316 4.28097 2.31002 -1.42785 -0.852299
2880 1 -1.06041 -0.215508 15.0271 -4.47682 -4.61985 1.7508
2881 1 -16.1709 15.0077 -20.3793 0.846905 0.492019 -0.345121
2882 1 -21.3492 -16.4113 22.2794 -2.19533 2.35753 3.74194
2883 1 11.7534 -14.6709 0.76428 2.7045 1.9258 2.45501
2884 1 8.85254 -7.37531 24.0838 1.41423 0.357458 -5.57901
2885 1 -7.42223 2.40598 -6.79668 -2.55954 0.377053 2.61906
2886 1 11.5302 23.2969 1.34119 2.41779 -3.51534 1.12597
2887 1 -24.8286 18.2602 21.1772 -3.88522 1.47565 1.87274
2888 1 -10.9501 4.03417 -22.3714 -0.907581 -2.12735 -0.298209
2889 1 4.7021 -2.81352 9.05271 -3.30882 -0.0510293 -0.279271
2890 1 -2.69021 -6.97061 -23.0543 -1.24047 -0.558415 1.13823
2891 1 7.47774 -4.5297 15.3459 -0.839463 0.83739 -0.80218
2892 1 23.3163 19.2545 -11.5821 0.163875 1.40466 -3.82837
2893 1 -11.5651 -15.8649 23.825 -2.68898 -3.70076 2.67018
2894 1 -7.32555 6.25833 16.8156 -1.12394 1.4403 -0.367013
2895 1 -18.573 19.3071 19.991 2.6577 0.772667 -3.25388
2896 1 -12.8957 4.47238 18.7714 -0.647091 -2.60142 2.22893
2897 1 -2.839 15.1964 -1.40194 -1.97579 2.61285 -3.78914
2898 1 -8.95434 -9.16781 -20.8698 -2.06134 1.67245 0.211604
2899 1 -5.17685 -21.058 19.922 3.10708 1.36263 -5.48859
2900 1 15.4124 1.457 -24.1359 2.91331 1.1774 2.27957
2901 1 -12.4521 -17.4917 -17.4527 -2.19404 3.01669 0.0747116
2902 1 -21.3406 1.18122 -22.2328 8.5065 -1.76106 3.19851
2903 1 -15.6458 -13.4461 4.44448 -1.47238 -4.24245 3.61171
2904 1 -5.85185 12.6906 -1.98712 1.31072 3.2978 1.01647
2905 1 -17.3968 21.799 20.9379 1.73016 -1.84198 -3.15338
2906 1 13.0244 3.20702 18.6829 0.784704 -2.4892 -1.6007
2907 1 -16.0413 21.3613 -6.27628 2.21037 4.86361 -0.681364
2908 1 1.01288 10.7367 17.4955 -1.51855 -1.92272 -3.35635
2909 1 -10.2169 -4.96799 -23.2851 -0.157321 -0.624252 1.34242
2910 1 -13.9947 7.32422 18.3034 -2.25798 -4.07579 2.05889
2911 1 1.29934 3.49955 -19.958 -7.70354 2.15402 4.08888
2912 1 10.6007 -15.5887 -7.11641 4.61278 -1.02315 0.539982
2913 1 16.613 6.00922 -3.227 -1.74458 -2.47671 -2.5646
2914 1 0.6188 -0.867864 12.7991 -2.42441 -6.97397 -0.43358
2915 1 -14.7181 -11.5818 -23.5862 -1.0201 3.7792 4.24159
2916 1 18.1328 19.9337 -7.86718 -0.566322 0.305459 -0.630255
2917 1 -7.83889 7.22691 5.32784 2.55329 -0.631748 -1.30304
2918 1 21.1072 6.72579 -6.16086 1.57557 1.15596 1.02374
2919 1 23.2486 -15.0271 -4.31405 2.31771 0.634551 -0.223553
2920 1 22.9873 13.5178 6.84257 -0.697146 -0.507596 1.41116
2921 1 -18.0217 19.9654 10.4171 5.15031 -0.965501 -4.94898
2922 1 -16.5866 -20.8027 -24.5434 1.26081 2.6179 1.23916
2923 1 -13.6124 0.138873 19.3621 -4.1864 1.72502 1.27855
2924 1 -0.655056 -16.6405 23.8131 -1.26426 -2.7335 -1.76625
2925 1 19.3117 -7.62504 13.3639 0.380638 -3.46897 -1.0393
2926 1 -7.88393 7.90767 -12.9775 -1.06151 1.01237 -1.60553
2927 1 12.7293 5.59952 1.30374 4.09054 2.99504 -1.8259
2928 1 -22.8947 -23.535 -9.07328 -1.10595 -4.43292 2.66515
2929 1 6.0289 -13.0979 7.46547 1.75287 -1.79611 1.06899
2930 1 -20.2033 4.95909 -0.95583 2.0008 -3.06524 -1.22172
2931 1 1.09509 -8.57558 22.9591 -3.29568 1.67968 -3.80561
2932 1 8.9044 18.2743 18.5495 -3.56012 2.0593 -0.974865
2933 1 22.6386 -5.73358 11.5762 -5.63276 0.0771169 -1.27005
2934 1 9.2854 2.28298 -21.3327 -0.264621 3.72565 6.01297
2935 1 8.39723 23.5991 -0.234289 -3.36067 -1.84047 -1.23981
2936 1 23.2199 8.59 -6.46328 -1.13079 -0.571822 1.88005
2937 1 -16.7753 4.58201 -14.7 0.163397 0.943355 -6.77155
2938 1 -7.44183 -6.41086 -2.50856 -1.33355 0.863369 -1.92619
2939 1 -11.5349 18.8502 4.11041 -0.770058 -0.409913 -3.13514
2940 1 14.9837 17.2782 -0.809926 -3.34732 1.73644 0.01135
2941 1 -5.79046 2.96938 -10.0851 3.92051 -0.454596 1.7307
2942 1 -21.5757 12.4742 21.5802 2.76845 2.8741 -4.43736
2943 1 23.8791 7.55974 10.2172 1.36333 -4.10234 -0.989573
2944 1 7.18823 -22.5155 14.4021 -1.65848 1.56567 0.34357
2945 1 -7.20161 10.0312 -9.54157 6.15852 -0.168785 4.09653
2946 1 11.5147 -0.123964 12.5266 2.42366 -1.40329 3.50918
2947 1 18.9603 -14.1524 -23.1032 -0.0595044 0.868635 -0.904911
2948 1 0.841865 -21.5359 -0.388435 -1.41456 -3.98502 0.541855
2949 1 -10.5686 -20.1632 -24.0881 -5.06511 -4.18771 -1.00331
2950 1 -20.1637 15.8511 4.97757 -2.08298 -1.13004 -2.63685
2951 1 12.3076 -17.0393 -11.1321 2.44394 -2.32096 3.50001
2952 1 -11.9811 21.6307 -22.3724 2.33994 1.66957 0.462207
2953 1 15.2037 4.18387 1.71558 2.59926 1.91648 2.20382
2954 1 -15.4304 -2.55964 9.38726 -0.602414 -0.230443 -2.01666
2955 1 10.3877 -10.0504 16.7907 -3.62861 2.75655 -0.918765
2956 1 -14.1101 18.8234 -2.42792 2.13469 -3.75901 0.108957
2957 1 1.12708 -18.4359 14.9726 1.12808 -4.1905 -2.12737
2958 1 7.90439 -8.64514 -11.8547 2.22353 0.57523 -3.71578
2959 1 -17.4142 17.0741 -21.6797 -1.00274 1.05052 1.96208
2960 1 -12.8425 -1.42864 -22.6796 2.71414 0.181266 -3.43227
2961 1 -12.4655 -11.7833 -22.025 0.758244 3.52032 1.1857
2962 1 -8.29208 -1.69564 -16.2501 -0.958578 5.37144 0.93434
2963 1 -24.1251 11.2543 -5.38269 -3.89883 3.78727 -0.695667
2964 1 -0.182202 -19.316 -21.5041 -2.35574 -4.24272 3.90783
2965 1 19.0492 -1.7691 -14.0802 4.72684 1.33264 3.04807
2966 1 -3.17508 -22.9636 18.2322 1.83869 -0.933991 -2.47784
2967 1 1.05324 9.53021 9.55946 -0.171905 -4.27769 -5.39825
2968 1 -3.77273 -12.6373 1.25542 -0.992915 0.22018 2.6019
2969 1 -3.93797 -1.77062 17.4284 -1.3095 3.35337 1.6698
2970 1 19.4611 -12.5884 -14.1215 0.389008 -7.65478 3.97121
2971 1 -2.24365 19.7835 10.5774 4.88331 1.21714 -1.9462
2972 1 -9.08978 8.17715 -8.90151 0.977795 4.59723 -5.82717
2973 1 -11.6707 15.0786 20.9045 1.92513 1.59066 0.948567
2974 1 23.5001 0.0604834 19.6804 0.709011 -4.31949 -0.494497
2975 1 17.9853 10.1878 -1.4496 1.63291 3.69615 -4.28842
2976 1 -19.4648 20.1202 -14.6991 1.84756 -2.85918 -0.888169
2977 1 3.77768 -9.91966 -2.35295 1.71696 -2.0845 -1.29252
2978 1 13.0187 19.2018 -17.0071 -2.28372 2.84084 -2.11542
2979 1 7.30649 5.63913 16.5722 0.890962 0.043958 1.00097
2980 1 -2.31914 12.0669 0.634703 7.96094 -1.28443 1.97037
2981 1 -12.176 8.89872 16.4481 -1.06162 2.53382 3.68004
2982 1 -13.3008 -6.32609 6.17864 0.00223016 -0.896107 -1.41984
2983 1 -7.7842 13.7911 -24.0139 1.43142 -4.27984 -4.27807
2984 1 -0.379687 -0.828014 23.1815 -5.76123 0.870418 3.43138
2985 1 -13.1247 -12.8829 12.005 -5.91104 -3.33006 -1.30377
2986 1 -6.38931 18.1786 -21.9339 -0.118408 3.9832 0.326567
2987 1 -22.2142 -22.1075 -6.61275 -2.06914 -0.480753 0.887324
2988 1 1.03464 -23.081 -5.38975 -4.7352 0.378388 -0.772739
2989 1 21.6023 17.972 -13.4079 0.998748 -3.2802 -7.75254
2990 1 11.9967 -18.9327 16.1863 -0.0951356 0.0402832 7.57692
2991 1 2.44009 1.57636 10.1824 -5.39119 -0.548688 6.06693
2992 1 22.1438 11.6475 -10.8612 0.577953 0.218019 -2.02082
2993 1 23.4968 16.9584 17.2165 3.85253 1.49264 -3.06045
2994 1 17.8599 2.40625 13.2201 0.337777 1.03536 0.199126
2995 1 -2.98452 11.0399 -5.95928 1.71647 -1.92018 1.17977
2996 1 13.2762 5.6124 5.91079 2.05415 3.72358 -0.165333
2997 1 -6.81406 -17.6612 6.31345 -2.67306 1.42019 3.36654
2998 1 3.05144 -15.4268 15.0572 -4.50983 2.91532 0.10783
2999 1 12.4004 -19.02 -1.79325 -2.84816 -2.854 -2.79004
3000 1 -2.29773 12.5793 16.2787 3.13366 -0.34483 -1.40136
3001 1 11.8644 12.7437 9.95004 -1.73408 2.65006 -0.264293
3002 1 -20.4496 16.4262 17.4326 1.73236 0.907852 -1.09071
3003 1 16.5325 11.8079 11.0221 -5.55319 1.80326 0.23894
3004 1 17.6202 18.5667 -17.278 -0.493768 2.68297 -3.01698
3005 1 3.19856 3.97777 -7.62126 -5.42671 -1.4046 1.63116
3006 1 21.3002 9.18303 -20.4905 3.02788 -1.79932 3.24738
3007 1 -6.18267 -20.5759 -23.1303 -4.57822 -1.39786 2.15498
3008 1 -3.59424 -19.8954 23.9409 1.86397 1.96103 -4.12247
3009 1 -15.655 -21.8635 9.95301 -6.92209 -3.17157 1.59833
3010 1 -16.5409 -19.1618 -15.0468 -1.52219 5.27835 1.80773
3011 1 -8.50454 -2.31939 -11.7728 0.873281 1.1429 -0.928515
3012 1 1.58758 -22.6734 -18.3629 1.30779 6.09257 4.23664
3013 1 12.0319 -18.6822 21.2908 0.124688 0.278893 -2.14514
3014 1 -24.2734 11.4205 22.492 0.429108 -2.11881 4.52106
3015 1 -4.4856 10.9808 8.11979 2.13886 0.489625 -0.170379
3016 1 19.5161 -12.4238 -20.7653 3.26008 2.20695 0.602373
3017 1 -13.8039 6.35166 23.3776 3.4619 -0.266183 3.6014
3018 1 -22.0396 -1.21893 -13.7704 3.06757 2.28193 1.51382
3019 1 -21.7364 -20.5893 11.4922 4.81867 0.580265 3.81783
3020 1 -14.1816 -10.5633 7.63653 1.49899 -7.6738 -6.28379
3021 1 -17.8399 23.2963 -1.86706 -1.30478 -0.713403 1.2977
3022 1 15.6175 -11.9038 1.08883 1.58395 2.4515 -0.128985
3023 1 3.91815 17.5138 -3.93806 -0.755418 4.0285 -1.04798
3024 1 23.458 5.64585 2.16434 -0.830361 0.514132 -2.72959
3025 1 4.8357 -22.7459 9.36614 -0.643029 -2.93505 3.38956
3026 1 0.760122 -21.3652 7.50534 -5.27712 -1.62912 -4.25083
3027 1 13.7792 2.92429 11.184 2.46385 -2.65591 2.90608
3028 1 -14.6224 11.6856 19.937 -2.77041 0.484556 -0.502198
3029 1 6.67868 3.15178 13.2281 -1.02088 1.86959 0.375075
3030 1 -16.032 20.7853 -12.3572 -2.92145 -0.983639 -6.08389
3031 1 -24.2944 -8.81072 -19.7701 0.0223225 0.647163 -1.05182
3032 1 17.9779 -9.2858 -6.15625 0.341744 2.40904 5.27571
3033 1 -11.6422 3.46726 6.15316 -2.2301 -4.25044 -0.707112
3034 1 -11.5379 -7.44839 -16.8931 2.43356 1.59433 -3.56402
3035 1 19.9374 16.1679 5.89185 -0.314161 -0.00704626 -0.529897
3036 1 12.6096 17.4751 21.3413 -0.717802 0.942208 1.52713
3037 1 -3.82023 -10.6098 7.665 0.420141 0.703727 0.621894
3038 1 -17.5274 -23.159 -17.4878 1.86876 -4.50566 1.79399
3039 1 16.4309 -20.7276 19.1726 2.57261 4.62128 -0.749007
3040 1 5.46431 -18.81 13.6895 -0.541441 -0.183487 -1.24443
3041 1 -20.6485 19.9274 -0.334106 -2.23433 1.59434 -0.547222
3042 1 -8.07253 19.569 14.3395 2.63857 2.44827 -1.90362
3043 1 5.84239 -11.6775 -17.8269 5.54906 2.69474 2.09932
3044 1 -5.04125 14.9 -4.98364 0.401527 -3.50371 4.5268
3045 1 -0.40048 -4.83808 6.23222 0.706213 -4.41277 -0.212825
3046 1 17.2904 -9.4826 -18.2363 -7.84556 2.54524 4.50605
3047 1 7.34855 19.5033 4.75671 -3.53626 -0.806855 1.08122
3048 1 5.68316 -12.4812 19.4028 0.365259 -3.49427 -3.67912
3049 1 -11.4098 -20.3629 -14.5196 -0.6413 -0.0348819 2.80618
3050 1 1.48929 -23.2036 17.8247 0.349625 -2.49745 0.653063
3051 1 -17.1066 0.481473 -12.2194 -0.828181 -0.496458 -3.87726
3052 1 -21.3492 14.4576 -13.8349 1.90619 2.13873 0.132672
3053 1 20.403 -21.2948 -1.09602 0.557135 -3.39186 -5.86487
3054 1 21.8495 -2.51 23.6598 -1.08914 2.12065 4.42485
3055 1 19.5344 2.71332 4.49377 3.60349 -0.475438 -0.287707
3056 1 -23.2802 13.6135 14.9348 -2.17413 -0.255278 -0.497853
3057 1 18.0285 5.53957 23.324 -2.89184 1.39221 2.6532
3058 1 12.1085 -6.20939 9.13548 -1.3042 -0.256702 -1.53763
3059 1 -10.787 -22.7259 -4.88566 3.87807 3.19163 0.475883
3060 1 -21.3861 21.6566 -4.9671 -2.33965 -3.5866 3.4335
3061 1 -9.31166 22.9051 -16.7792 -9.52873 4.57452 0.690011
3062 1 -9.40392 15.8244 -16.7 5.42018 3.36193 1.40391
3063 1 10.9199 24.1405 -14.0746 -3.34936 3.61489 2.37539
3064 1 -2.85814 10.9463 -20.0129 3.49667 0.809265 -2.53033
3065 1 5.77047 -12.3475 -11.8292 -0.684515 -0.580152 4.04508
3066 1 21.7634 -0.557666 1.29646 1.99258 -1.70245 -3.93104
3067 1 17.1967 17.1454 -13.1258 -5.92798 2.86968 1.34144
3068 1 21.2665 16.4963 -1.74706 -0.961509 -0.669998 -1.05449
3069 1 7.61334 -7.79259 -4.74248 -1.22899 -0.297121 2.07842
3070 1 22.4915 -6.60949 1.37756 1.73879 -0.802801 0.376043
3071 1 -3.50204 -3.62305 -6.47681 0.786467 -3.48059 3.37831
3072 1 2.7015 8.51328 21.7297 -0.715067 1.20584 0.775906
3073 1 2.32142 22.8367 -2.02727 -3.22356 2.29338 -3.72117
3074 1 -9.38766 -9.31158 8.91012 -0.130427 0.316324 -1.63591
3075 1 20.3558 8.60315 -23.287 -4.38246 4.19344 0.198733
3076 1 -10.6607 19.1251 10.407 -5.22376 3.00388 4.12546
3077 1 -14.1071 -22.6141 -7.45257 -0.884617 0.296788 -2.49877
3078 1 -21.3507 6.32403 -15.9866 0.20165 1.44218 -1.11275
3079 1 11.8429 -3.21968 -3.90745 -1.4723 0.586069 -2.74944
3080 1 -21.0416 11.4392 -7.55884 6.06157 3.11086 -1.30946
3081 1 -18.6515 6.92895 7.74388 1.10644 4.58075 -4.68125
3082 1 -1.85874 2.39126 24.3271 -5.18233 4.09507 -4.35319
3083 1 6.90127 -13.9015 -8.04311 0.935552 -2.14551 2.77419
3084 1 -16.8212 -23.5655 7.95652 0.517888 -3.61894 5.05967
3085 1 -15.9317 -3.27157 -6.75998 4.37389 -0.359531 5.18581
3086 1 15.1977 20.8506 2.12193 -0.0429821 1.11602 1.8615
3087 1 -8.62904 -21.8935 11.5875 1.8552 0.358328 -0.209673
3088 1 9.55634 3.48503 16.9398 -0.403409 6.14484 -4.55786
3089 1 8.0672 -19.9438 13.1984 0.063131 1.47162 -1.80695
3090 1 15.7878 -2.38206 -5.00731 -3.13892 1.20762 1.94487
3091 1 -2.84087 0.205432 22.8075 -2.14496 -1.60651 1.97773
3092 1 -8.75893 -8.11208 20.6714 -1.64427 3.32402 2.19044
3093 1 -12.8666 4.91095 -20.4873 1.05719 -1.91442 3.37669
3094 1 14.422 6.70969 20.9144 -1.22 -2.06677 0.330645
3095 1 -16.095 -12.5774 -2.22422 0.75339 0.313013 7.91574
3096 1 5.0326 5.55244 -21.8674 -0.758607 4.12356 -2.35649
3097 1 -7.28701 -11.8057 -19.8812 0.375639 0.318165 -3.2535
3098 1 -10.8146 -18.8019 4.49546 2.66879 7.23856 -4.69298
3099 1 -20.5444 7.0808 23.8462 -0.413913 -1.99354 1.01821
3100 1 17.6677 -8.94311 -21.3773 2.3263 -2.26234 3.42271
3101 1 23.1332 -14.3119 -20.163 -0.633322 2.38334 4.33256
3102 1 4.52059 3.59727 23.0588 2.96764 2.65961 -0.585164
3103 1 -6.06281 -12.7278 -23.7833 2.77936 2.26125 1.95222
3104 1 -20.2317 -6.70098 6.93757 -2.4283 -2.20174 0.0365921
3105 1 -24.3401 -6.19869 20.5498 -1.28187 -1.91375 3.11209
3106 1 1.44344 -11.6714 -5.96501 -0.113773 1.66685 -0.113179
3107 1 20.4317 -15.2697 22.5842 0.669326 -3.08505 -1.72409
3108 1 8.5053 -16.6763 -5.15305 -1.23769 0.540939 -1.23547
3109 1 2.85528 -0.319643 1.51282 -0.446768 -1.48816 0.359068
3110 1 6.21234 6.77284 1.97976 -0.670336 1.0235 3.67288
3111 1 9.99113 -19.534 -16.4054 -3.03291 -0.466827 -6.42636
3112 1 -0.390173 -13.4153 -21.146 4.32299 4.07323 -2.8145
3113 1 8.91916 -11.9928 -17.6934 0.433277 0.548773 -3.956
3114 1 3.59851 5.36407 -15.9785 3.38862 -1.45508 3.0467
3115 1 -17.6412 18.4149 -16.1106 -1.73782 1.46614 -2.46714
3116 1 -11.0419 15.7548 -0.640754 4.19532 -1.59549 1.05053
3117 1 15.267 -11.3884 -3.20048 0.30377 -1.42442 -1.15332
3118 1 3.85477 5.82486 5.98501 -2.91706 -2.58339 -0.893309
3119 1 -9.00738 -9.27659 3.76682 3.24054 -2.46373 1.65214
3120 1 -11.6758 -5.43761 -19.1445 5.12906 0.278851 1.18056
3121 1 -2.27612 -21.6041 15.8374 3.21721 1.8273 -1.30565
3122 1 -13.4063 23.0509 21.5745 -1.32241 2.61937 -3.09576
3123 1 15.4769 13.8175 12.8801 7.60927 -4.51151 -5.30579
3124 1 -13.3211 11.163 -6.29381 -1.96725 1.02413 3.49813
3125 1 -1.86699 -15.21 -1.91012 3.3247 -1.10209 1.23978
3126 1 1.57518 7.47187 -8.00553 0.342546 2.56209 1.49196
3127 1 16.6929 6.16291 3.72433 2.049 -6.21661 -1.58877
3128 1 2.2711 9.295 -16.0466 0.499272 1.54159 0.644048
3129 1 -2.31674 -10.8018 10.51 -3.001 2.4504 2.81804
3130 1 22.8028 -9.46784 10.1605 -1.17938 -0.619962 1.0153
3131 1 -9.50432 13.2717 1.16688 -0.558129 -1.78915 -2.47645
3132 1 2.0189 9.27566 3.72678 3.01672 2.46029 -3.94381
3133 1 -1.78237 14.2234 -11.4989 0.702124 0.730235 -0.112093
3134 1 21.4824 6.88392 -1.90394 -4.82822 2.01137 -5.31594
3135 1 -19.208 -12.2206 -4.6903 3.08238 -0.201571 -2.71573
3136 1 -18.6138 -21.4842 6.74873 0.687863 -4.54652 -5.92581
3137 1 6.21579 -5.99396 -17.8937 -1.55647 1.67993 -0.979006
3138 1 19.5404 -4.19998 24.2721 -0.414767 1.25624 1.2916
3139 1 5.95463 10.3136 -13.5109 9.10908 2.12113 -0.934538
3140 1 0.122099 16.334 -19.8211 2.15806 -2.89299 2.09535
3141 1 11.095 -1.51223 -8.29832 -2.12956 -3.63998 -1.36931
3142 1 3.44656 22.033 -20.6473 1.03624 0.0714494 -1.35291
3143 1 21.9344 24.9117 -22.292 0.517113 2.5196 -5.46316
3144 1 -1.34776 15.1676 1.42283 1.60108 0.893875 2.73609
3145 1 18.72 -17.9566 9.80842 3.78677 2.84152 -0.452076
3146 1 -0.86009 7.43559 -9.65283 3.84955 -0.976952 -1.90952
3147 1 -2.27556 -19.0926 0.836746 -3.64139 6.9168 2.72414
3148 1 7.69862 -6.64864 5.11072 2.80833 -2.11482 0.282249
3149 1 10.2865 8.92005 -16.079 1.0807 0.178468 -0.137407
3150 1 -22.7339 13.1499 3.18783 -2.38652 -1.29692 -2.82258
3151 1 -11.5211 -24.238 -16.2175 -2.50942 -3.56985 0.666543
3152 1 -13.79 13.6019 -21.4735 -0.791213 0.995661 1.55185
3153 1 16.8749 7.05614 -22.377 -3.50902 -3.29362 0.336509
3154 1 6.18035 20.9726 2.55607 -2.00066 -0.290424 3.2143
3155 1 -6.04142 -11.618 3.01171 1.48402 1.31615 2.36185
3156 1 20.467 -3.64927 7.37359 -0.889895 3.78105 -6.34773
3157 1 11.0308 3.18746 4.49078 0.728485 -5.00692 5.16419
3158 1 19.2493 -19.7019 -7.80724 -0.846403 -6.30913 -2.21951
3159 1 18.9711 4.33357 -6.01953 2.56243 1.92553 2.23034
3160 1 -12.2156 -24.1032 23.8798 -2.25646 0.0503977 -8.67677
3161 1 -9.88824 -18.4133 -2.9807 -2.45793 0.987347 1.44789
3162 1 -14.9971 -14.4263 -15.5053 0.320174 -3.90582 -3.54649
3163 1 22.6432 -0.0956806 14.7267 -0.718281 -2.3647 1.01877
3164 1 -20.6075 3.6584 21.6232 5.01875 3.22856 -1.9238
3165 1 -6.24493 20.1188 -15.6169 -2.30732 2.23225 -5.32035
3166 1 16.1676 -9.85859 15.2877 -5.30919 -1.05427 5.55543
3167 1 20.3748 -14.6918 -19.2367 5.56934 -6.78657 -1.05754
3168 1 -19.4085 -20.0862 16.6169 1.06835 -2.12536 1.73187
3169 1 12.9806 -22.1145 -20.116 3.46741 2.69284 3.71686
3170 1 5.73249 21.6919 23.2397 1.27015 -0.594533 -1.45021
3171 1 -5.9388 14.1974 -21.6675 -3.48864 -1.62128 1.11977
3172 1 -7.55491 2.08073 5.54646 -3.59974 0.961193 0.760598
3173 1 11.0028 16.6477 9.69996 -2.21569 0.511847 1.49632
3174 1 23.5712 13.9027 -12.1518 3.91954 -0.213703 -0.268751
3175 1 18.6385 3.76011 -2.37928 -1.28139 -1.85546 -2.06659
3176 1 20.8012 1.37909 16.3466 1.49787 3.5064 -5.12942
3177 1 0.444494 -11.876 -23.4948 -4.26097 1.45192 -2.33608
3178 1 17.7525 18.1308 13.5642 0.846494 -0.151476 2.21914
3179 1 1.06291 -0.294209 20.7578 2.91731 1.80449 -1.84134
3180 1 -0.466407 13.9531 3.6534 -5.9487 -2.87556 -2.57294
3181 1 -20.3768 -17.4416 -24.245 -3.64947 3.38873 1.08089
3182 1 -17.9823 -24.7865 21.253 -3.5964 2.36697 1.76251
3183 1 23.4511 16.7792 -5.23504 -0.909337 -6.26842 -3.85498
3184 1 14.6198 -3.30691 3.77403 -1.54929 0.38113 1.41883
3185 1 -15.2622 19.1807 -21.8159 4.64581 -0.96347 -0.188683
3186 1 -4.54093 20.3949 6.0978 -0.943618 -3.45265 -3.76405
3187 1 -21.7358 -14.5618 2.73188 0.797974 -5.16302 2.33903
3188 1 -20.1557 13.3286 -11.2456 -1.19343 2.43391 2.23854
3189 1 15.7424 11.0307 7.21808 -2.05538 -0.0174475 -4.65855
3190 1 -21.4375 19.9203 -17.0501 1.20949 -1.33487 -2.7073
3191 1 7.45162 -5.81229 -8.76029 -6.21795 -2.39986 -1.47388
3192 1 23.261 9.79231 0.580186 2.86492 -0.497934 6.85002
3193 1 -17.8591 23.4874 1.30613 -1.17852 -2.2533 2.13419
3194 1 -18.5161 -6.75153 1.38375 -0.865184 -4.64207 1.11752
3195 1 -16.9438 0.534755 3.54186 -1.9974 -3.08239 -2.37653
3196 1 0.0365835 -2.20885 -2.35688 5.00076 0.778571 0.174792
3197 1 -2.92941 9.2093 4.47252 0.792663 -0.224045 2.0809
3198 1 9.40686 1.91562 -17.0743 -2.8324 1.96676 4.51971
3199 1 12.6411 -23.0178 7.51205 -3.55393 6.32375 -2.88683
3200 1 -24.3124 -3.60161 -4.49629 0.533793 -0.112346 1.50596
3201 1 -15.6483 -3.32079 19.4357 -5.02444 -3.60958 -0.524176
3202 1 -18.7776 -11.9952 -9.83659 4.60416 -3.89889 0.432574
3203 1 18.0459 9.3302 20.8651 -5.03411 2.8551 2.44078
3204 1 -15.8313 -9.57123 9.81335 0.156629 0.134655 -2.27524
3205 1 -13.0728 3.85771 -4.03894 -4.13953 -4.35955 -0.199937
3206 1 14.8023 11.7369 -4.35614 -1.66735 -0.45331 -4.47433
3207 1 0.410964 -6.84874 -18.8585 -4.88836 -1.75571 3.1192
3208 1 5.98932 -7.12986 2.70218 -1.14223 1.93081 2.30575
3209 1 11.3394 -15.9775 22.2353 -2.8589 1.86745 0.0769441
3210 1 -12.7611 9.40695 -2.73763 -1.23039 0.814968 1.4687
3211 1 -1.758 17.7311 12.4004 -2.64227 0.827483 4.05503
3212 1 -12.2702 6.60449 -18.3398 2.04236 -4.33075 0.990841
3213 1 -1.80704 1.85902 -15.3274 1.38147 0.977234 -2.59695
3214 1 -1.73294 15.5621 16.2058 -0.441458 1.41669 2.22728
3215 1 10.8748 2.66902 11.7236 0.766132 2.81831 2.46272
3216 1 23.1136 -0.616901 10.6902 -3.61316 1.27659 4.86625
3217 1 10.1076 2.31997 9.0659 2.33655 1.799 1.88679
3218 1 -5.03108 21.2427 -7.25158 3.8333 1.4545 2.73238
3219 1 -7.38045 -19.8359 -16.6207 -1.44651 4.11301 -1.10878
3220 1 -4.22126 -9.41822 17.0335 -3.36032 2.6107 -1.03898
3221 1 -4.93024 -7.9747 -2.7458 2.38965 -0.326907 -1.71215
3222 1 -16.2915 -19.1287 1.94182 4.13282 -0.830202 1.84106
3223 1 -24.2153 7.83035 18.8554 1.69596 2.84253 -0.959193
3224 1 -4.5724 -7.4485 0.0568629 2.37382 0.999082 -1.09206
3225 1 -9.09013 -6.9309 14.9397 -3.6043 -1.0749 -0.620373
3226 1 -22.6962 23.4078 -10.958 2.40737 2.02408 -1.08928
3227 1 6.15777 20.7418 -4.96541 1.17477 -2.26678 -3.1626
3228 1 -11.1365 11.079 -10.0365 4.49991 1.63109 1.15524
3229 1 -7.3589 1.23322 -4.08269 -1.93811 0.488469 2.75994
3230 1 -23.3426 11.8985 -23.38 -2.63421 2.29111 3.44071
3231 1 -18.4064 -16.668 -1.05493 -1.75113 -2.32946 -4.17543
3232 1 -23.0751 15.2625 4.67085 1.87465 -2.91259 1.37921
3233 1 -2.28684 16.4981 7.1366 -0.953918 2.41847 1.42952
3234 1 9.67004 -7.03345 -13.5608 2.93895 -3.20727 -1.87699
3235 1 -6.65725 11.8588 -11.6162 -0.95003 1.52624 -2.02107
3236 1 16.7151 19.2715 7.78168 3.71223 0.861823 0.452468
3237 1 -3.90084 -13.519 23.7627 3.05689 1.14434 3.60593
3238 1 21.9276 19.4097 -4.12285 0.10223 2.83813 1.59296
3239 1 -14.3626 -17.4704 8.79688 -0.942749 0.0318256 1.55171
3240 1 -13.6314 -21.3459 -17.1486 -2.37763 -1.85591 -0.919215
3241 1 0.304394 -20.4968 16.737 0.339729 1.62986 0.354395
3242 1 22.5835 -11.392 -17.6641 2.54641 1.10239 -1.60222
3243 1 8.43602 15.495 22.0391 -2.13426 -1.27748 0.000946701
3244 1 19.4538 14.251 -13.9912 -0.731519 0.479977 3.67582
3245 1 -7.95228 19.9542 9.2232 -1.96808 3.59572 4.01659
3246 1 17.3576 4.08012 5.49242 -2.30698 1.08859 1.00923
3247 1 -5.17192 8.00554 -10.4783 5.27774 5.0026 2.87139
3248 1 7.79958 0.931388 -0.226864 4.14733 -1.91494 -0.62384
3249 1 9.67228 -2.54429 13.0743 1.80437 -6.78472 3.45663
3250 1 13.8192 5.38201 -16.8423 -0.587561 2.49533 1.43478
3251 1 0.463588 16.4375 11.4345 3.5101 -1.83038 1.40301
3252 1 17.3006 -22.3376 14.9379 1.67923 2.06793 0.972896
3253 1 10.674 15.6246 2.6642 -2.37719 3.46265 1.47016
3254 1 20.5755 3.64878 -8.24108 -2.45476 -4.55031 2.16056
3255 1 -18.7508 12.0682 -19.53 1.60539 1.08328 2.35408
3256 1 -6.84758 17.9867 -9.40659 2.26397 2.26309 4.58596
3257 1 -12.1366 6.85817 20.4482 0.606664 -0.414638 -1.38189
3258 1 -19.7677 -6.62956 19.6353 7.22216 -0.00512238 0.588258
3259 1 17.2139 19.1271 2.80548 -2.18114 0.935522 0.650964
3260 1 19.1901 47.3042 -6.62105 -3.40305 -1.00737 -1.63206
3261 1 -14.6643 -1.90207 -16.3534 -0.257493 2.20484 -4.7212
3262 1 9.21062 6.88121 11.3514 1.08732 -0.604866 -2.62017
3263 1 23.1951 4.44169 20.4221 1.50993 3.15134 1.1543
3264 1 10.6727 8.90366 24.1149 1.23276 -4.12169 3.2011
3265 1 7.30858 -6.65008 -15.1134 5.04292 -2.53943 2.71051
3266 1 10.208 -0.760744 21.4466 -0.0305917 3.16611 -1.52554
3267 1 -17.5274 8.08523 -0.172238 -1.2015 -2.75526 1.37942
3268 1 7.47063 -21.6391 10.5439 -2.00943 -2.49281 -1.8914
3269 1 6.99056 18.7314 -3.0015 -1.58674 0.876792 4.12504
3270 1 18.4231 -16.3621 15.9659 -0.627458 1.86416 2.65476
3271 1 7.42647 -10.6799 20.6677 4.58779 -0.523146 -0.522254
3272 1 2.69901 12.1154 -7.59303 -0.256309 2.66637 -1.15561
3273 1 -16.874 9.7331 -15.5892 -2.16489 -1.94291 -3.474
3274 1 13.5566 -19.493 4.80381 -1.35897 0.624949 -1.7623
3275 1 20.177 7.81561 11.3201 2.19349 2.25709 -2.36121
3276 1 9.35295 2.99919 14.0598 -3.45669 0.0219144 -1.84705
3277 1 -2.49702 -17.1624 2.98051 -3.24623 2.65138 3.47106
3278 1 0.487637 -7.00216 -22.0654 -0.877375 -3.72826 1.23303
3279 1 7.54268 -0.947448 17.3495 -0.0763936 -1.11688 -2.10434
3280 1 9.88331 15.8698 12.3456 0.240572 1.25867 3.94576
3281 1 -4.48939 -14.4521 10.6324 -0.57369 -4.51798 2.43332
3282 1 5.64065 -1.01121 -14.9087 -1.44336 3.36332 -0.371536
3283 1 -3.66165 0.393567 14.4087 -3.22536 3.94345 -1.20742
3284 1 15.0025 23.3702 -19.7054 1.60837 -0.794184 0.677844
3285 1 0.329803 19.5014 -13.8933 -2.766 -0.335314 0.00836051
3286 1 -16.1155 19.3537 4.33477 1.07856 -1.78884 -4.52656
3287 1 -3.61462 -15.4855 17.2848 1.27893 0.99331 -1.49387
3288 1 0.80376 7.70117 -19.3037 1.86951 -1.58664 4.31411
3289 1 -18.1908 -21.5551 10.9916 2.42616 -2.64754 -1.25976
3290 1 -13.1238 18.0469 16.8286 -0.868474 3.67328 0.347353
3291 1 21.2573 22.4912 -13.4687 0.00449797 -0.411002 0.837887
3292 1 -21.8071 21.5701 1.68449 -1.61684 -3.11553 -0.196946
3293 1 -9.36103 11.6402 23.8422 4.53724 2.8805 -1.17286
3294 1 -20.3732 1.83997 -15.4641 -0.874909 1.90274 3.73463
3295 1 5.49467 -24.5591 -0.409295 5.33742 -2.66487 -4.01005
3296 1 -17.7418 -13.2327 16.7357 -0.569709 1.00763 1.31405
3297 1 -16.7373 21.0174 23.7254 -3.69134 1.03051 -5.25464
3298 1 6.95517 -8.87742 -18.4797 -1.05851 3.78997 -2.07916
3299 1 -13.5478 20.1281 -6.85721 1.11682 -4.44075 -1.83552
3300 1 -2.6419 5.40418 -8.5189 1.75108 1.23305 -0.341195
3301 1 22.7315 8.92269 -9.56565 -0.0830284 -0.605766 5.08418
3302 1 -18.754 -11.0096 21.1224 0.579774 -2.09923 0.268384
3303 1 23.1551 -23.2571 -13.9875 -0.387975 -1.87446 -4.19843
3304 1 0.210775 15.249 14.0814 -1.08804 0.122574 -2.96469
3305 1 2.70772 6.43985 -5.6255 -0.505523 0.207455 5.04614
3306 1 -7.63447 10.5277 -20.7752 2.53823 3.82551 0.00267687
3307 1 -17.7153 11.3718 20.4272 -1.51546 3.39578 4.20364
3308 1 -16.7713 18.2636 -3.29503 -4.08297 1.10246 -0.961957
3309 1 4.58765 -1.44074 11.4616 -2.54274 -0.858969 -3.44456
3310 1 16.2316 21.7242 6.31058 1.5884 1.7697 -3.93973
3311 1 9.33403 3.69242 -9.99467 2.49475 0.989199 -1.84673
3312 1 -24.1262 5.93865 14.4367 0.909546 -0.12172 5.07695
3313 1 15.126 10.2124 13.3396 2.24492 -1.78991 1.57613
3314 1 -0.0807375 -2.6077 10.6797 2.51703 0.886257 5.29821
3315 1 21.9316 -11.2729 -21.9219 0.972798 2.34 -0.86327
3316 1 3.50821 -5.54616 -6.70106 2.38265 2.68318 3.86728
3317 1 3.72028 0.226168 7.52068 -0.834746 -3.78102 0.117934
3318 1 -11.0781 0.0894336 17.8873 1.74679 0.448445 -1.22872
3319 1 1.27689 1.00602 -15.9085 1.73604 -2.92282 2.68797
3320 1 4.18617 4.67245 -10.2345 -4.01058 0.694772 1.82324
3321 1 -9.18507 -17.6595 18.971 -2.87763 -3.43765 1.707
3322 1 13.7015 -11.4513 24.4122 0.318648 -0.822365 6.09807
3323 1 -3.08758 17.9318 15.0369 -5.44175 -2.32556 2.05474
3324 1 14.4894 -16.4819 -9.42927 -3.91192 -4.79466 -2.80327
3325 1 -11.0454 14.3287 3.73179 1.05603 1.44411 0.197069
3326 1 -23.0892 6.24201 -22.1548 2.25969 -4.83975 4.73666
3327 1 6.93996 -22.6267 -8.84834 3.15082 2.55187 -4.56563
3328 1 1.59777 -17.871 -9.7673 0.930065 0.448525 -5.29216
3329 1 11.6906 6.48181 -15.1055 -4.85917 -2.75661 -5.55395
3330 1 -7.66206 18.5041 -13.6446 2.51663 2.44397 -0.659063
3331 1 -19.7299 -4.06875 -1.90642 -4.70474 -2.46103 -1.21833
3332 1 -4.87642 6.6649 22.634 0.21839 0.408333 0.231258
3333 1 6.35105 -7.95687 22.6261 0.521148 -0.131504 -0.87917
3334 1 -22.3033 20.6247 16.7429 3.31817 3.64792 -1.17328
3335 1 22.6509 0.303356 -3.49939 3.34035 -2.93606 0.206308
3336 1 13.616 -16.1548 1.92133 -4.70461 -0.113219 -3.63483
3337 1 -14.1644 9.91176 9.75255 1.92137 1.73208 2.83651
3338 1 11.8625 20.8516 16.0781 4.98049 4.76487 -3.52337
3339 1 11.5215 17.7401 -20.5786 -0.193216 2.16039 -1.45383
3340 1 17.4523 -0.110263 -20.8714 1.39102 -4.13482 -1.93782
3341 1 20.6391 20.2984 -15.1485 -2.43104 4.71662 -0.475674
3342 1 0.183252 0.388247 2.24692 -4.32634 -1.28469 -0.0222728
3343 1 -22.7372 -4.87836 -16.7557 -2.15187 3.94251 -0.40988
3344 1 17.019 -18.5792 17.2633 -1.19215 0.522459 2.98411
3345 1 13.8833 23.0364 -23.3353 -3.3225 2.3118 5.02402
3346 1 9.03288 -22.1405 1.25694 3.00426 4.36986 5.0791
3347 1 -23.6018 12.9492 -14.3628 0.399615 1.2155 -4.39548
3348 1 -11.0615 -19.1489 1.70539 0.786673 -2.46538 1.03598
3349 1 14.6284 18.2133 -13.6134 1.9301 0.989314 0.965423
3350 1 -3.88136 -7.32346 15.1445 -1.00192 -5.81415 -3.25142
3351 1 -20.8786 -9.40184 16.7895 0.608019 3.97154 -0.120811
3352 1 5.3032 16.011 3.92334 -4.5703 4.69731 -0.357963
3353 1 -23.0891 4.09539 18.8418 -0.183788 -1.12624 -1.01225
3354 1 -14.916 8.19227 -0.900716 -4.56719 0.746153 2.92731
3355 1 -17.3942 -19.4215 -4.55724 0.195251 -1.56419 -3.73999
3356 1 -8.73669 21.5505 5.18501 0.315785 0.193082 2.52627
3357 1 6.77208 -6.63695 19.9726 -4.28434 1.51384 2.30617
3358 1 -1.08981 19.8568 14.2 -4.73992 1.7794 2.80163
3359 1 -4.42204 21.8459 11.5596 5.62343 1.68583 -1.93705
3360 1 -7.22659 -16.532 17.1058 2.83153 -5.25128 -3.06795
3361 1 -4.21522 23.1486 9.17882 0.506084 1.06743 -1.30415
3362 1 -6.38437 3.54425 -14.1854 0.671217 -0.556876 0.73706
3363 1 13.074 -4.69014 -14.5539 -2.31603 0.60389 -2.36319
3364 1 -21.2039 -8.84828 -0.756908 2.61805 2.08581 -1.17651
3365 1 -0.101615 -9.21701 11.5673 0.478406 -4.92882 0.0907
3366 1 -21.2341 -22.2979 -19.4338 -0.180513 -1.55746 2.26857
3367 1 1.36283 -20.0696 -19.3452 2.21614 0.268378 -0.215107
3368 1 20.7515 -20.2416 17.2228 -1.2015 1.25673 3.62715
3369 1 -3.21049 -3.12279 -11.5687 4.19859 3.76056 -0.640894
3370 1 -18.937 -14.7009 -14.718 -1.87295 -4.3264 -0.131817
3371 1 -8.31529 3.93962 13.4168 -0.82711 -0.699873 -2.50148
3372 1 6.73 -3.14547 -8.87751 3.38915 -1.10564 1.24652
3373 1 13.2473 -5.78531 19.6097 -4.73543 -0.212809 4.73321
3374 1 22.6173 -13.5724 -23.0219 0.933925 1.58226 3.548
3375 1 20.3591 -11.6987 0.624399 -2.91086 -2.37484 -0.047188
3376 1 -15.3248 9.53627 13.4507 1.25631 1.27835 3.53475
3377 1 5.98354 -12.5212 13.5408 -2.01843 3.39484 -0.608926
3378 1 -6.2311 -18.2624 -0.0825152 -0.105251 6.33841 -2.16536
3379 1 9.25601 -5.72646 8.29903 -2.72993 -0.504951 -2.69301
3380 1 1.07895 16.4208 22.7525 -1.3971 -1.2352 4.35806
3381 1 -3.88289 -15.9978 -21.7358 4.39058 -0.080484 -0.695053
3382 1 -20.4443 13.2709 15.6678 -3.05073 1.64167 -1.65345
3383 1 -20.613 22.358 -18.6346 3.59526 -4.34797 0.261311
3384 1 16.6206 -18.765 -11.634 -1.78996 -2.47422 6.10007
3385 1 -4.45489 -19.3348 -7.1797 1.68921 -1.13738 5.80252
3386 1 11.0498 -10.4677 -23.3548 1.53135 -0.32539 0.453497
3387 1 -18.2318 -2.67519 2.1129 -4.01716 -3.09262 0.725378
3388 1 -21.5064 -2.99636 14.7214 -1.77155 -1.81766 -0.293039
3389 1 -13.2055 -11.4594 -12.1466 -1.51809 2.97546 -4.51315
3390 1 23.8082 -21.8564 15.2128 -2.08572 -5.35184 -3.77619
3391 1 -8.97157 -13.2271 4.04783 -0.729965 -2.18354 -1.34658
3392 1 -7.02834 0.915543 -17.0156 -2.12809 -1.19059 1.89072
3393 1 -12.5518 15.0549 -19.2981 1.97438 -0.646445 6.51088
3394 1 -12.6055 -1.0027 12.7823 3.76695 3.43065 -3.88942
3395 1 13.535 -16.3615 10.4157 0.904517 -1.92099 -0.127419
3396 1 -21.8303 6.07901 -4.99719 -4.50713 1.04232 1.03132
3397 1 -3.68341 1.98869 20.6622 1.22129 1.10449 -1.9832
3398 1 -7.13265 -19.9615 -3.42964 0.900125 -3.29979 0.706011
3399 1 0.813296 -5.73411 3.90682 0.219246 0.210062 -0.174274
3400 1 15.9772 -22.1778 -22.4643 0.104188 2.12782 -1.93382
3401 1 -20.4611 -22.4619 -12.592 3.31712 5.59669 5.24489
3402 1 14.7476 -16.4292 -17.5073 2.34428 -3.9004 0.728912
3403 1 -14.353 -22.5181 1.27923 -0.303802 -3.87912 0.364042
3404 1 -18.6723 -9.4552 0.691839 -1.77622 3.7926 0.789843
3405 1 16.6562 5.08597 13.8001 1.68387 -3.07709 0.0779759
3406 1 3.74046 -4.54256 4.81649 0.494113 -4.24656 -5.07676
3407 1 12.0742 0.0778825 -13.1232 1.62373 -5.0474 0.19855
3408 1 -17.6777 13.2527 -24.492 3.7304 -4.35162 -2.16517
3409 1 -3.45015 -18.9246 19.1597 0.522181 3.00602 -7.80621
3410 1 -19.9837 -8.98085 13.8572 4.58836 -4.12073 -3.47658
3411 1 -5.24533 -5.5998 20.02 1.99249 1.34266 -0.903887
3412 1 5.87454 -3.53727 -11.49 -5.23764 0.658167 0.319648
3413 1 -2.87569 -16.3859 -15.6429 -2.9955 -1.44483 2.10724
3414 1 -17.5554 5.14529 -7.21398 -1.06085 1.33842 5.6579
3415 1 -16.5101 0.16839 -15.6842 -2.09087 3.01213 2.57691
3416 1 20.2846 -21.1056 -5.73135 -0.681386 -2.65484 -1.54494
3417 1 -23.1405 -10.2937 9.76851 -4.35602 -3.30382 -1.89028
3418 1 20.7956 18.1143 14.3426 1.51163 -2.23068 2.96594
3419 1 -11.6604 -11.2809 1.2974 -3.07338 -1.38094 2.07882
3420 1 -18.9577 9.84282 8.11783 2.55727 -1.72937 0.288347
3421 1 10.4847 16.4676 -13.4629 0.399017 2.60775 -3.60935
3422 1 5.89943 -14.1929 -3.13715 3.40917 -0.022319 -1.22673
3423 1 -13.238 3.21405 1.18942 1.10466 4.93756 1.25912
3424 1 0.569524 -9.52709 1.11416 2.60157 6.61601 0.796336
3425 1 23.9109 -9.90506 17.9976 -1.45278 -0.804903 8.2122
3426 1 -20.1395 -6.17609 4.10445 1.05165 2.75239 -0.169706
3427 1 23.6802 13.6636 -16.5808 3.33228 -1.40108 5.0438
3428 1 -3.65546 11.848 13.7391 0.746766 4.2946 -1.17936
3429 1 2.63169 -17.5552 17.1381 4.18075 -1.68308 -5.50299
3430 1 -13.2364 -15.5736 20.0598 0.277006 1.19825 2.16705
3431 1 -9.92114 -5.45715 -1.04223 0.591294 -1.91466 -2.78435
3432 1 -2.20024 9.34123 7.96939 -0.896865 -0.291075 -5.08386
3433 1 -7.06786 -2.47609 -21.2214 -2.29394 2.4071 -1.08933
3434 1 13.328 16.3358 -9.00373 0.396803 0.587386 0.221135
3435 1 -4.33714 21.8339 -14.1184 -4.48697 -7.07814 -1.90655
3436 1 -4.34447 9.16137 17.7271 3.24891 5.20737 -1.0646
3437 1 12.1347 15.7688 -6.40889 3.9419 -1.16054 0.754515
3438 1 -18.8171 9.70781 3.71707 -0.443251 1.84021 -1.65395
3439 1 2.28488 -13.728 12.6634 2.35991 -0.147197 0.504478
3440 1 3.94888 20.164 -9.66193 1.93137 -1.98982 -0.517714
3441 1 6.01946 -15.1736 -5.9026 1.64894 9.31733 0.130015
3442 1 -7.08388 -0.412608 4.03692 -1.77777 -1.88004 5.48058
3443 1 22.6122 3.3049 0.374498 4.27121 -1.59184 -0.80003
3444 1 -19.1302 12.6167 2.81123 -0.666639 1.80987 -1.66926
3445 1 -11.7002 0.568772 -9.21328 -0.25604 -1.87612 3.84585
3446 1 -3.46153 -20.9475 -16.1306 4.21757 0.601227 1.63919
3447 1 -5.13835 4.14249 -7.47177 -0.627679 2.761 -4.07692
3448 1 -19.569 3.87998 15.2966 -1.5063 -4.03096 -4.35342
3449 1 6.19771 23.5144 -16.4776 0.515858 0.877743 1.56344
3450 1 -3.66127 -13.9214 -13.5861 -6.37853 -2.14117 -3.39153
3451 1 3.86135 -11.7895 -20.1516 1.05205 5.91692 1.42092
3452 1 -10.8849 -0.583247 -11.8197 -3.51619 -0.597239 2.57179
3453 1 15.308 10.6497 -21.1145 -0.938973 -2.04982 0.641774
3454 1 -21.3225 17.458 10.4011 0.756764 -2.07032 3.0007
3455 1 -18.5171 14.1775 20.2213 3.04785 -2.14416 -0.202273
3456 1 9.11669 23.1346 -16.4528 5.38408 -0.238066 -0.353316
3457 1 22.5103 13.638 22.0093 -2.64787 -0.392456 -3.2819
3458 1 14.2738 6.14062 -22.8114 -3.56046 -3.02057 -4.30952
3459 1 -1.9381 18.4428 17.7452 5.01168 1.5657 -1.24101
3460 1 -0.219813 20.6411 16.8918 0.447486 2.14168 1.93078
3461 1 -13.0089 -23.8426 19.5022 -0.0386328 0.885499 2.36643
3462 1 -11.5823 22.0585 -8.50893 2.35187 -1.00599 3.85299
3463 1 22.9358 7.20525 -22.9109 1.81413 2.1907 0.803268
3464 1 -18.2614 -19.8104 13.3033 5.36231 -1.79747 3.45667
3465 1 1.207 -4.90838 11.7983 4.35246 -3.39429 3.05518
3466 1 -9.93219 3.58729 -7.5533 0.364684 0.641422 -3.93547
3467 1 13.6125 12.6388 14.7002 0.587998 -1.80297 5.92554
3468 1 -7.27199 -7.79429 23.0551 -3.66074 -1.86408 2.00585
3469 1 -2.10766 -8.27936 1.80481 0.0964638 -0.190532 -1.96435
3470 1 -16.7872 -18.8799 -8.24985 1.4899 -7.92515 -7.05764
3471 1 -17.2542 -18.2834 -17.8414 -3.66608 -2.74156 -1.43585
3472 1 -14.7799 8.10562 -14.4419 -1.40258 1.54523 -3.83723
3473 1 23.8688 23.1431 -20.9567 5.52571 -2.91744 0.913592
3474 1 16.279 -2.06458 13.0864 2.97188 -0.997253 3.52777
3475 1 -22.6845 -13.8607 18.8076 2.25452 -5.10337 2.54426
3476 1 3.9801 14.2908 15.9076 2.98002 -1.85245 -2.23627
3477 1 -19.3006 -0.755416 -14.9266 -3.53461 -3.7796 -1.74447
3478 1 10.6398 -13.3154 3.11032 2.303 1.6565 6.09273
3479 1 17.5527 -6.52712 9.35749 0.864332 -3.64952 -1.8133
3480 1 -23.1422 23.7601 -5.65104 1.59733 0.466774 2.52366
3481 1 2.96629 -22.3266 -22.7584 -2.15318 6.72311 -7.63153
3482 1 17.5287 18.6378 -0.287562 -2.36631 -2.40813 -0.331287
3483 1 11.3355 21.5594 -1.10714 -2.28934 1.97189 -3.16042
3484 1 3.03366 11.0724 7.91758 0.609455 -3.64734 1.76757
3485 1 2.19892 8.84138 -4.16544 0.156731 -4.75382 3.57849
3486 1 17.6791 23.1364 18.8537 2.79502 -2.64504 1.01005
3487 1 9.97699 -10.8081 -12.2753 -0.196418 0.829476 0.781097
3488 1 16.7831 14.0983 -12.7939 3.90001 -2.71004 2.55931
3489 1 18.4155 1.6386 -7.2596 -3.1751 -3.5141 -5.47741
3490 1 -17.9228 3.76781 5.55579 1.37619 -3.1976 -3.08741
3491 1 -9.3212 7.87089 -21.0765 -0.124565 -5.18797 0.754156
3492 1 18.6359 -1.50464 4.20658 -0.92969 0.791019 1.79647
3493 1 5.15711 12.0484 17.6391 0.726365 -0.943549 -0.31916
3494 1 -16.2927 3.09557 22.7212 4.69717 -1.36789 0.808321
3495 1 22.5671 -3.78257 16.8987 0.611547 0.0617335 -5.14194
3496 1 -9.39251 8.4629 -15.2336 5.11332 -2.40761 1.85624
3497 1 -16.4142 10.5028 18.0305 -1.53024 -2.41018 -0.303728
3498 1 -17.6334 12.6966 5.76272 4.58516 1.86398 -3.37555
3499 1 -22.5538 19.9644 -21.4944 -2.35535 -2.43381 -3.9848
3500 1 19.9366 16.2069 -7.24256 -1.05482 -0.0507457 -2.74959
3501 1 -16.8262 16.4899 -7.08137 -1.86108 -2.91212 0.0467652
3502 1 -6.06114 21.9709 -4.45645 4.04246 -0.54106 5.46049
3503 1 17.9817 -21.9706 3.52206 -3.63313 -0.666433 -0.897895
3504 1 17.0682 -1.1079 0.0150685 0.236214 -0.188715 -2.9303
3505 1 0.679055 -13.4892 3.11674 -4.66507 -1.84966 4.19785
3506 1 -22.8176 19.2564 -3.95348 -0.828437 0.929715 1.77501
3507 1 8.66086 8.74318 -9.6257 -0.0785787 2.11612 3.02931
3508 1 -2.73909 -11.6264 -20.1147 -2.94272 0.156126 3.75434
3509 1 -22.5597 -20.6461 -21.913 1.32161 1.2139 -2.14178
3510 1 -12.0801 4.90224 16.0139 -3.19444 0.573664 -5.85783
3511 1 13.641 10.5166 -2.22098 1.83428 -0.942549 2.87609
3512 1 -19.0806 2.38785 3.05703 -5.87697 -3.47386 3.81124
3513 1 -20.5142 -20.6754 -17.2791 -0.127683 3.9592 -2.55177
3514 1 -4.22003 18.984 -9.07784 -2.04652 -0.663913 2.39787
3515 1 14.9101 -18.4089 8.21197 -3.98913 -0.43785 -1.11336
3516 1 -19.6354 4.79997 -17.8222 -0.705291 0.916713 1.40093
3517 1 -6.89574 17.8639 17.3212 1.71543 -1.2415 1.09892
3518 1 -1.07464 -0.356143 -0.272421 0.54292 -0.288135 1.20691
3519 1 -2.79961 5.4315 16.8065 -0.880175 0.712753 3.46827
3520 1 -4.72686 -14.7597 21.3679 -7.98068 -3.19381 4.96265
3521 1 2.3943 14.5681 -14.6888 -0.923828 1.98411 4.33069
3522 1 23.5442 14.3406 -23.7923 6.47242 3.53606 1.93877
3523 1 -13.5168 -20.3036 8.81437 2.13879 -1.46214 0.611777
3524 1 0.0908912 24.1303 -1.06976 -1.62348 -0.485797 -2.52437
3525 1 -17.1398 12.6408 -21.7111 -2.27472 3.70531 -2.08375
3526 1 10.2232 17.826 -6.80624 7.6696 -1.99945 2.16146
3527 1 -1.70215 11.6888 6.33984 -3.11817 -1.17511 -2.32575
3528 1 -24.6005 -22.677 0.560089 0.576413 -2.86529 2.29404
3529 1 -20.9995 8.44897 21.2549 1.48487 -2.53872 -3.52907
3530 1 -11.6016 11.0828 7.18768 -0.974282 1.13757 1.62732
3531 1 4.77123 6.44236 22.9876 -0.785428 -7.0381 -0.442951
3532 1 -7.75209 12.6562 -7.94944 1.18085 -1.88634 -0.950068
3533 1 16.263 10.6217 4.42572 -3.4676 2.24522 2.84021
3534 1 4.95389 -4.24674 19.9752 7.24852 4.61571 -2.86397
3535 1 12.3636 -20.4444 -17.8089 2.76323 2.5864 -4.69365
3536 1 22.3909 -16.4463 8.41295 2.89193 0.569434 1.3269
3537 1 22.7445 22.2359 18.7493 -0.243398 -3.79342 -0.800236
3538 1 5.32444 -6.78012 15.7671 -0.588775 -2.39079 2.76135
3539 1 14.8931 22.8502 -11.9722 -2.06354 1.13386 -0.0717537
3540 1 -1.52676 13.3433 -4.318 1.3405 -1.2774 -1.51275
3541 1 13.2389 0.39904 -22.5281 2.98558 0.238207 -0.269777
3542 1 20.1795 0.302859 5.67275 5.88644 0.0649057 -0.900868
3543 1 -16.0969 12.5146 -6.03017 2.65478 -4.6991 -0.596839
3544 1 -6.90539 20.2458 -1.94076 -5.30039 -1.34793 -2.72158
3545 1 3.48117 19.8115 12.857 0.582226 -0.151574 -1.00063
3546 1 19.1984 13.888 -8.81643 -1.89066 -3.626 -4.33169
3547 1 9.42081 -17.8436 -8.7502 1.59936 -0.324397 2.10163
3548 1 8.87331 -12.5812 -20.5203 -1.9688 4.58306 1.52975
3549 1 -10.6828 8.19721 6.16989 -1.00151 0.582448 -2.88537
3550 1 -15.1167 15.6727 8.56582 -3.33041 -0.873334 -1.83186
3551 1 13.4206 2.27329 -20.4669 2.12282 -0.177126 -1.61101
3552 1 14.5036 17.5544 6.61246 4.27402 1.66251 4.59636
3553 1 -8.88114 14.9465 -4.02795 2.5128 0.126498 1.70726
3554 1 13.9323 13.2707 -13.2591 3.63472 -0.92622 -4.00799
3555 1 -24.226 -19.8942 1.55217 -4.24045 -1.57887 -4.07218
3556 1 -8.40012 -12.9418 19.9135 1.72894 4.50654 4.21565
3557 1 8.71519 7.5627 -17.9998 6.02482 2.23496 0.559981
3558 1 -20.4403 -15.183 -2.56083 2.27104 -2.54019 -3.42129
3559 1 10.2544 -4.29416 10.6848 -1.73056 2.935 0.376858
3560 1 -18.0268 14.4488 -18.2929 0.267594 1.75985 -4.16368
3561 1 -20.476 20.8367 4.05215 -0.713418 0.628537 -0.861835
3562 1 19.5861 11.7706 0.58132 2.08771 -0.537583 -3.11005
3563 1 3.21559 -23.2721 -7.01164 1.44696 2.92539 -2.03207
3564 1 19.6923 11.5617 -14.3217 0.136205 -0.598283 0.639529
3565 1 16.4907 -16.8459 -6.53496 2.69022 -4.53176 -0.197129
3566 1 -11.3646 -16.2381 5.28218 -4.29094 -4.85767 1.86625
3567 1 2.47323 -9.77703 5.15361 0.0855871 3.26195 -2.58662
3568 1 16.4244 0.158882 14.8613 3.21064 -2.45818 1.49932
3569 1 -3.99482 3.31373 -12.5455 -1.11461 -2.14139 3.53605
3570 1 12.7737 21.9379 23.0487 6.18463 1.04495 1.39248
3571 1 2.54534 23.4463 10.1117 -7.66722 4.81921 -0.762047
3572 1 -14.0126 -16.8949 -19.7612 -0.644241 0.676135 -2.94774
3573 1 18.5856 -4.22084 -1.81693 -4.83721 1.78447 -2.56449
3574 1 -15.3378 -3.3496 -11.7548 0.0302308 2.23991 -2.64811
3575 1 -10.7309 -11.9634 -10.892 0.0960146 -2.13802 2.65649
3576 1 14.952 3.08036 16.561 2.02284 0.882331 -2.87511
3577 1 -7.30128 8.14101 -5.04567 -0.952997 -0.664116 -0.317452
3578 1 22.0403 7.21694 20.0921 -2.39779 0.942295 -5.47632
3579 1 -17.5766 -11.2994 -7.34451 1.58657 -7.80693 3.14573
3580 1 -0.828293 -11.2203 7.66044 -1.57892 4.34088 1.46404
3581 1 -13.1285 8.27309 4.52457 -2.79866 -0.268185 0.942466
3582 1 -15.442 -23.3181 14.9266 -0.79426 5.08983 0.0146157
3583 1 -16.3997 16.5115 6.38217 -0.463419 -1.03788 1.32294
3584 1 10.2129 6.10914 23.7027 -1.09472 1.45094 -5.09347
3585 1 11.8506 -1.9727 10.272 4.73473 -1.62665 -4.13494
3586 1 15.0669 0.488782 -8.31193 -5.3606 -1.21694 -4.22928
3587 1 23.8265 -13.224 -15.6543 5.28352 -3.54804 4.31236
3588 1 -23.5429 -7.12045 -10.2481 1.53613 -1.99702 -0.45959
3589 1 -12.4313 2.1247 -7.0712 -2.07912 0.681707 0.647902
3590 1 11.1657 1.68302 -4.65544 -0.436704 -2.62502 0.505018
3591 1 -7.51301 -10.7133 23.775 -0.650502 -6.08135 -2.70311
3592 1 -8.58215 -16.9652 -5.07933 -4.03709 3.73861 -1.65418
3593 1 15.9378 -9.48141 -15.1459 1.80801 0.576559 1.99677
3594 1 13.2429 0.525421 5.71343 5.8839 3.81481 4.7106
3595 1 -3.36093 -15.8403 7.40397 -1.26005 -1.7636 1.71354
3596 1 -7.25851 -9.88309 -8.93325 0.548249 2.03836 -1.47572
3597 1 -3.97398 12.6944 5.07618 -3.36091 -0.650819 -0.116079
3598 1 -12.9413 -10.5759 -4.97353 5.55071 -1.61858 -4.73137
3599 1 13.7687 13.3962 -6.29186 3.01937 5.72969 -1.69874
3600 1 -19.9394 22.9088 -9.90095 -2.67434 -2.72432 -1.18407
3601 1 -23.6322 -11.1307 -4.93053 -1.63217 1.96832 1.27972
3602 1 2.15357 22.664 21.7528 6.13438 0.0446112 2.54444
3603 1 -5.33702 -1.68156 10.5087 -4.73473 -4.6298 -4.62173
3604 1 11.4509 12.4096 -21.8807 -0.532588 -0.0963936 0.559616
3605 1 19.011 20.3884 15.1965 -2.60101 1.18721 0.632972
3606 1 3.63215 8.5078 -12.5895 4.00878 0.921009 -2.43632
3607 1 -18.8576 5.6767 18.4445 2.43824 1.4148 -2.29666
3608 1 19.6669 22.2126 -16.9464 4.19854 -1.01044 -6.01717
3609 1 8.33474 -12.1146 6.22084 5.04659 4.57801 3.33338
3610 1 14.5309 9.71647 -23.7711 -1.30163 1.77774 -3.3148
3611 1 -16.4147 21.2941 -16.1945 -1.96773 -2.36279 4.25702
3612 1 -2.66554 16.1339 -4.29067 -0.176869 2.20081 -0.695269
3613 1 2.43626 22.5155 12.737 1.67331 -1.36874 0.884424
3614 1 -1.26682 -4.94377 -5.18575 -0.110352 -1.70252 -0.667219
3615 1 2.56429 20.9509 1.82116 0.165315 -4.57788 1.25718
3616 1 -11.3236 -10.8405 22.9164 -1.18128 1.56108 1.51234
3617 1 15.0949 0.153974 -19.2698 1.00392 -0.131493 3.6893
3618 1 0.177472 -8.61317 -8.29318 3.0466 1.47259 -1.86913
3619 1 1.42941 20.1624 7.93871 0.928846 -1.61763 -1.65793
3620 1 -4.6815 13.8952 -10.8526 3.23064 3.6456 3.68773
3621 1 -9.06406 12.1166 11.3235 -3.08539 2.92418 -1.69204
3622 1 6.78154 -13.2806 10.2546 -0.78416 5.44439 -1.31432
3623 1 10.3932 -0.985352 18.4589 -0.098125 7.25101 2.0082
3624 1 21.6711 -7.84901 5.03885 -0.385546 2.29989 1.49677
3625 1 8.49058 -16.1705 21.6888 4.39046 5.86577 2.6257
3626 1 -15.0373 4.23552 -6.36233 -4.29417 0.424545 -2.99547
3627 1 -3.57933 18.0778 8.88135 3.42686 -1.3683 -3.1639
3628 1 10.1554 -0.409873 8.74818 0.345559 -0.672449 -3.38985
3629 1 -4.65377 -1.71084 3.15349 0.767634 -3.03408 5.02481
3630 1 5.19839 -12.107 -1.17257 -1.07316 4.18028 -4.5881
3631 1 8.03195 10.1288 19.9238 3.77542 1.77575 1.05266
3632 1 -14.4248 -15.9892 14.2042 6.19136 3.76098 -0.0228208
3633 1 9.41939 7.77345 -3.92115 1.33816 3.92214 -1.54803
3634 1 -1.41642 3.1623 8.8695 -1.25133 -0.686737 4.62277
3635 1 0.414707 -15.7355 -19.8346 0.508158 0.127025 -2.38119
3636 1 4.4986 -17.4939 -12.3009 -0.642445 -6.07706 0.0181199
3637 1 -4.5863 11.9889 23.0889 -1.50108 -1.64384 0.982224
3638 1 22.2391 -7.79231 22.444 3.83484 0.0742617 -0.846602
3639 1 6.47498 -18.2446 4.8931 3.4762 -0.0546032 -4.85028
3640 1 18.6547 -16.7805 -11.0972 2.41254 -0.123206 1.00952
3641 1 5.11765 10.9694 20.4097 -1.24517 2.09766 1.56898
3642 1 -3.9593 -15.125 4.60557 1.55591 -0.0124238 0.224338
3643 1 0.626694 4.03971 6.95949 0.97163 -1.79017 -2.68373
3644 1 20.5572 21.0136 -1.90934 -0.894017 -1.64933 5.24288
3645 1 -18.1089 -14.1776 -6.7375 -7.53505 -1.12985 -1.56971
3646 1 17.3374 2.81446 -16.9584 2.99579 -1.49781 1.21368
3647 1 18.8418 -19.7436 4.85539 -6.57337 -0.562103 2.82964
3648 1 23.5219 -20.3196 -1.32749 -2.58059 -2.88938 3.44641
3649 1 -16.6461 -1.49311 -18.2453 2.7973 -4.00187 -2.85618
3650 1 9.35846 -8.34921 -16.8788 -0.850907 -0.0578784 -3.22986
3651 1 -10.2141 6.40253 11.1218 2.37684 0.795844 1.23409
3652 1 20.8535 -12.4768 15.7724 1.30021 6.70152 2.32376
3653 1 -0.264914 16.3106 -2.50507 4.57946 4.62588 -4.6198
3654 1 -18.7894 21.8751 12.5225 2.81391 -1.09471 -0.820735
3655 1 -8.51045 22.3804 -13.7977 2.76809 -3.04779 -3.82742
3656 1 -11.3842 -19.5614 19.0991 -0.46743 -3.76355 1.51113
3657 1 23.0432 22.8941 -11.1798 1.23994 -1.20494 -1.04545
3658 1 22.8754 12.8927 15.7938 -3.66226 -2.56854 0.253345
3659 1 19.4465 6.69564 -20.0397 2.24481 -4.20772 3.46967
3660 1 16.0206 8.78602 10.1413 -5.91321 -2.18061 -2.44834
3661 1 22.8799 11.0373 -17.9447 1.21829 0.790376 1.64367
3662 1 0.000115299 -0.391839 -22.4128 1.25826 6.46211 -2.39754
3663 1 -19.5947 -13.4729 -12.0163 -1.58515 2.63835 -3.1898
3664 1 7.26529 16.3829 12.6335 -1.65853 2.38396 1.25756
3665 1 11.3029 -9.95049 -18.3009 0.717255 -1.07103 -1.09938
3666 1 3.15987 -17.832 -24.2088 0.83814 -1.7469 0.303546
3667 1 13.4491 16.5456 -16.981 -3.13998 2.14436 0.99212
3668 1 -13.3092 -2.35396 20.7693 0.248383 5.72418 3.22525
3669 1 0.250901 21.9687 3.19105 -0.526728 -1.24996 2.24915
3670 1 14.0588 6.28753 -9.32174 -2.84923 -3.4045 -6.70958
3671 1 -1.70191 10.6459 -14.042 -2.18517 0.864562 -2.7514
3672 1 -13.6857 11.3601 12.2279 0.0126219 0.695214 -0.0894312
3673 1 -4.5364 -22.3895 22.6565 0.785495 -0.0553926 0.949851
3674 1 -0.956422 -0.807521 -7.00302 -2.95723 -1.29737 1.96052
3675 1 -14.6903 19.8718 -9.49015 -0.703191 0.219315 -0.509641
3676 1 16.8405 13.9242 -9.93798 -2.3415 -1.99908 -2.68833
3677 1 -6.24874 13.3187 14.795 4.21275 0.138111 -1.46259
3678 1 -18.3745 6.39919 14.7852 -3.98481 2.12427 -5.0806
3679 1 9.87918 -19.0321 -5.71432 1.14423 -0.071044 -0.891789
3680 1 12.9902 5.94044 23.4201 0.263961 -0.988139 -4.54389
3681 1 -6.65856 0.423724 15.0669 -3.00292 -2.48988 1.9657
3682 1 23.1774 -21.4225 17.9755 -1.41002 -1.83588 -0.250281
3683 1 4.19164 10.341 5.44007 3.97457 -5.92123 -1.3174
3684 1 15.3407 16.249 -23.1826 -2.79035 -0.221475 2.87871
3685 1 5.27056 -2.75872 0.421691 0.980571 -4.26855 0.12169
3686 1 -22.6319 9.14789 0.82491 -2.45741 -3.42832 2.58207
3687 1 9.28579 -14.66 9.00857 -0.333777 -0.38725 -1.61609
3688 1 -9.75487 -23.499 0.247821 4.01564 0.972768 -3.99661
3689 1 21.2925 15.3025 -15.9464 8.12989 2.00702 -0.211774
3690 1 -8.83921 6.23364 -6.54017 -0.318072 0.26335 2.81232
3691 1 21.8572 47.5813 -7.3638 1.1418 2.16733 0.137723
3692 1 6.79264 0.201477 -18.2467 1.79384 -1.96982 -7.47768
3693 1 5.11106 22.6962 -3.03115 0.348754 0.0761896 0.310722
3694 1 -21.7441 3.28773 -7.76977 -2.00343 6.47228 5.14253
3695 1 -7.4607 -6.39259 0.462182 -1.34152 -0.0161797 0.22596
3696 1 8.23074 -0.284523 -15.4204 -4.58493 2.62956 -0.35449
3697 1 10.0093 5.56466 5.76495 -3.19946 3.36671 3.16672
3698 1 -22.5685 1.91859 15.9453 -0.605102 -0.645206 -1.26082
3699 1 -9.83842 -5.24817 12.6656 1.14257 -2.92866 -3.56559
3700 1 -4.76225 -18.4352 -16.4152 -1.59059 -4.75343 -2.6801
3701 1 13.9505 -3.16483 11.5932 0.837407 2.11331 1.21295
3702 1 -6.42405 -0.990018 -13.7191 1.34676 -4.7739 0.545414
3703 1 21.227 12.5443 -23.0379 2.0348 -0.788432 0.561901
3704 1 18.8091 -3.02111 11.8458 -0.855299 0.329303 3.06621
3705 1 5.32696 -1.20621 3.18656 1.21796 -3.39974 -0.734526
3706 1 -13.0751 3.68808 -15.5949 0.661434 1.71922 -3.53991
3707 1 18.4533 7.00464 -15.5711 -6.39182 1.00302 -0.557777
3708 1 5.96614 1.75115 8.48 -1.24597 -1.15546 4.28399
3709 1 -18.7738 15.1435 7.64728 0.832638 -0.627523 -4.73876
3710 1 -7.27962 -7.11778 18.3217 -0.689518 1.22926 -1.94969
3711 1 -12.3629 11.1946 14.8416 2.13752 -1.1243 3.65428
3712 1 17.2365 22.6869 -5.48876 1.21736 3.63776 -2.21303
3713 1 2.04387 21.7435 5.37467 0.39686 0.293043 -0.694642
3714 1 -11.9194 0.344904 21.938 2.26749 -3.07256 2.76708
3715 1 19.8735 19.1106 19.2748 4.17241 0.424656 1.16642
3716 1 7.07734 3.73876 -0.275133 -4.70346 -2.36515 6.48692
3717 1 -3.01817 15.5593 -19.0465 6.19411 -4.32638 -1.65523
3718 1 -18.1458 7.15968 2.29485 -2.09241 1.11507 -0.884342
3719 1 -1.22171 14.9327 -6.72834 2.32399 1.40528 2.97671
3720 1 16.8631 15.5836 16.949 -0.921661 -3.29865 -0.127999
3721 1 -1.14749 18.6181 -9.40584 -7.4746 -3.24177 0.74865
3722 1 19.2266 -8.11299 6.47575 2.38513 0.10485 -7.20028
3723 1 7.44181 4.07863 -16.2167 -3.29725 0.600533 0.899185
3724 1 -4.81006 0.179029 -3.26596 1.66426 7.50386 1.63256
3725 1 -12.312 20.1897 -4.16606 0.0263973 -0.93725 -3.44896
3726 1 -8.72469 -13.3552 -14.526 -1.37553 2.45242 -3.6441
3727 1 6.49545 -11.9327 -21.8856 1.66189 1.41504 4.52342
3728 1 15.8751 -10.1339 23.7715 -2.3729 -0.674084 5.66781
3729 1 -22.579 -7.6138 -12.8765 1.27866 1.22581 0.126847
3730 1 11.858 -4.86803 13.1407 0.78359 1.39535 2.65325
3731 1 3.13516 -18.3658 -20.7019 -1.37864 1.23027 -1.95406
3732 1 17.921 18.2686 5.40031 0.0120495 -2.63755 1.18493
3733 1 4.13142 -15.0766 -0.942307 0.290188 2.03683 -0.0345397
3734 1 14.0456 13.5057 -9.12599 3.11579 0.0952986 1.49578
3735 1 -7.4093 18.1774 0.192877 -0.103354 -1.3135 4.79036
3736 1 -23.0725 13.0654 -10.3611 1.06945 -1.80036 -1.74769
3737 1 0.235175 4.6677 1.07206 -3.9015 -1.38756 -1.80684
3738 1 -6.48676 -6.04197 15.8374 -3.80784 0.386507 -0.598763
3739 1 0.538025 -5.0664 9.12547 -4.85434 -1.5946 -1.43655
3740 1 6.58263 -1.10886 -21.0148 -0.440845 2.73542 -0.588312
3741 1 -19.4421 10.5771 -5.30796 0.179859 1.17633 5.05756
3742 1 -1.85987 -17.3428 -13.1214 -2.7602 1.75133 -4.60566
3743 1 5.34928 -14.0674 15.9748 0.522177 2.06071 4.64227
3744 1 -16.6969 17.4201 2.5655 2.16813 3.38672 -0.310846
3745 1 3.52244 -9.2617 10.6736 -5.9708 -0.115613 -0.153476
3746 1 5.96631 -20.0609 -5.86764 -2.02422 5.2514 -0.145735
3747 1 -17.8011 22.5391 -18.399 -1.47523 0.604032 -0.231819
3748 1 -14.7005 -1.54916 -20.5036 0.71078 -4.79209 -3.85912
3749 1 -23.8527 -1.61596 14.6959 -0.594277 1.82627 3.77268
3750 1 13.5053 22.8729 -14.6927 0.89174 4.76513 3.66747
3751 1 -5.94427 -3.93964 1.80856 -5.25441 -1.68571 3.24171
3752 1 -19.6772 14.1854 -15.9462 0.717458 -4.09081 -3.49923
3753 1 5.60607 -5.47686 -22.9224 -5.67071 -1.42795 -5.59316
3754 1 -10.6448 6.02756 8.14444 -3.38965 -2.72648 0.346945
3755 1 17.2238 6.7819 -9.17283 2.4994 -1.34222 -0.940843
3756 1 -11.2136 -22.88 -21.167 2.36212 0.334019 2.07095
3757 1 0.0530473 21.4759 0.209363 -0.30689 4.40881 0.282057
3758 1 22.3992 -7.78142 -15.3047 7.14296 1.46313 -3.3461
3759 1 -12.0745 8.3508 -20.4977 -1.26346 1.55659 -0.660402
3760 1 15.8025 24.383 2.94407 3.09919 -1.06852 -5.623
3761 1 19.7144 -11.3056 -18.1663 2.68371 -1.95043 -3.61446
3762 1 9.7209 -10.8752 8.28433 -4.78724 -3.59647 1.48546
3763 1 12.9042 9.54831 6.92463 0.360983 2.93757 1.60432
3764 1 15.6186 -11.282 19.1282 1.44527 2.5932 -1.49356
3765 1 -24.0239 -23.8305 -1.95345 0.966663 1.56533 -3.15046
3766 1 -12.5539 19.5676 12.7549 0.737282 0.586839 0.834651
3767 1 -11.7121 -21.8664 1.67202 -5.81013 -3.53966 0.880497
3768 1 -1.6792 6.74287 -16.4027 0.505605 0.184429 -4.81406
3769 1 -22.485 -18.1797 9.45874 -1.09687 3.68727 2.28437
3770 1 -8.13841 -4.9831 8.57549 3.14181 -0.77473 -1.15321
3771 1 -16.222 17.3347 20.3217 -4.92376 0.115938 -3.89793
3772 1 15.1308 -14.1559 -2.52818 0.440814 2.28545 -7.50386
3773 1 1.61974 -4.15967 14.6712 1.06781 0.361056 3.62595
3774 1 -7.97257 12.3534 3.87542 -2.96605 -1.94111 -1.72732
3775 1 3.26415 -2.23085 -10.4125 -0.706052 -0.77229 2.84144
3776 1 9.74376 -5.91781 16.6926 -0.774699 1.77145 3.32158
3777 1 11.4307 -6.66571 -0.61507 1.27636 1.83863 0.506364
3778 1 6.41202 13.5891 -11.2509 3.27435 -2.29449 -0.971409
3779 1 -8.83635 0.740546 7.74014 2.92495 0.610583 2.29628
3780 1 22.7967 19.8641 -17.4227 0.465654 0.0719228 -3.68422
3781 1 -5.23815 -4.58415 8.53964 -3.28626 0.566897 -3.37807
3782 1 0.100923 -13.8671 -17.505 -4.9419 3.0731 0.331965
3783 1 20.9092 18.7252 4.67074 -5.46075 1.96066 0.480785
3784 1 13.4456 0.737739 2.65363 1.3046 -4.43728 -0.243824
3785 1 -2.53857 -22.4524 -23.9492 -0.859536 2.11045 -4.90203
3786 1 20.3312 6.83439 17.9182 -2.46916 -1.31368 -1.05733
3787 1 10.212 20.3731 -17.0831 -4.60942 -7.09085 1.64137
3788 1 6.57161 15.1958 8.80798 -3.63046 -0.745024 1.40773
3789 1 20.0858 24.8081 -14.4079 -7.08194 -2.94669 -3.37436
3790 1 4.26795 -18.9005 -1.38166 3.47288 3.0381 1.06791
3791 1 -9.72945 16.927 -12.0271 1.31192 -3.94678 0.45332
3792 1 -11.1795 -8.4293 11.0639 1.81739 0.648155 3.54449
3793 1 -13.7203 19.6877 2.42306 -5.79282 -3.16047 1.19075
3794 1 -4.13965 -20.5469 -9.76518 3.55616 -3.25473 -4.42408
3795 1 14.4441 22.4132 20.8183 1.6436 -0.861449 -1.37549
3796 1 -11.8506 -11.6571 -8.32761 5.78491 -3.79954 1.64961
3797 1 -15.3125 -14.9252 8.33393 -2.26183 -2.98158 -0.254031
3798 1 4.83122 2.50639 -1.53496 2.0231 -2.65112 -1.27953
3799 1 20.7771 21.3955 -7.41299 1.64384 2.9946 6.47161
3800 1 14.2733 2.27581 -1.57649 -2.94583 -0.480738 -1.29525
3801 1 3.93348 14.799 -9.882 2.26316 1.19197 2.14757
3802 1 7.37822 0.901892 -23.0673 0.957175 1.08174 -2.22594
3803 1 -18.9967 -4.83172 -24.2668 -0.435906 -0.581694 -1.6252
3804 1 13.1644 15.0704 11.0638 2.21983 -3.6348 -0.760614
3805 1 -5.59464 16.4208 -17.928 1.97264 1.00199 -0.416057
3806 1 0.452559 1.65405 -4.08407 -0.918817 -1.91527 -3.4217
3807 1 -7.81599 20.3549 -18.1882 0.562749 2.50562 5.41557
3808 1 9.92269 -13.1496 -23.0944 0.600577 5.05848 -1.9431
3809 1 4.06679 -21.8234 -19.5849 -1.80235 3.02784 -1.75086
3810 1 -18.7363 -3.62911 13.7759 2.52444 -0.2296 1.52821
3811 1 13.3952 -14.127 23.5297 -2.80974 -2.27036 -3.31331
3812 1 -4.20313 -15.1363 -0.0702734 -2.64169 -2.99814 -0.537015
3813 1 17.1106 5.24259 -0.23163 -0.0886798 -4.0188 1.76411
3814 1 3.3982 8.29634 11.0992 -2.93814 5.06825 -0.450681
3815 1 -0.508295 18.7321 22.767 5.81351 1.41255 -0.144838
3816 1 -14.8561 -8.62636 3.0947 -3.46547 1.07645 1.86569
3817 1 7.60628 8.35507 -0.839093 0.400579 0.702283 0.711843
3818 1 13.1483 16.3229 23.8595 0.251059 1.30184 -2.07914
3819 1 4.86677 21.8397 14.8261 0.704371 -1.29043 -0.550714
3820 1 23.1176 12.5441 -7.44179 -1.62048 0.562314 -3.18107
3821 1 10.8007 -11.8718 14.3982 -0.503669 -4.01076 -0.348182
3822 1 9.79393 6.90425 8.52788 -0.566889 1.77543 -0.652201
3823 1 -6.72213 -19.5518 -8.98976 1.41237 0.97506 4.24692
3824 1 -8.71512 -23.0392 -6.74244 1.73147 0.27863 0.317177
3825 1 20.9748 -13.8427 11.842 0.263375 5.55991 -0.00201132
3826 1 -2.29544 16.9211 -15.4625 1.15813 0.247175 5.8812
3827 1 1.00515 7.10852 19.4089 -4.19421 1.03227 2.77424
3828 1 -18.1488 18.0379 -18.8801 -3.50335 -0.390572 -1.49926
3829 1 -12.7747 -16.1807 -5.39928 -3.81549 -0.708777 -2.63332
3830 1 16.0011 -11.4475 -13.0219 2.07437 1.16468 -0.235487
3831 1 -2.91219 22.0194 -0.716249 -2.7294 0.810264 0.857324
3832 1 22.6435 -0.447234 4.20382 0.57252 -0.520215 0.0212058
3833 1 19.3942 -0.670974 -11.2637 -4.3438 -0.205724 -1.06245
3834 1 7.32513 5.81413 4.61184 3.11625 -4.52239 -3.01093
3835 1 21.8838 -23.549 -2.73888 4.82762 -7.63155 -3.27781
3836 1 22.4113 12.2482 -0.243526 0.295319 6.74436 -1.03959
3837 1 10.9627 13.5787 4.52473 0.419857 -0.486005 5.10604
3838 1 -6.10282 3.71437 -3.18947 2.31861 0.595527 3.67977
3839 1 19.1992 6.12642 2.52294 3.94676 0.367876 -1.46739
3840 1 -11.1978 -21.3205 13.3225 3.7501 -2.72329 2.46375
3841 1 21.6108 3.55486 10.8988 4.29674 -1.77885 4.03551
3842 1 -24.2157 1.90697 21.7141 3.92039 3.51763 1.9447
3843 1 -1.17478 -17.1007 14.1394 3.98184 -1.65727 3.02699
3844 1 -22.5909 -13.9417 7.00307 2.47858 -2.31329 -1.86077
3845 1 -3.79993 4.41173 -23.3142 3.60588 1.49528 -1.90952
3846 1 -21.9443 21.613 21.0641 5.31224 -4.58072 -0.397742
3847 1 -16.7855 -16.4405 -14.3505 -2.24099 0.733253 0.256453
3848 1 6.09083 -15.6333 6.04805 -5.94505 -3.78276 4.83052
3849 1 18.031 12.3742 -23.2091 1.53864 -1.99769 0.433562
3850 1 20.4498 -19.4382 22.5135 0.447805 -0.905291 4.85388
3851 1 -3.09529 5.17219 -1.96248 2.5237 1.44858 2.75046
3852 1 -5.4875 19.6566 15.4763 1.19167 -0.139113 2.32988
3853 1 20.327 -12.9453 3.31766 -5.70931 -5.67215 2.94754
3854 1 17.5341 12.1916 -3.66624 1.27343 7.27426 2.47659
3855 1 -3.84159 -5.72567 23.4373 -1.37502 -0.173855 -0.924595
3856 1 14.0842 -18.5913 -4.00597 -1.80064 -2.66253 -1.67341
3857 1 -12.7106 -22.5127 -12.829 -0.787123 0.417209 -1.20283
3858 1 15.791 6.5358 6.33692 -3.35904 -1.63005 3.2764
3859 1 22.364 18.1819 10.2758 1.60073 -2.86953 -3.85606
3860 1 14.4186 -15.0494 -15.2362 -4.18972 -1.05562 1.4089
3861 1 -17.5568 -13.8162 21.5237 3.77911 2.82479 1.65416
3862 1 -4.21793 0.433147 -17.8918 -2.79825 3.57305 -5.3204
3863 1 -13.4056 -3.64218 13.5695 -2.21802 -0.733796 -0.29394
3864 1 -3.88197 -3.25323 -15.6236 -2.87082 -0.0948797 -3.1995
3865 1 1.13861 -22.5895 15.0132 7.18307 6.38884 1.02367
3866 1 10.7501 -13.9888 6.64167 2.06559 0.394268 1.29738
3867 1 23.9396 1.40079 2.18859 0.640329 -2.3197 0.0264549
3868 1 5.9168 6.16211 -1.8211 -1.26841 -1.63278 0.716639
3869 1 -8.07787 4.65919 9.11453 -8.06108 0.887263 2.18963
3870 1 14.7009 -19.3894 -9.87179 -5.14725 -2.42808 -2.43892
3871 1 18.5279 0.096166 20.7774 -4.86754 1.65721 -4.41703
3872 1 22.6224 -22.4482 -7.37242 -0.668704 2.68696 -2.51487
3873 1 -3.64521 6.28832 13.9792 -1.32615 -3.61759 -1.64369
3874 1 -19.3749 -22.6121 -15.3003 1.48951 2.09787 1.81501
3875 1 23.6694 1.45415 6.31517 0.387565 0.70258 2.69251
3876 1 -23.06 -11.1012 20.0384 3.81537 -0.714774 4.279
3877 1 -23.3968 3.32128 -5.27972 -1.6767 4.16631 0.068366
3878 1 7.81729 -16.967 7.99117 -4.74934 -2.22472 2.16491
3879 1 17.731 -15.0339 23.2546 2.02076 -1.52057 -0.134133
3880 1 -8.01266 18.6078 -24.1321 1.76624 0.204124 2.62599
3881 1 -14.6994 0.789721 -13.5916 3.32745 -2.24761 3.50011
3882 1 23.9526 17.4669 -2.52984 0.300637 0.731836 -1.05135
3883 1 21.5892 14.7855 -10.1669 1.19269 -0.359981 -3.52675
3884 1 12.4807 -18.9438 -6.68044 2.16538 -1.96912 2.73766
3885 1 12.3552 24.1766 14.9367 -1.46512 2.31382 -3.06557
3886 1 -11.5711 -13.957 -6.69054 -1.63631 -1.52735 -0.882523
3887 1 1.2034 -11.8885 -19.3394 -1.66934 1.85126 0.841569
3888 1 -5.77668 5.26869 -19.1685 -1.30538 -1.31121 3.47884
3889 1 -16.2697 15.1833 18.615 -4.85119 -0.938349 -4.20536
3890 1 1.65838 19.3263 14.8297 4.05287 2.23854 -3.57569
3891 1 5.31146 -16.4782 17.7222 -5.89004 5.08582 3.31052
3892 1 -11.5618 21.2687 5.76057 2.11586 0.932395 -0.363838
3893 1 -6.69945 10.6969 11.5553 -4.42187 0.54161 -2.76403
3894 1 10.4986 12.1583 -13.1226 -5.2338 -0.26456 2.2735
3895 1 13.9699 -6.22879 0.212633 5.6839 1.3326 -0.803215
3896 1 -9.08948 -8.93185 -2.0281 0.570216 2.51799 2.17987
3897 1 6.69577 13.9656 23.963 2.50019 1.37557 1.81464
3898 1 18.5189 -2.74432 17.6933 5.24938 1.02 1.20829
3899 1 5.43889 9.10273 17.1226 -1.6378 -2.09235 -1.94968
3900 1 13.1758 -17.1343 -13.6711 -2.97381 0.524858 6.37928
3901 1 -16.3492 13.0252 -12.1133 1.71928 1.20839 -0.794865
3902 1 11.8449 11.77 -7.87272 0.0216626 -1.76702 2.76094
3903 1 -19.0109 -14.8394 3.38612 -0.760951 -0.221147 1.03447
3904 1 10.3998 -5.70382 -8.03507 4.02851 0.725978 0.0205779
3905 1 0.0622439 -11.2489 4.92389 4.4279 -4.01584 -0.00329148
3906 1 -16.1933 8.07507 -7.77381 -0.140579 -2.0362 0.81805
3907 1 -21.2792 -0.377012 9.97678 0.726159 -3.40238 -1.92027
3908 1 23.4502 -14.1618 14.9615 0.753954 -1.32146 0.411521
3909 1 0.973852 -10.6972 20.6699 2.25255 -0.403122 0.171629
3910 1 -6.19797 16.7771 -6.74389 3.92598 -4.1717 0.186175
3911 1 20.4538 18.6868 0.114059 3.48255 2.28649 -2.3111
3912 1 -9.04495 -9.01104 1.02103 1.00486 -0.623213 -0.482641
3913 1 -8.1978 5.03851 0.440992 -2.19709 -3.17328 -1.64408
3914 1 11.8898 -11.468 -5.47233 1.60137 -3.42869 4.49114
3915 1 6.80599 -2.05591 6.98635 -0.00637764 -1.88973 -0.175253
3916 1 22.4034 -13.293 22.8612 -0.229738 -1.59045 -2.52608
3917 1 1.65352 -5.90054 -8.87427 3.20983 3.65757 0.662789
3918 1 12.3771 10.5052 -17.6282 3.80606 -0.377781 0.48286
3919 1 7.31858 -14.8203 19.2525 1.73073 -0.140753 -1.57538
3920 1 -10.8665 10.206 18.5972 -1.7162 0.838215 -5.53184
3921 1 16.7065 7.39433 -19.533 2.10716 -1.4853 -1.64615
3922 1 -15.8236 -15.6416 -17.8456 3.62975 2.80991 0.718442
3923 1 -22.2278 4.32695 -12.7333 -2.7741 1.15836 3.6278
3924 1 -10.8193 -5.96046 9.75141 0.617734 0.405839 -6.21384
3925 1 -22.6911 5.33312 2.96002 -1.49787 -0.997094 -4.06779
3926 1 8.60506 -4.43299 23.5067 4.63667 -0.0584313 1.52329
3927 1 12.6709 16.9119 -2.76336 -4.56888 -2.40891 0.222859
3928 1 -17.7345 16.1423 24.1405 -1.19401 -3.74357 -2.30316
3929 1 -2.00369 11.3738 -8.70329 -1.21569 0.0395521 -3.679
3930 1 13.6465 19.8271 -0.322606 -2.46565 5.39899 -4.13099
3931 1 -1.71279 9.45289 1.68607 -1.83278 -1.43263 0.736451
3932 1 22.6519 6.02322 12.2914 -1.03528 2.15791 -4.21066
3933 1 -2.79429 -10.0211 20.9277 -2.16911 1.14622 3.13054
3934 1 20.7216 3.2828 -13.5382 -0.125678 4.41711 -1.07355
3935 1 12.4314 -16.0984 -20.3696 -3.39213 -0.996804 3.06799
3936 1 -0.0142514 -23.1468 23.6171 -3.86898 3.42631 3.12492
3937 1 15.1442 -14.5687 -19.7149 1.62219 -3.7033 -6.25717
3938 1 19.4266 12.3069 18.5947 -3.31382 -0.564178 -6.34469
3939 1 21.154 -2.61541 14.8413 0.112624 -0.329934 -0.992615
3940 1 -3.29155 22.9403 -9.28768 -2.64274 -0.188165 4.0452
3941 1 -17.6657 1.02027 24.1117 -2.07397 -2.25777 1.59014
3942 1 9.59981 -22.221 15.9378 -1.69429 0.597292 -4.95833
3943 1 -21.5534 -19.1706 2.64458 -3.6581 -1.68426 -1.31719
3944 1 -12.8502 -8.25088 -14.3733 -3.1342 -1.72677 3.71816
3945 1 -21.5978 -12.0985 -15.1345 0.410735 4.48541 -2.50595
3946 1 -4.94529 16.0413 10.2529 2.93587 -1.15369 1.47175
3947 1 -22.1401 8.92706 -23.0536 4.07877 4.24262 1.04324
3948 1 10.6628 16.4751 -17.9513 2.17836 0.895808 0.173227
3949 1 3.51638 -13.5213 -13.0124 5.13463 4.48431 2.15844
3950 1 -4.88677 -0.483618 -20.6681 1.27267 0.476086 -3.48549
3951 1 5.19496 1.73211 -14.0773 0.439627 2.93808 -0.687956
3952 1 -5.33143 -6.10679 -18.1204 -0.983232 -6.01119 2.12104
3953 1 19.9782 -18.5143 15.3419 0.64382 0.945505 3.97338
3954 1 3.95873 2.70397 -16.4233 0.72077 0.97147 -0.0550046
3955 1 -6.82207 20.0293 11.8157 -0.64285 -2.80599 -1.94062
3956 1 -12.5361 12.1974 -3.62921 -4.11503 -0.699045 -0.658829
3957 1 18.647 -21.4412 -18.717 0.0292717 -2.69272 -1.90348
3958 1 -1.78196 7.36664 -5.46618 6.0744 -1.03574 3.24288
3959 1 -20.4147 -5.55561 -20.5157 -0.73095 2.52784 -0.790399
3960 1 18.4604 -12.1399 -11.4899 1.35377 -2.82079 0.872115
3961 1 -2.63815 -20.5002 -2.91726 0.450684 4.56172 0.492881
3962 1 2.38774 -13.9365 5.30029 0.52038 -4.27823 -0.413823
3963 1 -15.7556 -16.2042 -1.87092 -0.515007 -6.98804 -2.74869
3964 1 8.76567 10.8523 17.041 3.98289 -1.96635 -3.31886
3965 1 -5.26815 0.574689 1.33025 -1.94979 -3.20074 -0.0441911
3966 1 -19.9597 19.4383 8.70569 -0.752601 -1.89463 1.33417
3967 1 1.34365 -6.36513 -4.98085 -4.10239 1.27689 -1.69342
3968 1 -1.73693 3.4522 -4.06612 -0.409355 1.10784 -2.56109
3969 1 16.8558 -22.9261 20.8001 2.2582 5.01476 2.95888
3970 1 -6.24408 20.3345 22.8803 3.65115 0.409871 -1.26217
3971 1 -4.5927 -1.75568 21.4744 0.237416 1.48242 2.92767
3972 1 -5.0258 -9.25917 -11.0785 3.5143 1.14905 -0.828026
3973 1 -12.2342 -20.684 -6.26402 0.427718 -1.62957 4.90834
3974 1 6.523 23.7024 13.1443 2.17077 4.3962 8.79802
3975 1 3.91967 -0.262488 -17.1607 2.53866 1.90603 1.69948
3976 1 -3.86878 13.9727 2.38212 1.04627 0.707413 2.70075
3977 1 -9.12031 -17.7503 -19.6666 -2.40819 -4.43941 -1.59084
3978 1 -1.39207 20.1915 -11.7906 -4.61636 1.45893 -0.535811
3979 1 -10.9627 -23.9863 3.68239 -1.34228 -1.61166 5.85605
3980 1 -22.4672 -15.4743 -13.3722 -4.17873 2.06939 0.237677
3981 1 11.3797 -8.56408 5.14185 3.28521 -4.38048 3.48406
3982 1 8.14523 -3.64474 -3.56554 3.93272 2.58217 2.20344
3983 1 -21.6534 9.01498 9.67938 -0.62878 0.415882 -3.4947
3984 1 -6.24389 14.0368 -18.8696 -1.95331 4.32483 -3.02771
3985 1 -12.2934 19.4697 7.83497 4.09587 -1.19597 0.125631
3986 1 16.0869 20.2251 -15.2958 0.819661 1.46919 -1.45027
3987 1 12.7716 15.4174 17.6015 1.39454 1.01614 1.19363
3988 1 -23.0974 19.5388 19.2869 -0.420472 -4.80984 0.359376
3989 1 -15.2202 -10.1371 -13.8576 -0.305464 5.60228 2.04123
3990 1 10.4178 4.58928 -22.7241 -0.479902 1.95103 0.824964
3991 1 -17.8982 8.1291 -24.0535 1.31589 1.33097 -1.35051
3992 1 22.3875 9.24485 -3.45948 2.69505 3.64246 1.10618
3993 1 -6.21407 -10.1237 -6.16556 1.70005 -4.11688 -3.58751
3994 1 -15.9422 -21.3314 -21.2534 1.1833 3.10602 3.70429
3995 1 4.31568 -22.9299 1.8321 -2.97506 1.61174 -0.326767
3996 1 4.51834 -14.9255 3.58814 2.66445 -3.09841 2.63401
3997 1 20.2578 -21.408 -9.89992 0.599051 0.315281 -4.3885
3998 1 -11.9617 -4.04775 0.450795 1.93029 2.43349 -0.327507
3999 1 -6.87531 17.2043 11.9095 0.256608 -1.79646 7.10036
4000 1 -17.7148 10.5226 23.2371 2.46468 -0.580489 2.6911
4001 1 -10.1069 25.1967 -4.39903 -0.0958062 1.55 3.02845
4002 1 -9.8431 27.7575 -5.7224 4.74338 -0.44161 -0.976125
4003 1 -7.18779 28.264 -4.52445 -1.19703 0.230055 4.34037
4004 1 -5.9691 26.0278 -5.38806 2.29181 1.74624 1.86749
4005 1 -11.299 25.8132 -10.2667 -2.2545 1.9309 1.17904
4006 1 -10.5384 27.7164 -8.39979 5.25845 -3.43501 -1.19308
4007 1 -7.69999 27.8095 -9.02725 4.70452 -1.48296 -1.98307
4008 1 -6.38098 25.5695 -8.02695 1.44561 -6.36577 -2.67499
4009 1 -9.91944 25.4038 3.10447 -1.74022 -3.18704 1.05068
4010 1 -9.03638 27.7326 1.79278 7.95718 -1.3167 0.808422
4011 1 -6.43136 27.9316 2.71482 2.54521 -5.57345 2.79822
4012 1 -4.72533 25.9923 1.94133 5.29621 -4.81566 -2.21709
4013 1 -9.93775 25.1602 -1.3624 1.98627 -1.24624 2.28244
4014 1 -9.47542 27.8958 -1.041 -2.09386 4.58656 -2.71154
4015 1 -6.94712 27.989 -1.77331 -2.20611 1.18468 -2.60985
4016 1 -4.48425 26.8324 -0.754105 2.2049 -0.836877 0.985878
4017 1 -11.0774 25.6098 9.46994 -0.119206 -3.08742 -1.18675
4018 1 -9.53842 27.8769 9.33549 -2.66694 0.405064 -1.17117
4019 1 -6.81507 27.7208 9.69837 1.68873 4.21614 -0.0216439
4020 1 -4.6503 26.1009 9.29297 -0.709643 -2.33371 -2.50681
4021 1 -10.5962 25.415 5.80344 -1.00264 2.89344 -1.14016
4022 1 -9.01698 27.7989 6.41174 4.8213 2.32945 5.76047
4023 1 -6.34341 28.0865 5.59725 1.18941 -2.69837 -2.23698
4024 1 -4.66203 26.0565 6.55182 -0.559516 -0.580967 3.56798
4025 1 -10.6733 30.1715 -4.72354 -0.157601 -0.886758 4.6307
4026 1 -9.94463 32.8715 -5.59208 3.25171 -0.544263 0.440257
4027 1 -7.25079 32.5438 -4.64722 -0.0517295 -2.82224 4.8903
4028 1 -5.92241 30.3094 -5.87103 -0.150888 5.10614 -0.64548
4029 1 -11.625 30.1332 -9.05174 -1.66212 1.66282 -0.377039
4030 1 -10.5762 32.6858 -8.35242 3.3733 -8.13819 2.58482
4031 1 -7.9419 32.6842 -9.22425 0.529461 5.65966 -2.12002
4032 1 -6.49275 30.4284 -8.66751 -3.63791 -3.83094 -3.8234
4033 1 -10.1495 30.3162 2.70426 -3.63767 -0.0462319 0.28262
4034 1 -9.5553 32.8888 1.83435 -5.98485 -1.02597 1.20468
4035 1 -6.85253 32.8029 2.74954 -3.48605 -2.85174 4.41827
4036 1 -5.44537 30.414 1.83467 0.176943 -3.41873 -0.00372514
4037 1 -10.5711 30.2105 -2.16348 1.25916 -1.27938 1.46438
4038 1 -9.64422 32.4711 -1.07921 -0.12852 2.22769 -1.63795
4039 1 -7.02821 32.5761 -1.81059 2.76124 1.41198 -0.18617
4040 1 -5.64115 30.4668 -0.984563 1.04914 1.38843 3.40327
4041 1 -10.4854 30.2599 10.4706 1.37851 2.57104 -0.690326
4042 1 -8.80931 32.2322 9.68859 -0.590206 -1.78077 -2.62652
4043 1 -6.09744 32.202 10.0359 1.43731 -0.0490728 -0.973265
4044 1 -5.17662 29.9674 8.99974 -0.680069 -2.05874 3.20972
4045 1 -10.5426 30.2123 5.62192 -3.18308 0.151944 3.98298
4046 1 -9.07165 32.3524 6.78967 -4.36141 0.174628 -0.0960135
4047 1 -6.56136 32.6253 5.62082 -1.62756 4.06734 -4.32703
4048 1 -4.8975 30.5352 6.26897 -1.84063 -1.78151 4.8415
4049 1 -11.0338 34.9399 -4.35184 0.0840633 1.33865 3.20668
4050 1 -9.78053 37.1374 -5.48072 3.60099 0.323858 -3.73671
4051 1 -7.13226 37.3221 -4.60544 -1.04025 2.27694 1.83635
4052 1 -5.98025 35.0057 -5.54116 4.13888 -0.795622 4.37633
4053 1 -11.2264 35.2501 -9.04331 -5.40725 -1.11147 -5.15387
4054 1 -10.1313 37.4828 -8.25232 -0.342497 -5.9775 1.64639
4055 1 -7.5052 37.2968 -8.95974 -0.074829 -1.75836 3.03046
4056 1 -6.46293 34.8344 -8.37315 -1.1476 -0.240134 -1.01769
4057 1 -10.5929 34.9157 3.49054 1.93446 -0.799025 0.866443
4058 1 -9.73651 37.1811 2.25799 0.821159 -1.16182 1.41066
4059 1 -6.96406 37.3513 2.62672 -4.34693 -3.65482 4.58613
4060 1 -5.59817 35.1826 1.89903 3.31167 0.586028 1.87884
4061 1 -10.876 34.9805 -1.49939 -0.416833 2.0617 -1.9174
4062 1 -9.63026 37.2552 -0.614235 -2.10368 -0.421288 -1.86581
4063 1 -7.08541 37.2434 -1.73136 -2.18922 2.02713 0.166423
4064 1 -5.67847 34.8694 -0.796644 -0.581621 0.0914055 -2.6572
4065 1 -9.95347 34.4936 10.7819 2.30676 -0.914214 3.84964
4066 1 -8.68972 36.8404 9.78632 -8.47925 -2.90762 -0.840263
4067 1 -6.05249 36.9863 10.6384 -1.00919 1.9952 -4.16365
4068 1 -4.90835 34.6666 9.30343 -2.88119 2.70776 -3.72284
4069 1 -10.4641 34.7414 6.16547 1.90059 -1.52761 1.24739
4070 1 -8.73318 36.6623 7.04116 -0.519732 -0.510764 4.20796
4071 1 -6.56341 37.1907 5.44532 -1.33683 1.03837 -3.24482
4072 1 -5.20091 34.8659 6.37854 -2.68902 2.70795 -3.55507
4073 1 -10.8271 39.296 -4.09317 0.0501059 4.22358 -1.20181
4074 1 -10.2728 41.8176 -5.14588 -2.84172 0.887704 -3.69804
4075 1 -7.49886 42.0629 -4.53205 -1.41158 1.00109 0.834729
4076 1 -6.18245 39.8568 -5.77312 0.741011 -1.19772 -2.2961
4077 1 -11.6896 39.6839 -8.89426 -0.807286 4.29787 0.584129
4078 1 -10.6901 41.9248 -7.66593 -4.87488 0.0576526 -2.85152
4079 1 -7.89329 41.7871 -8.97319 3.77449 5.78119 -0.868649
4080 1 -6.28632 39.7983 -8.52106 0.348564 -2.25564 2.61152
4081 1 -10.3705 39.5628 3.58205 4.76947 -1.10621 2.96049
4082 1 -8.88378 41.7208 2.33197 1.92446 -1.02238 0.318327
4083 1 -6.21837 41.9761 3.30586 5.68528 -0.083833 -1.66917
4084 1 -5.46918 39.6507 1.83037 -2.20117 -5.23158 0.552427
4085 1 -10.8163 39.6851 -1.2929 -0.780387 1.12093 0.173146
4086 1 -9.33243 41.9028 -0.401361 2.72659 2.27255 -1.77129
4087 1 -7.17838 41.8625 -1.77491 3.33198 4.7648 3.6191
4088 1 -5.56167 39.6529 -1.07783 1.47593 3.42206 -2.52928
4089 1 -10.0281 39.0826 10.4239 4.91422 -3.44087 -0.234297
4090 1 -8.97798 41.7503 10.2742 -0.411044 5.09809 1.2899
4091 1 -6.20842 41.2974 10.109 0.762109 -1.96417 -0.374571
4092 1 -4.831 39.1645 9.19951 -0.253006 -5.05408 -0.23763
4093 1 -9.99587 39.0365 6.36042 1.76745 -1.20399 -1.73673
4094 1 -8.86082 41.28 7.47052 4.49717 2.37701 1.87286
4095 1 -6.45231 41.8586 6.193 -1.20646 -0.55198 0.188595
4096 1 -5.14733 39.3451 6.38829 3.78754 0.457925 2.83249
4097 1 -11.2849 44.0285 -3.82678 0.857274 3.56373 -4.23181
4098 1 -10.4101 46.2059 -5.02344 -2.83826 -2.58456 2.21598
4099 1 -7.77117 46.9658 -4.30608 -1.77011 2.63686 2.26392
4100 1 -6.41707 44.4513 -5.40972 1.29679 1.27956 -0.245172
4101 1 -12.134 44.4289 -7.93995 -1.29326 -5.04864 3.22129
4102 1 -9.598 45.7668 -7.53997 -1.51605 3.60813 0.433779
4103 1 -7.73023 47.4574 -8.80719 0.250073 -3.32618 1.97547
4104 1 -7.01215 44.24 -8.11084 0.263265 -0.766353 4.90145
4105 1 -9.84964 43.8686 3.83837 -2.74155 -0.183383 -2.9478
4106 1 -9.41488 46.5242 2.82822 3.23158 2.02556 2.56983
4107 1 -6.71091 46.5245 3.32681 -1.5139 -1.77335 3.91376
4108 1 -5.39724 44.5642 1.72878 0.789265 -1.26254 2.19143
4109 1 -10.6625 44.1078 -1.0992 -1.19795 -0.696191 -1.33277
4110 1 -9.45986 46.4821 0.198403 -4.63234 -1.7024 2.96773
4111 1 -7.34795 46.3536 -1.72277 0.415252 0.0529888 0.370893
4112 1 -5.69333 44.3543 -0.899046 2.79209 3.13224 2.3937
4113 1 -9.91822 44.0172 11.271 -5.06396 -1.96689 -2.22562
4114 1 -9.08081 46.5223 10.1186 -3.44494 1.03701 1.43239
4115 1 -4.9597 46.6172 10.7945 -4.09988 -2.78327 -2.8993
4116 1 -5.03818 43.7219 9.91468 -2.85962 -0.875442 1.19457
4117 1 -9.90768 43.6747 6.54939 -3.67886 1.21177 3.90557
4118 1 -8.56815 45.9735 7.46284 5.1634 2.03125 1.77894
4119 1 -6.30358 46.3053 6.19144 1.20515 -1.19126 2.94253
4120 1 -4.77792 44.1825 6.98294 -1.14086 1.37519 0.309502
4121 1 -3.22535 25.3685 -4.73637 3.49886 -1.08084 -0.324405
4122 1 -2.19373 27.7449 -5.65617 2.84511 0.4055 2.72429
4123 1 0.556414 27.8617 -5.03869 -1.73317 -4.16108 -1.57155
4124 1 1.60705 25.5587 -5.90273 -0.36755 2.28893 5.37618
4125 1 -4.1131 25.6171 -9.44381 0.150799 0.0869213 0.150625
4126 1 -2.39956 27.7629 -8.70403 3.71683 5.19309 -3.21193
4127 1 0.30998 27.4044 -9.17642 1.10114 -2.79127 -0.873097
4128 1 1.63472 24.9758 -8.6556 -0.0744954 -0.509841 -2.40617
4129 1 -1.93444 25.9516 3.12261 -1.861 -1.75374 2.14481
4130 1 -1.34761 28.2983 1.72816 0.448491 4.30132 4.41043
4131 1 1.43173 28.0757 2.10895 0.416208 0.630124 3.84294
4132 1 2.1397 25.8866 0.700527 0.0590182 3.59515 -2.90483
4133 1 -2.64066 24.8938 -1.85814 7.17979 3.60889 3.813
4134 1 -1.68139 27.8251 -0.99973 -0.149566 2.89637 -4.59581
4135 1 0.746044 28.0285 -2.33606 3.68986 -1.36619 -0.733272
4136 1 2.28898 25.7317 -2.24446 0.672485 -1.85549 0.614371
4137 1 -1.75305 25.1424 8.62618 -1.49151 3.3141 -3.98459
4138 1 -0.696136 27.7134 9.03376 -0.683373 1.62231 -0.236172
4139 1 1.9874 27.958 9.8541 1.81487 -2.32129 0.22688
4140 1 3.35309 25.8103 8.69957 -1.0185 -5.42759 0.828276
4141 1 -2.00215 25.9786 5.93777 3.62632 -1.04456 -2.43184
4142 1 -0.752375 28.3168 6.33484 4.169 0.0292522 0.918176
4143 1 1.71137 28.2759 5.09657 -0.435751 -3.69358 1.56593
4144 1 3.3415 26.1828 5.87311 -2.96584 -3.76894 -5.33316
4145 1 -3.25397 30.3337 -4.83681 -5.34412 3.57972 3.28141
4146 1 -2.16233 32.6966 -5.6299 3.44388 4.08519 1.04272
4147 1 0.561381 32.665 -4.92153 0.362443 0.700626 -2.41638
4148 1 1.53685 30.2155 -6.31916 -1.47342 -1.31983 0.0854901
4149 1 -3.8491 30.3311 -9.30483 1.79177 4.80435 2.6146
4150 1 -2.28132 32.428 -8.31877 -0.24488 0.611609 4.03478
4151 1 0.114791 32.4761 -9.67981 -1.6927 2.43504 3.20786
4152 1 1.36028 30.0281 -9.07377 1.91135 5.09968 5.36864
4153 1 -2.85617 30.6582 2.50902 0.0669983 -2.1322 -2.35327
4154 1 -1.46836 32.815 1.52293 1.58683 0.0471668 -1.34291
4155 1 1.1358 32.9172 2.27391 5.17993 -1.46891 -6.93713
4156 1 2.51696 30.4162 1.36364 2.90297 -3.27788 0.431789
4157 1 -3.10116 30.1001 -2.15407 -2.57167 4.4612 4.47193
4158 1 -1.51843 32.5164 -1.26479 -0.860506 -1.38279 -4.43589
4159 1 1.11621 32.5173 -2.05899 -0.194421 5.07758 5.61717
4160 1 2.62121 30.1022 -1.53021 0.56261 -2.06773 3.2926
4161 1 -2.39203 29.8701 9.89616 0.250413 1.68156 0.339257
4162 1 -1.29555 32.285 8.9974 -2.26022 4.1498 7.19656
4163 1 1.35661 32.2176 9.45393 1.34349 3.56016 -1.4741
4164 1 3.11133 30.2894 8.66916 0.437013 -2.13152 -1.92969
4165 1 -2.34379 30.2067 5.1661 3.14161 -2.27024 -1.5529
4166 1 -0.953814 32.6104 6.30176 5.06077 0.825517 7.46796
4167 1 1.65972 32.592 5.02084 1.61351 -2.16675 0.307995
4168 1 3.15792 30.5489 5.91449 -8.13671 0.439027 -3.17555
4169 1 -3.25792 34.9862 -4.8561 -1.7578 0.800452 -0.146533
4170 1 -2.2932 37.5032 -5.78467 -0.74104 -1.97411 -3.13218
4171 1 0.485942 37.3065 -4.97544 1.14279 1.6625 -1.9549
4172 1 1.63271 35.1003 -6.17725 -0.207618 -0.794742 1.48674
4173 1 -3.80663 34.8436 -8.5981 2.17739 -0.098285 -1.97382
4174 1 -2.50312 37.5334 -8.81025 3.997 -3.66279 -0.71949
4175 1 0.00985122 37.2243 -9.74945 0.360146 -3.84907 -1.54902
4176 1 1.51653 34.9453 -8.96149 1.82119 -1.97892 1.6189
4177 1 -2.7601 35.042 2.60234 -3.05559 -2.3684 -0.649807
4178 1 -1.50741 37.2598 1.41796 -0.581769 -3.22307 -0.112113
4179 1 1.09219 37.2154 2.26608 1.06926 -1.23019 -2.21349
4180 1 2.29619 35.0595 1.13755 -2.18239 -1.17145 2.3436
4181 1 -3.25579 34.6641 -2.07656 -2.06707 -2.10331 3.36234
4182 1 -1.66964 37.159 -1.33222 -3.08618 2.54159 4.30189
4183 1 0.954936 37.2162 -2.3129 -2.39032 -3.54848 0.780614
4184 1 2.39002 34.8928 -1.60032 3.68826 4.82229 0.0960637
4185 1 -2.19837 34.6605 9.92473 -0.635955 0.233313 0.367394
4186 1 -0.931071 36.9192 8.92998 4.12163 -3.6572 2.21086
4187 1 1.74847 36.7842 9.32621 4.39548 2.40111 4.7905
4188 1 2.93275 34.3329 8.86064 -1.7495 -3.27883 -3.48192
4189 1 -2.46753 34.942 5.58689 -1.18628 -5.77556 -3.18015
4190 1 -0.936696 37.1343 6.24471 -1.96358 0.859973 4.29819
4191 1 1.69339 37.0057 5.18728 -1.01675 -0.582494 0.170076
4192 1 3.10587 34.6451 6.0031 8.00292 1.26367 0.802226
4193 1 -3.54597 39.7802 -4.78953 3.98604 3.13779 -3.62198
4194 1 -2.52857 42.1654 -5.66956 4.41374 2.00955 -1.31277
4195 1 0.376521 42.1014 -5.28965 6.78073 -0.178298 3.9627
4196 1 1.6376 39.7021 -6.08345 2.42816 1.64877 -1.23719
4197 1 -3.86194 39.8684 -9.53811 5.14657 -3.9929 -1.78696
4198 1 -2.91829 42.2105 -8.52761 0.859988 -3.5234 -0.26348
4199 1 -0.0832004 41.976 -8.92879 0.723214 3.91161 -0.0823907
4200 1 1.2914 39.5427 -8.98171 -2.75792 -0.333088 -2.04263
4201 1 -2.86319 39.2917 2.57313 -2.08957 -4.06823 0.089486
4202 1 -1.50484 41.7394 1.84957 2.30611 -6.65537 -0.680796
4203 1 1.22189 41.6676 2.5314 3.472 -3.61865 -2.02393
4204 1 2.50417 39.4318 1.17857 2.50289 -3.62481 -2.13754
4205 1 -2.97433 39.5348 -2.0997 -0.363611 3.66342 -0.69167
4206 1 -1.52607 41.7653 -1.20242 -0.737839 1.27448 2.06105
4207 1 0.897891 42.1693 -2.56607 1.78044 -1.837 -4.49017
4208 1 2.32849 39.6444 -1.56738 0.117073 1.93232 0.0701946
4209 1 -2.20704 39.3507 9.89392 1.60877 -1.53527 4.20806
4210 1 -0.882119 41.6953 9.08745 0.133139 1.91033 -0.0285185
4211 1 1.72918 40.7 9.51207 0.192633 1.35586 0.758061
4212 1 3.42999 38.7543 8.48308 -0.446716 2.06984 -2.65977
4213 1 -2.5954 39.5304 5.56616 3.45752 2.76517 -3.80157
4214 1 -1.18732 41.8848 6.24581 -0.234316 1.22149 0.118574
4215 1 1.41027 41.8863 5.32549 2.61226 3.61868 0.280753
4216 1 2.93054 39.4929 5.96639 -2.67072 -2.02488 -0.17061
4217 1 -3.76963 44.5199 -4.84148 0.424783 -0.400863 -1.0192
4218 1 -2.129 46.791 -5.32327 0.718202 -0.825984 3.62008
4219 1 0.599377 46.7101 -4.79079 -1.07323 -3.3787 -0.0769778
4220 1 1.64364 44.5112 -6.2389 -1.99633 -4.52624 0.489814
4221 1 -4.39451 44.4123 -8.82964 0.148027 0.60715 -1.6387
4222 1 -2.97869 46.7504 -7.91134 -6.73716 -2.98125 6.92516
4223 1 -0.537143 46.7479 -9.1167 4.62037 -3.28964 -5.68393
4224 1 1.12267 44.4462 -8.89742 0.162613 0.355366 -0.842555
4225 1 -2.63939 44.308 2.79343 -2.39798 0.883788 -0.201918
4226 1 -1.08662 46.1735 1.70006 -2.3452 5.35766 1.96813
4227 1 1.35653 45.9569 3.03788 -1.11283 -0.0414309 -1.84916
4228 1 2.71383 44.2548 1.25281 5.62345 0.580421 -1.07382
4229 1 -3.20995 44.0976 -2.08568 -1.23414 -0.534222 7.31414
4230 1 -1.29553 45.8767 -0.962145 -3.03764 0.462457 1.09897
4231 1 1.17403 46.7324 -2.18692 -2.84869 -4.21666 -3.72541
4232 1 2.2973 44.1981 -1.39521 -2.17795 -2.54172 3.73469
4233 1 -2.22941 43.8281 10.0897 -2.43497 -3.72411 0.217834
4234 1 -1.04592 46.2469 9.7471 -4.30198 0.526933 6.92238
4235 1 1.82293 45.7953 10.2434 0.464665 0.172949 3.79125
4236 1 2.82516 43.4966 9.119 1.98226 -1.74409 2.97528
4237 1 -2.2434 44.2693 5.54449 1.82358 -3.40806 -2.00865
4238 1 -1.03071 46.6017 6.79975 -0.87695 0.285634 -2.02298
4239 1 1.57696 46.3752 5.76395 2.41536 2.02782 2.88527
4240 1 2.92797 44.0653 6.32578 2.9495 -1.16888 0.235143
4241 1 4.4858 25.5787 -5.89272 -0.739932 -6.13792 -2.56844
4242 1 5.58986 27.9018 -6.66636 1.25794 1.40725 2.12097
4243 1 8.32305 27.7831 -6.3257 -5.34217 -1.57839 3.65557
4244 1 9.41298 25.5285 -7.37855 -0.674164 -1.98835 -0.507391
4245 1 4.29331 25.1409 -9.74316 5.24793 -2.79111 2.66471
4246 1 5.52876 27.6617 -9.47411 0.480446 -2.52286 -5.16736
4247 1 7.86421 27.6621 -10.8979 2.1069 -0.00216987 -0.12885
4248 1 9.87483 25.7995 -10.1328 -3.81151 0.715162 -2.97236
4249 1 4.94418 25.9496 1.68095 -0.940524 -2.15241 -1.95827
4250 1 6.20966 27.9213 0.474491 0.513891 2.38766 2.45999
4251 1 8.89997 27.6684 1.30097 1.15998 -6.0175 0.753118
4252 1 10.5556 25.6754 0.371167 1.02241 0.45811 4.21089
4253 1 4.92514 25.2886 -3.28834 -0.357794 -4.45967 2.99081
4254 1 6.17195 27.5914 -2.41658 -1.58175 -0.836648 -0.0297527
4255 1 8.76319 27.8036 -3.47487 2.90326 1.90795 4.19924
4256 1 10.5533 26.0448 -2.38513 2.77073 3.15564 -1.06219
4257 1 6.04768 25.8638 9.46821 -1.60124 1.6562 4.43869
4258 1 7.45525 27.7276 8.17316 1.53064 -1.78491 1.02836
4259 1 10.1307 27.5322 8.88909 0.200428 1.30692 2.9773
4260 1 11.7709 25.6979 8.15247 -1.2609 0.860141 2.84473
4261 1 5.59609 25.8887 4.2536 -4.07268 -4.62364 -4.01044
4262 1 7.27324 27.9223 5.3356 0.76158 -2.47475 -2.79653
4263 1 9.8007 27.4834 4.03429 -2.92096 -0.411508 0.814556
4264 1 11.7037 25.57 5.24086 -2.85364 6.125 0.788743
4265 1 4.20509 30.2287 -5.86468 3.11696 -1.52572 4.33179
4266 1 5.40798 32.3885 -6.65536 3.85314 1.36704 0.37511
4267 1 8.25609 32.2532 -6.1417 -0.0640647 0.218894 4.09264
4268 1 9.01216 30.1777 -7.62227 4.01199 0.00767364 -6.22772
4269 1 3.94068 30.1422 -9.98215 6.50181 -4.68343 0.206039
4270 1 5.19756 32.5735 -9.37917 1.56059 -1.06155 -0.104897
4271 1 7.79526 32.6096 -10.4619 4.32011 -1.39003 -3.17573
4272 1 9.02496 30.0969 -10.5739 0.0464852 3.15914 -0.942603
4273 1 5.36765 30.3156 1.74265 -5.69092 2.49879 -2.39528
4274 1 6.35119 32.6496 0.999044 1.93595 0.684709 1.36536
4275 1 9.02689 32.3832 1.26994 -0.523475 -1.86953 -4.40349
4276 1 10.0669 29.9189 0.363753 -1.82258 1.99894 0.220354
4277 1 5.16019 30.1169 -3.15087 -2.14203 -2.8064 1.09568
4278 1 6.28482 32.4945 -1.92896 -3.18779 -4.09344 -6.25691
4279 1 8.78316 32.3975 -3.32844 1.90908 -3.1315 0.227867
4280 1 9.88606 30.0126 -2.36878 -1.09497 0.842205 1.85957
4281 1 5.93481 30.1055 8.51581 1.09827 0.0296847 -3.26947
4282 1 7.4785 32.2579 8.28309 -2.0055 3.56198 1.95987
4283 1 9.96972 32.1032 8.95895 -1.3108 2.75024 1.69536
4284 1 10.7876 29.7763 7.57588 -0.575566 -2.11416 3.1277
4285 1 5.50405 30.2233 4.5957 1.99351 -2.98116 -1.58146
4286 1 7.08809 32.4284 5.52256 -2.84185 2.46697 -3.32616
4287 1 9.39822 32.3661 3.96002 -1.83425 -2.53393 -1.92169
4288 1 10.7192 29.9097 4.62797 5.38591 -0.694975 0.166422
4289 1 4.3872 34.7984 -5.65184 -1.81136 -0.542744 -0.0572797
4290 1 5.19469 37.3482 -6.39633 -2.40396 -1.7125 -3.24325
4291 1 7.98776 37.1672 -5.90102 2.7654 1.51875 2.20231
4292 1 8.50352 34.747 -7.01222 1.43079 1.79116 1.2144
4293 1 3.88516 34.8863 -10.0271 0.157555 -2.78084 2.42676
4294 1 5.08543 37.1578 -9.23249 -3.3398 2.15311 0.687737
4295 1 7.60669 37.0684 -10.235 2.00576 0.628818 2.46952
4296 1 9.18418 34.8942 -9.57746 -2.23916 -5.78077 2.25005
4297 1 4.94921 34.8797 1.85038 -1.96906 -2.85405 -2.56719
4298 1 6.29569 37.2184 0.814159 2.24892 0.302197 0.917122
4299 1 8.9108 37.2781 1.39075 -0.063969 2.7888 2.54824
4300 1 9.61349 34.8674 0.172393 -0.65409 -1.38347 3.08686
4301 1 4.97444 34.7727 -2.75807 -3.62735 2.23195 0.317549
4302 1 5.80451 37.324 -1.84331 -2.01809 0.53869 -1.76196
4303 1 8.41229 37.1319 -3.06408 2.92464 1.64685 4.97596
4304 1 9.73403 34.8054 -2.62048 1.54513 -0.14989 -2.63103
4305 1 5.57341 34.035 9.11897 -4.57091 9.41789 4.04285
4306 1 7.27412 36.4274 8.20678 1.83296 -0.0509533 -1.79611
4307 1 10.1411 36.5513 8.40691 0.289747 -2.62557 -5.3434
4308 1 11.1328 34.1858 7.65168 -1.68267 0.59644 1.68369
4309 1 5.7569 34.6729 4.73147 2.38795 -2.2185 6.94567
4310 1 7.03154 36.8592 5.47551 2.28653 4.25218 2.29144
4311 1 9.58158 37.0573 4.14434 -3.11252 4.23664 4.42556
4312 1 10.6573 34.6052 4.8735 0.0418034 3.62069 8.11095
4313 1 4.26338 39.847 -5.4911 0.0133326 -1.62444 1.56897
4314 1 5.48877 42.1293 -6.67404 1.89763 -0.387939 -4.39713
4315 1 8.40782 42.0907 -5.87729 3.06374 -6.21782 1.26536
4316 1 9.15486 39.6455 -6.70353 -0.68933 4.41505 -0.852704
4317 1 3.84277 39.5684 -10.2458 2.1151 -7.74847 1.4508
4318 1 5.20502 41.9567 -9.37447 -0.0242371 0.529441 3.52746
4319 1 7.62431 41.5018 -10.5647 2.94213 2.72666 -2.33592
4320 1 8.726 39.4313 -9.35984 0.620802 -0.524715 -2.35233
4321 1 5.11199 39.5134 2.07433 2.7863 -2.19321 0.4081
4322 1 6.26079 41.7393 1.19668 -1.46234 -2.37601 1.35276
4323 1 9.02327 41.6954 1.65643 1.04692 1.32922 1.38327
4324 1 10.3193 39.4818 0.336853 4.81136 0.156046 -3.70055
4325 1 4.72071 39.7548 -2.71922 2.49607 -1.79571 1.54033
4326 1 5.90252 42.1732 -1.79849 1.55081 -5.53578 0.0988135
4327 1 8.24034 41.9884 -3.09543 1.50117 0.865664 5.90777
4328 1 9.5728 39.5791 -2.26794 0.775303 -2.48707 -0.83918
4329 1 5.96464 38.4046 9.33222 -1.43935 -3.39157 1.91789
4330 1 7.20571 40.8132 8.78681 1.1329 3.02022 -3.86872
4331 1 9.99911 41.0507 9.32497 1.53114 1.55282 -1.14611
4332 1 11.2368 38.9688 7.79967 1.46927 -6.40178 0.929024
4333 1 5.59414 39.2741 4.78189 3.90782 0.41574 1.37349
4334 1 7.1229 41.3668 6.01104 0.102946 0.626636 0.367197
4335 1 9.33553 41.7083 4.38778 -3.93697 1.12859 0.501418
4336 1 10.7374 39.52 5.16084 2.2697 2.20509 0.461911
4337 1 4.41262 44.4226 -5.81941 -1.69661 -2.43538 3.38842
4338 1 6.37722 46.0107 -7.36084 -4.35019 0.694434 -2.09136
4339 1 9.09774 46.9699 -6.17905 -2.71155 0.963257 -1.04225
4340 1 8.80664 44.4177 -7.46815 -7.14617 1.29104 -1.447
4341 1 3.60197 44.0164 -10.1706 -3.80834 1.32672 -2.69385
4342 1 5.31779 46.1442 -10.0245 -0.623487 -6.12067 -0.0637042
4343 1 7.66702 45.7147 -11.3196 1.21234 0.18233 3.66824
4344 1 9.32805 43.7145 -10.2499 8.99247 -0.975542 -4.53385
4345 1 5.19013 43.9402 2.44618 -3.67704 0.957591 0.313352
4346 1 6.37783 46.4541 1.85264 -3.98941 2.96456 -0.0671696
4347 1 9.05342 46.1238 1.82812 -6.91308 -3.26075 -3.3717
4348 1 10.208 43.983 0.546163 -1.74574 -0.335709 -4.00332
4349 1 4.49396 44.3963 -3.04573 1.1737 3.34718 -1.38651
4350 1 6.25873 46.5225 -2.43296 -9.28567 1.7833 -1.18614
4351 1 8.84741 46.7429 -3.31849 -2.98663 -3.69555 0.894999
4352 1 9.4193 44.2606 -2.10371 0.443523 3.22747 -4.84603
4353 1 5.49205 42.8624 9.03215 0.968849 0.927017 5.83104
4354 1 7.10058 45.014 8.48177 2.13864 1.05471 -2.09725
4355 1 9.66907 45.3269 9.07361 2.06985 1.6887 -0.254577
4356 1 11.4398 43.3246 8.24038 -0.624209 0.870579 0.0188874
4357 1 5.71184 43.8427 5.23986 0.0599702 1.44505 -6.09243
4358 1 6.90643 46.3181 5.87219 -1.41507 -2.84188 -2.32377
4359 1 9.45609 46.7865 4.57023 2.77178 -3.03608 3.72656
4360 1 10.2274 44.2682 5.58855 -0.669207 -5.8916 2.34408
