ITEM: TIMESTEP
3000
ITEM: NUMBER OF ATOMS
4360
ITEM: BOX BOUNDS pp pp pp
-2.4596341037555714e+01 2.3787176937555714e+01
-2.4782565854843803e+01 4.7299001454854483e+01
-2.4195858843726398e+01 2.4187657243726395e+01
ITEM: ATOMS id type x y z vx vy vz
1 1 -23.8259 -19.8747 12.3358 0.489375 -2.44443 2.93776
2 1 -7.28717 16.1842 0.702739 -1.46156 -0.713226 2.32917
3 1 7.83039 -7.82407 -21.8394 -0.013822 0.824082 3.3627
4 1 1.97826 -2.73775 -6.96392 -1.04378 0.520233 -0.693589
5 1 -20.1578 -21.0665 22.3582 4.77235 -2.55741 1.62506
6 1 0.37149 16.2094 18.2893 0.0876052 -4.65656 -0.629278
7 1 8.31827 21.4933 7.71408 4.16975 3.83694 2.16491
8 1 -21.6392 -10.9269 -16.5341 2.16549 4.84616 5.09095
9 1 -14.536 4.69071 4.51056 1.12394 -2.06001 0.890876
10 1 -1.38688 -5.84814 13.9272 0.594148 -1.91673 -0.00706673
11 1 3.58813 -11.279 15.6152 -0.138888 0.200637 -2.04813
12 1 21.0962 -6.39962 -20.5772 2.57871 -1.90659 -2.72457
13 1 -21.0082 -13.5868 15.6831 -0.825092 5.72945 -0.28264
14 1 9.02313 2.04464 -7.95131 -3.19311 5.34085 0.454269
15 1 -2.9429 -1.17653 -13.8927 -1.47481 4.10568 -6.46979
16 1 -20.4435 -0.730157 6.82109 5.42081 2.84733 -2.5535
17 1 17.6615 -9.96934 14.9755 8.4487 -2.98725 -5.22436
18 1 22.4741 24.3295 4.03206 3.12134 1.42447 -5.75945
19 1 -15.1089 23.0807 20.5415 -2.73865 0.324542 -0.922872
20 1 19.0274 4.50357 18.2934 -1.82231 2.754 -1.61984
21 1 -23.8168 0.254484 11.3911 -7.72706 -1.51506 -3.13993
22 1 -10.5651 -0.333826 -14.8522 4.24879 2.70955 1.39702
23 1 -11.4244 -22.1087 20.0128 -3.94497 5.80354 2.94158
24 1 9.61239 20.5602 -4.24046 1.31562 2.30857 -2.78472
25 1 7.61942 23.291 17.2221 2.3404 2.06721 -3.90903
26 1 -0.50655 15.2392 10.0885 -3.48414 3.65275 1.62668
27 1 -18.0451 6.98244 -0.885925 -1.82707 -1.19483 -0.332449
28 1 -20.4689 3.62984 4.72204 0.00341605 -4.86445 -3.04784
29 1 -6.7214 -13.0982 -10.3422 2.63167 1.89781 0.407983
30 1 21.7281 -0.827865 -23.4235 -0.297299 -1.97721 -1.55917
31 1 3.90686 -14.9206 -19.5094 1.382 -3.50277 0.881199
32 1 -9.18873 12.08 -20.6413 2.78206 -5.33054 -5.88348
33 1 2.14605 -0.482025 -12.4495 1.6635 3.49393 -0.294626
34 1 -20.9901 -22.9049 14.1385 1.31024 -4.04652 0.572225
35 1 19.5598 6.74798 12.6395 5.7906 -1.18827 1.38407
36 1 -13.3031 20.4507 -17.1585 2.16977 4.18524 -3.2531
37 1 -10.737 -7.04402 -2.54662 2.3455 -0.216526 -0.500845
38 1 19.6284 11.7064 9.07798 -0.56298 -1.3274 -6.39908
39 1 -1.26793 9.20837 -22.7141 -0.823707 1.50069 1.29497
40 1 1.75109 1.04136 -18.3759 -2.17067 3.43074 -5.11348
41 1 7.40471 -5.09658 -10.8379 0.82958 2.62982 -1.60207
42 1 -19.5155 -14.6318 0.554981 3.79577 -4.73879 5.08089
43 1 -12.7242 -4.36867 2.54916 -1.55548 -2.54173 -1.83837
44 1 -2.02792 -18.3875 -9.37494 -1.7942 -1.75733 2.66703
45 1 -11.2245 12.662 -3.4724 4.62325 -0.842617 0.933148
46 1 -22.5135 -21.7135 17.4335 -3.18638 -3.61416 -1.35317
47 1 -6.61193 4.28311 19.9829 1.16007 -0.52339 2.44569
48 1 7.7643 4.85852 -5.86405 -0.230769 -1.03893 -3.15401
49 1 22.6856 10.4019 4.2786 -2.30417 -6.30601 -2.40859
50 1 14.0296 -19.5897 12.6887 1.2435 0.176266 -0.783845
51 1 -8.87171 -5.07554 18.8604 -0.0439608 1.57491 2.60865
52 1 15.1701 3.78301 -13.94 -4.52263 -5.54118 -0.575568
53 1 -1.88332 20.2368 7.671 0.175382 0.508193 -0.26509
54 1 -16.3727 -12.0977 -11.7394 1.04198 3.07384 -0.395502
55 1 -4.83266 -1.48661 -17.3276 -1.31869 -6.43437 -3.32214
56 1 -16.5345 6.66684 3.49195 -1.12958 3.737 -1.26814
57 1 -14.7937 -8.95998 -4.72255 -2.95038 0.0463425 -3.94149
58 1 3.71774 -20.9424 -4.26259 -2.25335 1.91975 5.28723
59 1 -20.4476 10.8631 21.3836 -2.26597 -2.31925 -1.95
60 1 0.859577 16.1562 -24.0863 -2.2261 0.990988 -2.53749
61 1 -13.2804 -0.523072 1.21936 -0.109143 -0.902277 -2.31906
62 1 -1.43921 -10.6059 16.7843 -2.95714 0.395089 -1.07833
63 1 -1.69206 10.5195 -16.5574 -2.17352 2.05524 4.54306
64 1 -7.72731 -2.97395 0.231889 3.13711 -2.70309 -1.45763
65 1 18.2214 -2.5155 8.61507 3.53015 -1.83996 -2.87643
66 1 -10.4001 -18.5723 -12.3145 -9.52343 1.81693 2.95371
67 1 -15.0673 24.3791 -11.7787 -4.06401 -2.76124 1.30197
68 1 -2.74619 14.2382 -20.5629 1.40365 -0.467175 -1.1503
69 1 -8.44189 13.3551 8.82234 1.61399 3.74825 2.36924
70 1 -16.945 15.5931 -18.1941 -0.0698963 3.13556 -0.523215
71 1 -11.5434 4.39847 1.32076 -0.586594 -0.417734 1.92769
72 1 22.8127 14.4674 20.2077 2.18947 0.306555 -1.60151
73 1 -13.3538 -17.0626 13.6075 -1.69058 -3.27097 -2.24971
74 1 0.448299 10.727 -14.8788 -2.29016 -3.71663 -5.31062
75 1 -19.6913 0.911723 -12.8565 3.83909 -2.93258 2.7547
76 1 -22.1174 -5.30419 0.822781 -1.90647 -0.0339146 -3.01794
77 1 12.8453 -22.5537 -0.0762734 0.502353 -2.58424 0.194374
78 1 -18.4295 12.7155 -9.55989 2.51922 -1.08553 -4.71723
79 1 -22.5397 -0.517384 -16.8773 5.63254 -2.80927 5.98788
80 1 -12.8611 14.8692 -13.8985 3.46919 0.870378 3.27686
81 1 0.930026 -10.4419 -13.8964 -4.28955 -3.35152 -1.83297
82 1 6.23019 -23.644 4.71913 1.22319 1.09064 -4.19507
83 1 -21.9679 12.4976 -0.684819 -1.15228 -1.09125 1.74407
84 1 21.8038 22.5939 21.9949 -1.94823 0.446358 -2.97404
85 1 6.4696 13.9782 -3.64148 -0.260551 -1.11664 -1.53456
86 1 12.0188 7.61937 15.6498 -2.11898 0.945999 -0.452886
87 1 1.01963 17.9442 -6.99796 -0.773947 4.37004 2.76097
88 1 -10.333 21.8492 -20.1049 3.35793 0.581933 -1.62594
89 1 -12.1921 -4.07841 21.3804 -0.383032 -0.491676 3.68731
90 1 9.32525 -2.84069 6.44687 2.89226 -3.56951 0.659826
91 1 18.5924 19.4989 -19.2772 0.20992 -4.34042 -5.08518
92 1 15.2218 -23.3933 1.19274 3.41969 -2.73039 -0.692473
93 1 -20.7482 -23.8822 16.9253 4.35726 -1.54995 -3.72686
94 1 22.4174 0.772666 -10.8812 -3.85161 -3.43275 -0.169532
95 1 1.88667 -5.3267 -11.335 2.94832 0.427548 -0.360863
96 1 22.5119 -16.3215 22.2109 -3.02008 -3.93269 4.91143
97 1 -7.66766 -14.2887 -20.59 -2.11607 -2.25233 -1.67777
98 1 -2.83075 14.2186 11.663 3.15265 -2.2272 -0.98973
99 1 15.7348 -23.7053 -4.71871 -1.50117 -0.773707 -3.25554
100 1 -23.3357 -14.6549 23.3167 0.738858 0.123803 -1.50964
101 1 1.8579 -21.0861 -9.96254 -5.09031 -2.19251 0.756909
102 1 3.76378 2.95363 4.75096 -4.22044 0.637623 -3.71067
103 1 19.8329 24.5344 21.3191 0.682389 2.76568 3.64659
104 1 -13.124 -22.4922 -11.0754 4.54051 -1.44995 -6.19773
105 1 4.67623 20.6759 -18.1263 -0.540707 1.29893 1.1535
106 1 16.4601 2.76533 8.42732 -3.26568 -0.953216 -0.222371
107 1 19.2948 -1.88164 17.7307 -5.3489 -2.38157 7.31986
108 1 -10.5332 3.46378 -23.3282 3.05934 -1.26244 -2.80847
109 1 -12.5339 16.5353 -16.0906 -1.76767 2.09424 -1.71003
110 1 10.5586 -13.3979 -7.26213 -6.80432 4.74249 2.14782
111 1 21.675 -6.10326 -10.9668 -4.7496 -2.63676 1.61638
112 1 -16.5233 -0.587322 -23.0485 3.1001 -3.51009 -0.356364
113 1 -3.26728 -8.07966 19.8753 -5.55599 0.870356 0.48839
114 1 -21.708 -19.3694 19.1949 1.38573 2.07508 0.481527
115 1 7.78044 10.7798 5.90061 -4.71976 -0.494129 -4.9816
116 1 2.75187 -16.0359 -16.8367 2.43808 -3.08259 -2.56017
117 1 20.1614 17.2789 -19.8125 -1.62374 4.21447 -2.20139
118 1 6.48587 -17.6974 -10.5542 -0.895774 -1.47849 1.53701
119 1 14.9101 12.189 -8.18617 -1.21241 -4.17549 -3.41669
120 1 4.10477 -1.31169 17.5096 -1.22867 -0.565734 1.30138
121 1 -6.67982 -18.6248 22.0253 4.32279 1.04868 -0.724703
122 1 -8.8572 5.98334 21.0673 -0.20221 0.94745 0.5673
123 1 11.5044 13.6319 8.52519 3.07213 -2.14073 -0.504472
124 1 21.1931 -20.2797 -13.6613 1.81588 -3.41214 -0.0720312
125 1 17.9015 9.12957 0.67858 -2.06359 0.996347 -6.78625
126 1 -10.7247 -1.71065 -6.12985 -1.59767 -3.85717 1.64704
127 1 9.58368 0.164055 14.2509 1.55908 -1.19212 -1.06436
128 1 -18.2444 -2.05683 -7.35749 1.17465 -0.0538495 1.34208
129 1 16.3224 -9.95783 2.84415 0.935118 -3.82887 -0.678702
130 1 -10.3807 16.5693 -19.8196 3.58363 0.552953 -0.421639
131 1 2.36431 -7.64534 -18.9067 -5.19405 -3.4207 -1.41897
132 1 -5.18852 -5.49909 -22.2013 -5.70939 -0.29861 4.19606
133 1 -18.1081 4.04912 18.8155 0.419133 2.37794 1.14856
134 1 20.0393 -7.98143 -22.915 1.73783 -1.48861 1.60801
135 1 -12.7377 -4.75246 -22.0678 -5.38098 -0.731323 -0.460319
136 1 -1.17484 5.53679 -5.65416 -0.904208 -2.72436 5.94764
137 1 -14.3021 7.08717 -13.6162 2.45267 3.04782 5.07049
138 1 12.7164 16.8153 6.10984 -4.23896 -3.04821 -6.80257
139 1 -19.0854 -20.3503 -17.0406 2.36394 2.02475 1.06626
140 1 3.78355 -6.93781 20.5352 3.25008 0.331043 -0.819091
141 1 11.0069 -15.9913 3.01298 -4.40029 -2.78927 -2.1937
142 1 10.5417 3.50225 22.8654 -0.913875 0.528177 -9.42712
143 1 -3.78312 -1.38285 -4.26955 -0.162257 -1.13097 -1.76699
144 1 -20.4125 -8.47815 -14.8363 1.70031 0.131109 1.89639
145 1 14.8859 6.65443 22.9722 -2.21102 2.14129 1.05517
146 1 -11.3073 -9.59822 13.5462 5.45996 3.31678 -3.81685
147 1 10.8857 19.935 3.75301 -1.46718 -1.81584 -0.547262
148 1 -18.2366 13.6997 11.7868 -1.16451 -0.084251 2.68143
149 1 -19.3454 -24.1999 -20.2374 -4.21743 -4.81395 -3.07402
150 1 20.5352 10.1902 20.0084 4.40291 -0.669782 -1.69482
151 1 18.8591 1.58887 22.5511 0.50682 0.97722 -4.34844
152 1 -5.21691 -4.61277 17.6699 1.46199 4.44204 5.14472
153 1 10.6082 -14.3886 -2.95414 3.204 -0.54438 2.11041
154 1 -7.98903 20.0322 -5.68402 2.95843 2.863 0.601298
155 1 23.2772 -21.1553 -19.1349 4.69226 -0.0203384 -0.535501
156 1 15.5251 10.0851 19.179 -8.69938 -1.08075 0.298277
157 1 12.7937 -14.147 -13.9072 2.72996 5.79909 2.40044
158 1 10.739 7.70598 3.10961 -0.757861 -1.94744 0.1869
159 1 -21.0316 -12.497 11.294 -0.87419 -1.1361 0.832671
160 1 -3.87419 -17.1283 -4.89263 0.642293 -1.5136 2.37269
161 1 17.9608 0.54209 -14.9665 -2.48078 -1.87777 -1.9182
162 1 -15.7397 -9.39542 19.3987 -0.602403 1.63767 0.903626
163 1 2.7412 1.20047 17.9387 -3.89323 0.315374 -0.666439
164 1 18.7153 9.5142 13.7605 0.986644 -1.0331 -1.12858
165 1 -20.4493 11.1598 18.3388 -0.369976 -2.18523 3.67161
166 1 9.76385 20.4853 -21.5367 3.89092 0.0469203 -1.79149
167 1 -12.8904 1.72136 -2.57863 -0.986614 -1.63667 2.25327
168 1 -24.0864 23.0882 -3.90363 -1.94503 -2.39602 -3.5883
169 1 4.85516 24.84 -12.718 -0.142984 1.51415 2.65053
170 1 -6.5954 -15.9466 -13.7142 2.6632 -1.46314 2.59129
171 1 -14.6712 2.54495 15.9915 1.95836 4.2134 1.77024
172 1 -19.1646 20.2723 -18.6773 -4.31637 -2.9057 0.910309
173 1 -23.6092 1.07104 21.3322 5.29037 -0.168305 2.90791
174 1 -20.3763 6.15718 -20.5586 -1.17313 -0.769159 0.384764
175 1 10.1567 18.181 5.85888 -2.09116 1.72838 1.07064
176 1 -3.83861 22.6707 -3.49862 4.53271 -4.81137 3.28557
177 1 -5.86613 -16.591 13.653 0.881719 5.20535 -0.74615
178 1 -18.3351 9.73321 6.06425 -0.0529244 0.980518 -0.907471
179 1 -6.28861 -7.55158 -13.2625 2.37429 -4.78877 -1.2415
180 1 -22.9294 20.2212 10.3822 -3.77413 -2.69708 -6.19137
181 1 -2.87928 -5.75817 -20.4168 -0.960524 -0.161815 -1.17083
182 1 -22.8708 -2.61634 15.1902 -4.30195 2.90311 1.40977
183 1 21.6122 12.9006 -3.84983 -0.855789 2.19319 -1.12133
184 1 3.86453 -22.319 -22.0549 0.178809 0.637793 2.62951
185 1 22.5931 21.5806 15.2491 -0.560426 1.08758 3.33506
186 1 15.4892 23.1949 -9.38625 3.58988 3.42196 -1.28273
187 1 -11.4627 8.31199 -7.34285 -3.76478 2.7249 -0.571961
188 1 6.00633 -20.7973 -2.82886 2.28113 -3.3337 0.543216
189 1 -3.7162 -4.69699 0.896293 -1.21204 -1.64237 0.369647
190 1 -16.1898 9.37669 -11.8565 -2.66207 -1.97069 2.84342
191 1 3.54218 -5.22061 -21.5916 2.08995 -0.0429241 -1.41084
192 1 9.76215 5.38653 -3.68374 -1.93334 4.29165 1.27959
193 1 9.54232 1.15653 3.93232 -4.13587 -2.44635 -0.953402
194 1 0.248705 24.1137 -22.3205 5.14313 1.04021 4.64094
195 1 7.26951 -0.332432 -7.85412 -1.68598 4.15985 -6.71116
196 1 -15.6264 22.3786 6.52382 -0.68043 5.29179 0.45318
197 1 -24.2363 -3.47982 23.1982 -0.233731 -4.36429 1.48427
198 1 -10.2616 -19.7718 -18.8562 0.997042 -2.29446 -4.77585
199 1 -21.9366 -3.88199 -11.9326 1.55323 -3.73205 2.01827
200 1 14.7704 6.54921 -14.4923 -0.812334 -0.618655 -1.3106
201 1 6.12995 5.18806 -23.6351 -3.01524 -3.47577 2.58307
202 1 12.4402 14.5461 14.1364 -2.29965 -1.61666 1.61126
203 1 -23.9489 18.5289 6.65001 0.816358 -0.783266 -1.52449
204 1 -4.35547 -14.5895 -11.1062 1.9789 2.53513 -2.73963
205 1 17.0132 -6.30576 11.1453 2.58946 1.97589 0.844161
206 1 -3.10083 -15.6324 -21.3591 1.78136 2.36768 -0.245497
207 1 -8.34689 7.27546 23.6081 0.0243561 0.372631 3.01266
208 1 1.92115 -5.39484 16.6587 3.58866 2.37669 -3.68582
209 1 -7.9639 15.573 -15.3275 0.487389 1.49191 0.646569
210 1 -19.0061 12.6587 -1.52876 -3.44016 -0.146586 -1.30221
211 1 16.791 -0.808212 6.90324 4.58189 -1.06219 -0.724073
212 1 -13.4711 25.0738 -4.7391 -2.6171 5.38349 -2.05607
213 1 -19.4321 -19.3192 -0.483713 -1.05271 -0.2129 -0.898626
214 1 17.0936 -5.312 -20.1617 -1.99944 2.15619 -2.13629
215 1 9.23359 21.1526 16.5879 -0.134302 1.80232 2.76931
216 1 -19.4462 -23.9092 7.79841 -0.91161 0.0672925 0.760347
217 1 6.13638 22.6259 9.01632 0.239343 1.00018 -1.23804
218 1 11.9322 3.90352 -4.28558 1.0301 -3.65545 -0.553938
219 1 -5.76289 23.6442 20.5141 -6.01139 7.21043 0.510312
220 1 5.85913 18.0922 16.0065 0.127649 -4.02696 0.134032
221 1 -17.3383 1.31764 -0.524391 0.120284 3.63945 -3.90423
222 1 -11.7868 -8.73472 -0.454907 1.98167 -3.70891 0.834137
223 1 -22.5352 -7.11344 -1.49436 0.0473484 0.267454 -1.00442
224 1 -12.3939 -2.8334 24.0804 5.65548 0.689383 -2.10403
225 1 3.46277 -12.0593 -6.64056 5.24629 -1.87683 0.0917527
226 1 21.9459 14.0124 -14.4046 0.95945 -0.107301 -1.9725
227 1 16.8799 17.9709 3.22765 0.111702 -2.26123 -2.73188
228 1 -10.6028 18.9706 0.562839 3.02702 -0.0582954 -3.7154
229 1 11.3771 11.0731 -10.1281 1.39358 -2.5989 2.75666
230 1 -8.5684 14.5074 19.0895 -0.665533 5.04763 -1.0337
231 1 23.4131 -2.82732 -22.4013 -0.229414 -0.435052 -2.52943
232 1 -3.42016 -12.5788 9.77943 7.41336 -0.0787892 -6.46772
233 1 -11.6024 13.9195 10.8326 -1.37411 -1.59001 -1.91654
234 1 -6.13296 17.4347 6.47743 4.00428 3.33967 1.26417
235 1 -22.5432 -1.03927 -8.05121 0.913488 0.430231 4.43273
236 1 17.1374 -9.10961 7.25798 -2.38092 -2.63449 2.97089
237 1 -16.986 19.1545 2.58623 -3.94486 -0.954022 -1.50714
238 1 16.2822 -1.0069 22.9357 1.44384 1.19386 -0.0260957
239 1 -19.7814 19.5765 17.9848 0.340072 -0.196752 -0.948061
240 1 10.7362 2.27586 16.1444 2.90228 2.52411 -0.158397
241 1 -23.7579 -13.618 11.4186 -1.54371 0.83374 -1.75406
242 1 -8.23025 -3.0158 -12.0152 -0.734768 -2.24773 2.87853
243 1 -7.28148 -7.95825 9.39648 2.52687 0.750988 1.41111
244 1 -22.541 9.55387 -23.6215 -0.724643 -3.15732 -0.12073
245 1 -10.0759 24.5486 -11.4815 1.5232 -3.38221 1.28768
246 1 8.13227 3.95118 21.26 -1.67867 -0.0787088 -0.0307753
247 1 23.5497 -5.41083 12.8219 0.877094 1.68344 -0.137473
248 1 -18.049 5.14135 -14.1032 -2.29365 -1.90911 6.14548
249 1 -3.70133 -17.3903 11.7128 -1.01825 -6.72111 -0.764073
250 1 0.863569 -0.926493 6.39973 -0.744828 1.50865 3.79921
251 1 -22.2337 -1.7661 -21.978 -0.225126 -2.17615 3.48377
252 1 19.2675 16.6219 -11.0505 2.20206 -5.12967 7.24899
253 1 -1.11967 -3.9573 -22.4426 1.76554 -2.92708 -4.882
254 1 6.21829 -13.9568 -9.25126 2.65873 4.87579 -1.51457
255 1 -23.3978 -22.1583 10.6504 4.6661 -5.3403 2.96163
256 1 -11.9553 -4.98061 -9.19905 0.942166 -2.38637 -0.486777
257 1 -4.36935 5.39268 -17.863 -1.6645 -0.0117286 1.91077
258 1 -5.90073 -2.24595 -6.1713 -3.07668 -1.64634 4.87199
259 1 17.3827 -18.1385 -17.6401 -3.6067 -1.12851 -2.07983
260 1 15.4647 8.04723 -3.24975 -0.205959 1.61848 -2.89799
261 1 -1.87956 -24.5348 11.0316 0.642214 -1.05749 -0.4029
262 1 17.2515 20.0097 10.4412 -1.57696 -2.20699 3.29778
263 1 -20.7037 7.42853 -7.58549 4.94833 -4.03666 0.0240033
264 1 21.4641 2.8626 18.852 0.54275 0.175808 -2.03333
265 1 13.7811 -17.571 -5.77451 2.08817 0.791046 1.69745
266 1 -24.5686 4.76088 -13.6908 -5.89699 4.57579 1.78846
267 1 -13.1645 21.1301 -11.1088 0.356335 1.64144 -5.68996
268 1 -22.6774 16.9485 -11.5217 -1.88376 -0.79065 -2.85268
269 1 -17.4621 -9.23855 -13.8206 -1.25409 -0.949544 6.63925
270 1 -23.8117 -15.6459 18.3269 4.20509 -4.42484 0.501538
271 1 2.28765 23.5789 -13.5594 2.79973 0.30472 2.61194
272 1 10.4303 -15.7468 11.4044 -1.28809 -5.65296 0.893885
273 1 -17.1927 -9.5909 12.5636 -2.4982 0.801858 3.40152
274 1 12.2579 -12.3247 8.29758 2.77259 2.03558 -0.107334
275 1 12.0269 23.1214 -19.7622 -1.54124 3.85291 -2.31087
276 1 21.7994 7.80346 -7.35481 -1.61467 2.70743 6.73465
277 1 11.0138 -12.8619 -18.1837 1.15221 0.607369 -0.403386
278 1 19.4306 9.55992 17.2423 -0.282163 -1.24248 -1.96995
279 1 -23.3967 -2.95882 -0.258495 4.40918 0.729967 2.03256
280 1 -3.84902 -20.3517 -12.2354 1.02989 -3.04922 -0.192675
281 1 16.0991 20.7284 12.9025 -4.72947 -3.67569 -1.56294
282 1 11.5641 11.9851 13.1254 -4.27508 -0.354638 0.0511524
283 1 -4.37407 -21.1906 -21.1259 0.984163 0.782448 5.6258
284 1 3.74223 14.7023 1.17104 -1.58258 -1.16017 -3.70631
285 1 -15.4842 18.5583 13.9576 -0.485058 -1.12205 1.20427
286 1 -3.59806 18.082 -1.75554 -0.862072 3.11181 3.33257
287 1 5.25891 -9.68205 -6.8232 -6.00395 -1.42282 -5.70195
288 1 19.712 24.2349 4.03918 2.12853 -4.05571 0.913441
289 1 -3.66117 -20.0282 10.446 -4.27535 1.75666 1.1098
290 1 -4.70097 -12.1086 -14.9128 -1.68256 -0.183947 2.8398
291 1 -10.5684 -16.9104 10.8966 2.31545 -3.96753 2.60958
292 1 15.9996 7.61426 2.26143 3.9983 5.03428 -1.5039
293 1 13.5212 4.02509 13.3482 -0.931125 2.18895 0.636976
294 1 -9.42228 1.62724 -0.606695 3.14 3.2361 -2.45861
295 1 0.2545 7.68586 8.88902 -0.0124564 1.83901 -6.97687
296 1 2.25008 14.5162 -1.73251 1.64504 1.42301 -1.83841
297 1 20.5838 -10.0319 -7.10295 -2.13065 -0.809521 -4.22917
298 1 14.1046 -20.4337 -20.5722 -4.16009 -0.100285 -7.14644
299 1 5.39078 -21.7714 -12.4116 -3.20233 4.5159 -2.30194
300 1 13.688 -3.18798 17.9068 -2.71849 0.116178 1.76683
301 1 -6.80929 20.966 -21.8199 2.0538 -2.6526 -6.76953
302 1 0.352053 8.96949 -1.76154 -0.704473 -0.842177 1.10956
303 1 -20.5061 -21.2382 -7.21292 0.0646448 -7.99758 -5.25099
304 1 -20.6765 -16.543 13.3581 5.03455 -3.95361 2.52547
305 1 3.38717 -20.143 22.7171 -0.916696 -0.0879471 2.40088
306 1 14.0594 19.381 -10.8091 1.83496 -0.321122 -0.755032
307 1 11.5522 13.7629 23.055 -4.22423 -1.87657 -2.12325
308 1 -18.4247 -22.4455 3.54642 -2.53844 1.58539 4.12899
309 1 4.93112 -19.0566 20.4131 -1.27224 -0.497129 -0.127914
310 1 1.65893 12.4159 12.4004 -3.41909 -2.65361 -5.50659
311 1 13.282 -10.2917 0.398186 -2.06241 -0.588961 -5.89504
312 1 -4.12065 1.22302 -8.22103 3.60389 2.38845 2.11832
313 1 -17.8373 -16.3009 -8.94406 -0.631983 -1.62732 -4.52899
314 1 -13.7691 4.64229 -10.0657 -4.49685 -4.55836 7.63223
315 1 -15.8062 -23.0335 4.25807 2.24539 1.89665 0.79762
316 1 23.6631 -6.30136 1.41651 2.19786 -4.24396 -1.67224
317 1 -9.4782 -10.4536 -22.5711 -0.270239 -0.133747 -0.144915
318 1 18.9536 -19.0816 20.8998 -4.163 2.51246 3.70265
319 1 -11.2481 3.35527 14.2768 2.19474 1.43727 2.65286
320 1 -2.48279 -2.30555 9.03634 -2.87485 -5.06968 -4.12462
321 1 -20.0552 -13.1545 -14.8407 -2.3502 -1.89171 -1.15642
322 1 -11.257 12.6632 -0.583996 3.53189 1.44947 -3.57523
323 1 -13.9646 0.316579 4.04078 3.03491 0.891463 -2.25949
324 1 21.7546 4.73164 7.37916 -1.18019 1.62306 -1.06991
325 1 -0.795345 -22.199 19.1202 3.9927 3.72301 -0.677062
326 1 -17.7247 5.19997 1.35174 3.67675 0.0690708 0.302288
327 1 -7.81695 -13.1025 20.7566 -4.43286 5.33303 -1.83404
328 1 13.924 21.0733 16.8171 2.09786 0.00580911 -0.134826
329 1 -0.34369 -1.0472 -11.3462 -1.55678 -0.412001 1.56331
330 1 -14.4655 -23.249 22.6247 -2.04932 6.59871 2.20486
331 1 13.0389 7.83914 1.74335 0.41168 4.13321 -1.65034
332 1 10.1779 1.15005 -10.4328 3.41092 -2.57079 -2.04159
333 1 9.02111 -10.3866 -15.1517 -6.33459 0.0671492 -1.52513
334 1 1.66742 -21.6679 -2.38007 0.0387479 2.33312 -2.22525
335 1 22.9695 -23.3546 5.45788 -0.195435 -6.31153 -0.0878402
336 1 18.0413 16.6021 -21.8875 -5.01798 -0.482285 0.0747427
337 1 -17.676 16.9769 0.806541 -0.603572 -0.317235 2.13764
338 1 6.22063 -8.09966 18.1429 -0.537343 -1.85097 1.4832
339 1 -7.19959 -16.587 23.8127 -1.77724 3.58375 -1.21169
340 1 -16.0159 1.38879 -18.9982 0.362375 1.48422 -0.936703
341 1 -11.4103 1.65972 -16.5654 3.33517 0.232866 4.45249
342 1 0.187322 -16.5491 -10.6188 0.6783 -3.25578 2.7894
343 1 -4.01711 -13.1983 -7.17605 1.32644 -1.17143 -1.63086
344 1 10.5942 -14.8114 -12.0833 1.08855 -1.4234 1.84897
345 1 -11.997 -5.17544 14.8543 0.792379 -0.977349 2.37315
346 1 18.0536 2.00473 5.95965 -3.26822 2.60851 -0.926512
347 1 20.9982 -6.51297 7.71924 1.58708 0.381846 0.208781
348 1 -14.0692 -2.96104 9.01937 -1.1178 0.264865 -6.26284
349 1 -7.47298 8.66162 21.2435 3.67205 -2.99995 -1.61226
350 1 -23.9704 20.2922 -24.1479 0.377059 0.561302 -5.04142
351 1 -18.3053 3.14903 12.0241 -1.3315 1.86784 2.47865
352 1 15.7838 -0.110125 -0.29395 1.9099 4.71434 3.35542
353 1 15.9633 -20.7438 -14.4362 -1.85573 -1.15998 0.318248
354 1 8.53999 23.1517 -7.48831 0.0116398 -1.31281 3.95056
355 1 -6.10169 -1.40267 6.78797 0.0641432 1.79935 2.4108
356 1 -2.81175 -18.6642 -23.8482 -0.6227 -2.06144 0.19307
357 1 -6.18715 -15.886 1.53711 -3.26981 -2.77857 3.34106
358 1 19.3769 -11.3871 12.9709 -3.53944 1.33311 -4.15777
359 1 -13.4998 -21.8852 -8.3344 1.81547 1.59084 -2.24398
360 1 5.88397 16.0589 -0.147425 -4.30389 -2.45158 -0.373897
361 1 -20.3167 -20.7589 -4.36726 3.43305 2.82909 -0.29302
362 1 -22.9477 11.3389 4.36763 -2.16537 -0.464033 -4.04312
363 1 -18.1966 -17.6722 12.1026 -4.5307 1.25558 -1.91063
364 1 -11.8965 3.64419 -4.85567 1.01895 -2.54724 0.949117
365 1 -0.588434 -17.7272 18.5476 2.02375 0.365578 0.174294
366 1 -19.8429 -0.120954 -8.87653 2.48515 -3.22617 -0.341567
367 1 6.51976 18.2307 -17.257 1.27262 -0.372663 0.4243
368 1 3.60672 -5.3077 12.2547 1.50887 1.98251 0.600567
369 1 13.8409 8.06352 -11.8908 -1.77664 0.0325537 0.432044
370 1 5.15557 -14.617 -21.9615 -5.92782 -0.208205 -3.06791
371 1 -11.0594 -24.5676 16.8774 2.94614 -0.0476127 -1.49778
372 1 -7.80741 21.7673 6.77593 -1.80087 0.18977 -0.654227
373 1 -16.4138 6.47064 23.4182 6.0519 2.06693 -2.36645
374 1 -5.2184 19.4383 -11.1401 -5.0103 1.65633 4.53237
375 1 -22.0979 -5.76639 22.9049 1.84694 2.43607 -1.63635
376 1 -2.61891 -12.5848 -17.1383 1.86901 -10.1461 -0.145548
377 1 14.1153 0.0109731 12.9582 -1.67862 0.993962 -5.82667
378 1 17.8784 -15.5103 -3.84247 0.297157 2.11282 -1.13678
379 1 -23.1682 25.0013 3.40364 -3.61608 1.76579 -0.806365
380 1 12.8376 17.0072 -19.7133 1.14937 3.56396 2.13057
381 1 -24.4115 -12.8532 18.003 1.70869 0.490312 0.866131
382 1 15.6141 17.4669 -0.797286 -3.24114 0.534086 1.65107
383 1 10.9298 -23.5183 9.44221 4.45087 2.24075 3.25155
384 1 -10.6712 11.1312 -7.79591 -0.557268 2.13205 -3.20695
385 1 -6.52849 0.488146 19.4567 0.852882 1.98871 0.152778
386 1 19.7175 -3.89572 -20.9276 -2.55425 1.71521 -3.24686
387 1 6.09834 -21.152 1.61485 2.36158 -1.51982 -3.87291
388 1 -18.8807 -24.0152 22.3827 1.29174 -1.02408 7.15222
389 1 -15.0554 8.3497 8.09993 -0.93204 -0.141226 -0.751123
390 1 11.678 7.39475 7.59584 -2.37482 -5.48252 0.477515
391 1 14.7024 2.14607 19.6485 -3.8317 -1.92975 2.72615
392 1 18.4434 -10.5029 17.8131 -1.48816 0.176333 5.91616
393 1 -12.8529 -20.2035 -12.5712 3.98997 -2.95821 -0.0255719
394 1 -9.8324 10.7648 -5.16604 -2.44437 -0.595397 0.954557
395 1 -8.65655 -24.8358 18.4068 3.01245 -1.99267 -0.641987
396 1 12.0074 -20.0725 0.865553 0.970325 -4.62819 2.95945
397 1 3.95089 -20.9275 18.3422 0.302102 -0.81903 1.42346
398 1 -24.4227 -22.6899 -7.22011 -1.7878 -5.08771 1.05296
399 1 11.8845 15.6193 2.36144 -3.51417 -2.84161 -0.0924734
400 1 -23.6703 -17.8163 -3.09558 -1.9613 -0.326469 2.12923
401 1 21.2112 -17.797 -5.67138 -0.698939 0.19661 0.0531955
402 1 -2.58524 6.63358 20.8442 0.893159 -2.41986 4.00883
403 1 14.4355 1.1581 22.2812 -4.32646 -1.33441 1.181
404 1 -15.1307 -2.55845 2.50036 0.409107 0.166261 -4.18199
405 1 6.06513 -23.1773 -6.916 3.38259 -1.06181 0.877995
406 1 -8.56114 -20.1737 20.7896 0.238662 2.02409 -1.62807
407 1 0.397943 -8.78265 16.0462 0.426241 0.322815 -2.82
408 1 -0.728501 -0.36134 -18.666 0.0955485 -4.09568 -0.482242
409 1 2.24178 2.99146 -8.02651 6.23082 3.35888 4.94025
410 1 -15.1354 12.1702 1.93783 -4.72856 1.99768 5.679
411 1 -2.86492 -2.20736 -8.02521 7.5427 0.076811 1.1686
412 1 -17.781 -5.88585 5.94193 -1.18421 1.17013 -2.46797
413 1 -23.0263 24.141 0.445936 2.21604 -2.06804 -0.725791
414 1 4.30686 17.8339 -15.6481 1.22082 0.244141 0.550947
415 1 -19.028 5.51318 -9.28658 -2.46729 -1.07848 -4.12871
416 1 21.9919 1.56837 11.9909 3.03314 -2.33901 -0.607451
417 1 -14.9585 0.974274 12.7034 1.7696 0.301806 -0.663205
418 1 22.1176 20.345 6.46172 -1.73502 -0.22085 -0.0140717
419 1 23.2849 3.22864 22.9125 -1.34749 2.10262 -0.695086
420 1 -2.53757 -3.45044 14.8962 6.232 -9.28156 -2.63549
421 1 -15.4378 -23.4329 -14.9549 -3.93288 2.84263 0.513862
422 1 -3.68681 15.4548 22.2682 -1.24074 -2.12603 -0.817545
423 1 -10.2941 3.4642 3.66016 1.82374 -0.387536 0.792032
424 1 3.81054 -5.62809 -1.86329 0.842349 -3.04329 1.77967
425 1 -20.3871 14.2023 18.0947 -3.00828 -1.52571 0.33736
426 1 -15.9158 -2.4726 -8.89223 1.51372 0.0794109 -3.89154
427 1 -14.9937 -22.497 20.0452 -5.57534 -0.33359 1.64891
428 1 9.29465 11.8321 -5.51412 4.27749 -6.83277 2.34987
429 1 -5.51498 9.48711 -13.2462 -1.74562 0.037954 -0.258919
430 1 -21.7995 -1.8885 23.7012 1.68358 0.781224 4.7381
431 1 13.2606 -8.25825 -15.1979 1.95556 -2.96462 -2.85728
432 1 7.12172 -5.09667 11.7965 -0.89836 0.104987 5.57984
433 1 -18.7235 1.9498 -18.5452 0.622335 -2.94408 1.02586
434 1 -13.0737 -3.35422 -11.5446 1.23177 4.6776 1.43018
435 1 4.4328 22.5414 6.5208 -0.4231 -2.57093 -0.752375
436 1 -12.9586 -12.7807 -12.9972 -0.567715 0.72623 0.486425
437 1 18.8811 19.0919 -9.57592 -2.07364 -3.32244 5.03778
438 1 -18.7008 4.86225 -3.65318 -3.03198 -0.256547 0.174866
439 1 -0.167196 23.645 -0.900697 5.39729 -0.65416 3.26746
440 1 -10.4429 13.5916 -14.8469 -0.365825 0.488753 0.816901
441 1 18.8847 1.42097 -4.86864 -3.41485 -2.70752 0.485083
442 1 5.31182 3.74475 15.4777 0.749984 -3.10567 -0.241324
443 1 20.6567 24.1825 16.761 0.37859 1.34325 0.318469
444 1 -23.4523 7.39587 -17.8721 -0.312544 -1.29501 -8.81001
445 1 19.685 -11.0425 -12.1449 -0.751209 0.421525 -1.01524
446 1 -23.5233 -15.1962 -8.64509 -5.6486 0.216229 -0.564432
447 1 8.17629 19.0899 14.8291 -0.747676 1.97774 0.356208
448 1 -18.0218 1.66419 14.3106 -0.355973 -5.29714 -5.01164
449 1 13.4668 -4.25793 -2.84493 1.71421 3.51803 -0.588322
450 1 15.6438 -19.432 6.73481 -2.18429 2.19559 -1.17238
451 1 -24.2345 -12.1192 -19.7735 -2.41407 -4.04077 4.33049
452 1 -24.2446 16.727 -0.990539 -1.60156 -2.33334 1.37956
453 1 -17.0809 13.21 8.02576 2.84224 -1.82659 -3.43509
454 1 -2.93679 1.70397 -15.0272 -0.462545 5.55569 1.01337
455 1 11.6766 -11.599 14.5726 2.30273 -3.80954 0.608955
456 1 -5.36928 16.9178 20.3186 0.926378 -2.00535 7.12253
457 1 4.62679 19.7042 18.0797 1.2144 2.94957 -4.48078
458 1 22.4552 21.2099 19.7361 -3.16017 -6.35936 1.50158
459 1 0.0512045 6.45664 -13.8415 -3.48203 -5.50443 1.16383
460 1 2.98429 10.8986 -22.4765 -4.68634 2.73427 -1.82462
461 1 5.25644 0.696766 -22.0212 4.70121 2.91063 1.68683
462 1 -6.61821 -20.0115 18.6674 0.453234 -0.312861 -2.75283
463 1 6.53583 16.0251 12.2835 -5.20151 -2.71225 0.99013
464 1 -14.7043 -22.8204 6.89153 -5.55195 -3.10737 2.579
465 1 -3.84882 -13.5599 4.35565 -1.37354 3.7804 1.98343
466 1 12.7187 14.7908 -21.4342 -2.64082 -2.49334 0.974826
467 1 -5.1662 -7.93759 11.4875 5.19894 -3.11052 -2.5552
468 1 21.3565 15.4214 -9.81259 -3.36272 -0.436353 -1.60003
469 1 -24.2239 -11.6873 13.3159 2.32605 3.01634 -2.94536
470 1 -20.4401 7.10772 -11.1311 -0.18492 1.98699 -2.63221
471 1 22.153 -9.95819 -9.61688 3.19377 1.81142 -5.80738
472 1 -13.6612 -4.40885 18.7419 1.90439 0.765134 0.624321
473 1 5.50079 13.3011 12.4811 1.05368 2.17566 -3.90703
474 1 4.85117 -5.68266 -12.3637 -0.195246 0.90122 5.0713
475 1 20.428 9.66033 -19.3273 -2.72617 1.01486 2.86072
476 1 -12.6582 -5.07935 -3.94441 3.52377 5.51163 -1.35226
477 1 -9.48391 -9.81326 -16.2723 0.966443 -5.45955 -1.18797
478 1 2.92706 1.1948 -23.6408 -2.67193 -3.0788 0.967995
479 1 16.0053 -16.6811 14.2389 1.26189 0.95237 -0.860669
480 1 1.81852 -9.39618 8.6024 -2.60945 0.221922 -1.81339
481 1 -4.37285 8.83856 -19.0419 0.636379 -2.18887 1.97265
482 1 -23.0952 -2.92958 18.8801 2.36828 -2.54166 -2.16843
483 1 3.22907 -17.1457 3.36665 3.80869 0.673328 -0.986839
484 1 -21.0476 -15.4087 -13.5975 0.631362 0.691662 -2.63676
485 1 20.7335 -22.2593 -19.8535 5.99432 -1.39085 3.51733
486 1 16.116 0.73747 -5.29929 -3.62048 1.21213 -0.397419
487 1 3.47441 24.2241 17.3562 1.09028 -0.336751 4.72586
488 1 1.56374 -15.6705 19.6876 -1.14558 3.53629 -0.0862353
489 1 -12.5277 23.4013 -12.5224 -0.962027 1.7672 -3.17677
490 1 15.682 -18.0217 -11.3914 -1.01801 2.5911 -5.08931
491 1 -19.0099 -12.0444 9.11529 -0.148566 2.38888 1.68374
492 1 -14.531 -16.6004 -12.6431 -0.523106 -2.65779 -0.410034
493 1 13.6195 -0.0237736 -16.4227 0.118096 1.74483 -1.97151
494 1 7.39207 3.08079 4.93496 -5.21226 2.44815 -4.84096
495 1 -2.66527 -10.6658 -2.78029 4.69376 -0.12426 -1.05416
496 1 3.90268 6.48254 -12.5657 -5.20906 2.24526 3.41296
497 1 10.571 15.5524 -23.2617 3.10627 1.3776 -1.41528
498 1 23.6938 1.25582 -23.2965 3.51618 3.03204 0.0299626
499 1 -23.2827 2.15477 -10.9024 -6.80715 -4.65569 4.24952
500 1 -4.0607 -15.9947 8.85577 -0.754759 -2.54534 3.01382
501 1 -14.5634 -12.724 -7.71986 5.5919 0.325184 -1.16065
502 1 13.8929 -11.8963 18.3948 -1.66438 0.948784 -4.91039
503 1 8.72091 -0.0932876 -12.5201 -0.844561 -0.904189 -5.93873
504 1 -0.518151 6.13482 5.76067 0.375763 -2.31438 2.72053
505 1 -2.70349 7.19193 -21.409 3.10609 -1.1434 -3.71883
506 1 -1.3007 -18.455 -16.9408 2.76192 0.0771638 0.57529
507 1 9.8392 21.92 -15.7564 -5.02889 -0.708731 3.06307
508 1 -4.08234 23.3128 -11.5202 -1.03282 -3.25683 -1.3158
509 1 23.2037 14.9405 -17.8779 -5.65801 -7.88447 -2.84843
510 1 7.11959 -17.8335 17.5874 0.642983 1.38033 1.90467
511 1 7.66612 -13.6551 4.51155 -1.23921 -3.77078 -4.04677
512 1 2.68935 -3.45817 18.7206 1.58833 5.11605 -0.627569
513 1 -18.6803 -13.0811 17.2956 -2.22371 0.464863 -0.904387
514 1 -14.0094 20.7606 21.5986 -2.84264 1.31802 0.711486
515 1 -1.76434 5.78189 16.4111 1.49254 1.91986 -0.792664
516 1 9.42163 -23.4594 -1.37486 -1.35423 -2.78082 -0.874151
517 1 -13.5936 -0.434441 -22.7394 -1.80311 2.3413 0.647843
518 1 21.8419 -22.9644 2.92214 -4.56745 -1.73632 -0.0355645
519 1 -20.085 -13.3508 -10.6841 -2.0891 2.76351 -4.30155
520 1 -4.51299 -24.1273 -14.286 -1.692 -0.395783 0.304657
521 1 -10.115 24.087 -7.16785 -0.901174 -2.98226 -2.65584
522 1 2.62532 -17.3567 6.16059 -1.20075 3.88759 4.12895
523 1 -9.57145 -15.5895 -8.59429 -3.30596 0.237862 5.97005
524 1 0.572648 -2.39301 19.9283 0.303441 -3.20242 -2.30118
525 1 -8.71718 0.172225 -3.09203 -4.41072 -3.43507 -2.59558
526 1 -19.6475 13.5777 -4.32574 -6.4195 -2.90595 1.29363
527 1 -2.85191 13.5729 -7.1318 1.43027 0.156842 2.59873
528 1 -15.1127 17.5859 -11.2701 -4.10716 -2.62536 1.44366
529 1 -8.91683 -13.6143 6.15693 0.382506 6.44375 4.38051
530 1 -9.65142 2.38424 8.85856 -2.31612 -0.694594 -1.71775
531 1 21.7582 -7.40869 11.6458 -0.874791 -2.34902 6.23779
532 1 -9.03675 -2.59222 -3.00791 -4.01296 -2.61538 -0.311468
533 1 -10.9284 -18.3111 13.6377 5.88519 -2.75162 1.30975
534 1 20.2386 7.95395 -10.0326 3.16204 0.512846 0.974824
535 1 5.55663 9.71103 9.70151 -1.36502 -3.3473 4.41454
536 1 -1.59349 -6.01984 4.06858 -1.07327 4.03338 -3.33481
537 1 8.30874 -6.1508 2.21762 -4.50107 0.488549 1.875
538 1 -21.2396 -8.17133 11.9193 4.2195 -3.69783 3.11474
539 1 17.6485 11.838 -7.1192 0.387162 -2.50909 -1.81756
540 1 -12.7089 -11.2279 2.54819 -0.553597 0.360753 -2.19425
541 1 -12.6569 0.874315 14.6938 3.62579 -0.974419 0.378815
542 1 -23.9037 4.68062 -8.21181 0.130327 0.847589 3.9388
543 1 21.2089 -18.3991 -16.3583 -3.40326 -1.58309 3.11981
544 1 -4.64038 -18.6322 -19.3469 -0.739062 -3.97892 -1.06274
545 1 23.2324 -15.4004 13.4624 1.14937 -1.87208 2.16812
546 1 -6.8456 -16.1301 -16.4737 -0.0334113 -2.97601 -3.94436
547 1 16.42 -15.6918 -22.1925 -2.03423 -1.1493 1.19083
548 1 9.08823 2.62855 18.9179 -5.21506 1.19709 -2.49141
549 1 -21.4422 -4.66084 8.54924 -1.33682 2.70158 0.491671
550 1 0.360228 -19.7443 -12.9104 -0.741634 -6.52563 -3.68422
551 1 8.94895 9.5395 -17.6872 3.26586 1.33252 -3.43598
552 1 2.09598 -18.9952 -1.06173 -1.77063 1.68105 5.05274
553 1 -12.9119 6.00001 -0.672872 -3.09094 1.91984 -0.0295105
554 1 1.68775 17.9357 -19.9008 -0.6492 1.14491 1.28378
555 1 -15.5228 -15.8918 -1.21852 -1.90968 -5.43865 2.36259
556 1 -12.5417 16.741 -2.93797 0.203931 3.24615 -1.85176
557 1 11.0146 -23.8438 -9.18669 0.222839 3.58208 2.11851
558 1 -3.29958 -12.8511 17.2654 -7.64762 0.340897 -1.53211
559 1 -7.99557 -21.173 6.86078 -0.737658 0.306608 3.266
560 1 22.9293 -22.38 -4.34239 -1.09465 -1.72414 0.692007
561 1 7.29102 -23.0174 19.1046 -5.61838 4.08545 4.42717
562 1 6.62392 8.43675 -19.7455 1.80431 -0.921573 -0.666281
563 1 6.4051 -19.4167 4.99363 1.3327 -0.291919 -2.32637
564 1 -8.7143 -19.2228 10.1464 -0.240948 2.43588 1.61221
565 1 12.5525 -20.7659 16.0344 0.442482 -2.33009 -2.54176
566 1 19.5385 15.5573 15.5685 -3.91214 1.52995 -0.300952
567 1 -19.3924 22.772 -3.251 2.39188 2.44733 -3.23048
568 1 4.84007 -4.57342 6.43137 0.343339 -0.230361 -2.67288
569 1 -6.28274 21.5766 -15.6462 5.04594 1.65374 -4.70952
570 1 -23.4892 12.0119 18.3863 -2.62267 -2.37977 -0.0934224
571 1 0.740839 -12.9126 20.0829 3.97218 0.334856 3.66615
572 1 11.3367 -24.2606 3.22852 -0.784327 0.148433 0.832269
573 1 18.9293 -4.73737 5.51099 0.141934 1.81623 -1.39282
574 1 13.7587 46.8732 -6.14973 1.26831 1.08296 -0.105329
575 1 -16.2675 6.38605 -3.29454 2.02131 -0.497979 1.582
576 1 19.8114 1.06557 17.3696 -4.68142 0.235703 -3.23977
577 1 -7.21531 21.5574 0.0596259 1.05668 3.81809 -2.99161
578 1 -23.4587 21.9825 -19.0403 0.554204 5.56853 -3.99804
579 1 3.01772 -20.0144 -12.1227 2.40133 -2.28861 3.49922
580 1 -5.34217 6.2572 -20.4266 2.05886 -1.74831 -3.2979
581 1 -14.8734 -9.0084 14.2721 1.55815 1.54181 6.64996
582 1 -2.9417 -13.2968 -19.8338 -1.26266 0.950513 -3.86207
583 1 -21.4503 23.7288 11.8573 0.750408 -0.813828 -0.89898
584 1 14.9471 5.36716 -7.96607 1.483 -1.45277 0.180463
585 1 -7.95261 12.228 14.6577 -2.28626 1.39459 2.1549
586 1 16.8658 23.244 -19.1408 6.75725 0.331263 -0.903899
587 1 -19.2953 -24.1014 -9.89473 -0.256206 -1.75069 3.24662
588 1 -18.4465 21.9746 6.0961 -1.2883 -1.2607 -3.29613
589 1 -2.03997 4.41325 -1.02775 1.70019 0.306877 -0.226584
590 1 -4.32345 19.2567 22.0554 0.702563 -1.80568 7.72821
591 1 18.6439 -18.6462 11.3781 4.80721 -1.26427 0.535891
592 1 -14.9673 -12.393 9.35107 0.316533 3.00205 -2.71302
593 1 -12.3728 -20.4604 16.6754 3.21744 1.15578 -0.6538
594 1 -20.5066 -0.553699 3.96258 0.0806867 -2.81712 0.682302
595 1 8.55853 -17.0916 -24.3009 1.12209 1.85921 -3.95078
596 1 -12.8859 -20.3551 6.24812 1.08753 -0.662106 -2.4789
597 1 -23.5601 -23.682 -10.7063 -0.121493 0.655903 -1.56529
598 1 16.9159 -13.5812 5.02024 0.585249 0.907345 -1.08517
599 1 8.92332 -15.1078 13.9322 -0.986636 -1.51038 -1.49623
600 1 -21.6847 23.245 14.8016 -5.95904 -1.87887 0.782287
601 1 3.70533 -4.05454 21.1779 1.62744 3.61041 -3.34827
602 1 -7.48845 3.62838 22.7441 1.99681 2.50844 0.85214
603 1 -5.11256 7.04057 -4.49551 0.939271 -3.21627 6.72686
604 1 -0.237983 23.2639 23.3029 3.48559 -3.09187 0.978005
605 1 -21.6211 -0.571031 20.2612 0.264265 1.27196 -1.65388
606 1 3.46797 -3.2609 -23.9151 2.01088 0.230475 1.29007
607 1 -0.545917 -1.70259 17.1908 -0.150064 -0.198402 0.118163
608 1 4.02071 8.04853 -9.78199 -8.39306 -3.21984 2.22223
609 1 9.96665 -19.2091 20.032 -2.50067 -0.684079 -1.39167
610 1 14.769 -4.43639 15.4511 0.686569 -1.16881 -3.74931
611 1 -4.84037 -9.35512 -6.64242 -0.922591 2.68741 -2.78208
612 1 -5.03625 13.8073 -14.2204 2.37319 -4.89612 -2.12476
613 1 11.2496 8.98834 -19.8056 4.43894 -1.34261 5.09311
614 1 -17.1114 -10.4591 -5.16826 1.90175 -3.37741 1.32437
615 1 12.2087 -1.62419 21.0029 -4.03392 -4.31339 -0.188285
616 1 17.4902 -1.13359 20.4401 1.89283 5.63078 -0.427541
617 1 -11.214 23.0218 -17.5659 -0.712473 -1.64341 0.674873
618 1 13.0047 6.01354 10.0629 0.341654 -2.35614 -3.9787
619 1 15.9513 1.81743 11.1247 -3.83918 5.10069 -4.84104
620 1 20.1919 -13.898 -8.567 1.23579 1.67494 1.6646
621 1 -7.84624 12.5901 -14.3329 1.77794 7.10455 3.95701
622 1 -20.9083 -11.145 0.0243136 -2.84461 0.13323 -2.6725
623 1 22.7281 -13.9839 4.62098 -1.99653 -1.66497 2.80957
624 1 -7.67047 2.20902 -19.1505 0.809423 8.05809 5.72082
625 1 -2.52764 -8.76686 -4.87477 -0.49943 1.78027 3.16603
626 1 -2.26392 3.55876 -18.2864 -2.58511 -2.65583 -0.125879
627 1 19.2267 17.839 13.8139 4.48791 2.89416 -3.06552
628 1 -22.8763 -15.677 0.366364 3.89579 4.63722 -6.48854
629 1 -6.48144 9.41056 -7.72111 1.02199 -3.8378 0.0320406
630 1 -22.6898 23.0696 9.41101 -1.87592 -1.14563 2.33942
631 1 -4.55973 -18.7137 17.2797 0.750872 -2.521 0.993382
632 1 -14.2107 -20.5791 3.65569 -1.7402 0.439313 2.93098
633 1 6.71311 10.8268 23.652 -2.75077 2.92687 3.55538
634 1 -10.3898 -1.53087 17.3309 2.65536 3.16179 -3.81552
635 1 8.82139 12.3111 -2.62762 2.21112 3.20963 -1.0048
636 1 -24.2844 1.93492 -17.2387 -0.100915 -4.90369 -1.75458
637 1 -10.2191 -22.267 -23.4227 1.46639 -1.48574 0.811049
638 1 13.3721 17.6152 -2.61723 -6.68131 4.81362 1.44484
639 1 -10.2627 -17.5598 -23.9479 -1.84819 -2.98275 -1.08408
640 1 0.802509 -0.510304 3.27076 -1.09448 3.66783 6.44424
641 1 -14.1702 17.5514 5.73652 -1.98589 0.150492 1.0901
642 1 -8.97885 -3.2837 3.97644 -3.37566 -1.15711 -1.33606
643 1 9.60584 -19.5133 7.37375 -3.34816 0.656864 -1.56675
644 1 -5.46245 11.8737 -4.40052 -1.87234 -0.00554057 4.94419
645 1 -9.31156 -7.04005 -19.9128 0.142573 1.41613 -4.3315
646 1 15.0934 23.5601 15.9456 -2.3582 -1.20042 5.35523
647 1 4.17229 2.78631 -4.59909 5.38738 -2.09952 3.18825
648 1 19.2419 -15.4027 23.9137 3.29028 -6.8779 3.82327
649 1 11.1984 -15.2048 18.1373 5.10255 0.996416 -2.33636
650 1 -8.14473 -2.45915 18.7277 -3.08952 0.151845 -3.20574
651 1 -22.678 3.17752 -15.1076 -4.2449 1.2411 2.02396
652 1 -8.16183 -4.30224 -18.5292 -3.87557 0.63327 1.74382
653 1 -22.0098 -23.5129 -13.1295 1.48692 0.791252 -0.0617487
654 1 -9.77491 0.969707 -20.7273 1.79503 1.00469 -4.83275
655 1 -2.58367 -10.6363 -13.3116 1.78439 -2.17263 -1.89305
656 1 0.668427 23.3434 -10.8354 -0.613341 0.525334 -2.07851
657 1 -1.18423 -5.20168 -13.5284 -3.98825 1.42083 0.14101
658 1 20.9871 14.2851 13.5323 0.983725 1.72551 -3.86076
659 1 4.12601 0.915444 20.4674 -1.73272 4.3114 2.73264
660 1 9.8114 3.54745 7.92108 0.290112 -0.49937 2.54152
661 1 -17.1516 -7.22433 -18.3517 1.06427 3.82024 1.89714
662 1 3.05835 -4.91803 9.43485 -0.870553 2.48447 -0.432258
663 1 -12.6065 -19.001 -8.75515 -0.10245 1.38686 0.689962
664 1 -15.1033 -19.1896 13.0708 -1.23773 -4.19516 2.84858
665 1 -0.35297 -6.93195 19.7393 -2.2587 -1.49462 -2.36698
666 1 -8.00057 -7.23025 -10.9744 -3.87238 0.163428 -4.03817
667 1 -22.1262 -18.752 22.1951 1.05122 -2.42957 -2.21337
668 1 -9.62059 13.1229 16.8128 -1.09669 -0.14409 0.907886
669 1 6.28395 -16.0461 13.8714 -2.94162 4.797 -0.501575
670 1 1.026 -13.9541 -2.27473 4.28479 1.29426 2.65053
671 1 20.6736 15.7733 3.48939 0.571785 1.71517 -1.07542
672 1 23.3759 4.69677 -10.798 -1.43806 -3.04983 2.48053
673 1 -0.454362 16.7354 -21.6618 0.100957 -0.932082 -1.6331
674 1 -7.78597 -0.905219 -22.1147 2.69787 1.22632 -0.221134
675 1 -23.6548 -10.4467 -8.52831 3.81834 0.342328 -1.8094
676 1 6.83202 2.47341 17.5282 -0.106323 -2.42858 -0.50268
677 1 -22.9831 -11.3181 -11.4788 -3.494 2.59913 -4.74998
678 1 -19.8734 -6.89991 1.11545 -4.68774 2.68098 0.28265
679 1 -20.2997 2.7123 -8.52012 2.04788 3.38695 -4.68783
680 1 9.38157 20.7455 -8.53656 5.34455 -0.92856 -1.99002
681 1 -0.727664 -0.23683 -8.51065 0.263689 2.67334 -0.448233
682 1 -3.62328 14.9284 -9.8738 0.491222 3.35632 1.31867
683 1 0.374813 11.015 -18.503 -4.99655 -3.2964 1.28838
684 1 11.4431 -20.9477 -9.51093 -6.09449 2.15701 4.7673
685 1 20.1184 1.57081 7.92937 -3.41232 2.10452 1.56151
686 1 -16.2911 -0.150351 16.294 -2.36067 4.62322 -3.8498
687 1 -16.1484 7.63875 10.4771 0.158985 -3.06921 1.70048
688 1 -11.325 -9.14172 -11.9876 5.03084 3.1173 -6.37219
689 1 -0.731269 -1.14113 -4.14478 1.64332 2.84818 -1.56766
690 1 -0.57001 23.6176 -4.77431 -3.71264 1.09659 -7.36127
691 1 -0.591679 6.95419 14.176 0.0146027 -1.03086 0.464274
692 1 -9.56758 -7.09627 3.20678 4.81294 0.530099 3.02674
693 1 -7.45141 22.1583 3.0424 0.666931 4.72034 4.4952
694 1 10.1894 -18.567 2.85013 1.25966 -0.797 0.528794
695 1 7.82417 -10.739 -7.24458 0.95218 3.07413 -0.392019
696 1 -6.11668 -20.7362 9.20683 -0.557858 -0.171505 -1.44711
697 1 -21.9228 16.4639 -19.6294 -1.06009 -1.90076 -0.870883
698 1 23.1431 -10.8426 -5.87726 5.6634 0.680165 0.748004
699 1 -15.4971 -11.4166 16.0667 -0.991089 -3.66024 5.41743
700 1 0.842262 5.91775 -23.8489 1.02447 -1.98705 4.65647
701 1 17.9604 0.178304 9.31479 -0.44667 2.18985 -1.49824
702 1 -16.1522 -1.41844 13.6761 1.18964 5.94993 0.192259
703 1 5.53024 24.7707 -22.3051 -2.69916 -2.64837 -1.70211
704 1 -9.10305 -10.9689 11.9538 -5.06696 0.22543 1.79634
705 1 6.22706 21.751 -15.9715 -2.098 3.08348 -3.078
706 1 5.33349 3.48163 19.6533 3.12428 -2.92649 9.61174
707 1 -17.2743 0.617154 22.5994 -1.50554 4.32561 -4.24102
708 1 11.8493 -5.98141 -17.9045 -2.13146 -1.57693 -1.04744
709 1 -9.50112 -3.11395 -9.52855 0.340082 -1.93926 1.90442
710 1 -2.59666 -8.26534 13.0417 -0.0889185 -2.57722 -0.740343
711 1 -12.0996 -6.19839 -15.8798 -0.432223 -2.78074 0.637599
712 1 4.8034 -9.65733 13.3627 7.42583 -1.43836 -5.7152
713 1 2.83758 5.36913 0.749144 -2.61118 -0.827366 -3.0227
714 1 20.0113 -7.92048 -12.5359 -0.532364 2.12306 -0.384504
715 1 3.88063 17.3794 8.94702 -2.27901 8.01154 7.84247
716 1 -1.34934 -21.6099 10.3336 0.0714763 1.76338 -4.51004
717 1 -11.7589 -4.86268 -13.5929 -0.515125 -2.51343 0.845288
718 1 -12.0526 -5.87276 4.90247 -0.605078 -1.16046 1.72682
719 1 13.2924 -7.98623 9.82892 0.768931 -0.386244 -1.49369
720 1 5.31585 -3.4437 -19.7357 2.52341 -0.68482 2.2995
721 1 -6.87211 -9.7588 -15.0472 -4.52528 -6.41561 -1.23108
722 1 8.19956 -21.6268 -12.6649 3.78405 -5.43916 -5.2987
723 1 -22.8611 12.5855 -5.90509 -1.09438 3.32657 5.68244
724 1 -8.23605 22.9895 -9.36589 2.22066 -6.01359 -4.61969
725 1 2.28332 18.8628 -24.3429 -0.771563 1.76866 -2.71969
726 1 -4.93523 -6.25348 23.1611 0.380275 3.59471 4.23453
727 1 6.20144 -3.91338 -14.2273 -4.15292 0.50598 -2.30601
728 1 -12.899 15.7479 -8.33925 -0.628793 -1.52642 2.9633
729 1 -13.9614 15.1652 15.5948 0.0994081 -2.50043 0.73115
730 1 15.3424 -20.2305 -18.1321 -5.88943 -1.28127 1.91976
731 1 -12.1422 12.3363 -23.1759 -0.538125 1.03478 3.57302
732 1 11.2702 -24.0489 -6.39484 0.305317 3.40389 1.40704
733 1 -14.5773 -18.1523 5.3652 -2.67068 3.148 -1.26314
734 1 -19.1919 24.1518 19.6089 -1.71623 -5.39347 0.707325
735 1 16.4452 8.20209 9.80069 1.73229 -2.50761 -0.56156
736 1 4.98722 20.1479 -7.43176 1.30553 2.08993 -0.531728
737 1 21.0995 -14.4689 7.40392 7.04644 0.879337 0.889163
738 1 -8.72604 4.83806 16.6247 -0.563264 0.728187 0.411226
739 1 -19.2742 -20.2022 2.29514 -3.74816 -0.12234 -4.81407
740 1 17.1261 11.8458 20.764 -0.616012 5.81193 1.6492
741 1 -16.8755 -21.4469 -10.6074 3.80032 0.343713 -0.219379
742 1 -6.949 -23.5364 22.5815 -3.7149 2.24874 -2.20443
743 1 -23.6745 20.8494 1.97796 0.735801 1.79641 3.96067
744 1 9.70116 -12.2711 -11.6116 1.88026 0.701314 -0.120088
745 1 -22.0513 3.49604 20.0702 -1.81193 -1.61675 -1.962
746 1 -17.2306 -7.85079 22.5781 -0.0993859 -0.29024 0.428173
747 1 11.9179 -10.0414 2.66367 -4.29733 -0.0218889 -1.93646
748 1 -12.528 -20.2319 22.0169 -5.24116 -2.2638 -0.617482
749 1 0.576749 11.5691 7.16238 -5.10198 -3.66807 -5.30637
750 1 17.4346 -6.77393 -12.2181 0.79964 -1.5083 0.448109
751 1 -20.4936 10.1113 -13.7865 -1.04028 -1.43663 2.33394
752 1 22.9519 -20.6791 4.61758 2.2396 -2.16429 2.78889
753 1 -18.136 -16.7542 22.6371 2.32916 1.35585 -0.704562
754 1 -14.9908 23.0904 15.2395 -2.76716 7.6559 -5.38837
755 1 9.87739 11.4267 -20.6264 0.380328 0.753625 -6.38176
756 1 -6.22197 -5.52944 -2.77216 7.93211 -1.82372 3.94033
757 1 -17.4801 12.9783 -6.58781 -0.818405 3.24284 -0.0242425
758 1 -14.8633 -17.8564 19.5607 -1.07704 -0.851522 -2.76502
759 1 -0.32459 12.5622 -12.7505 -0.364853 0.441875 -0.566758
760 1 1.57035 5.24555 13.74 6.02892 1.02879 0.559332
761 1 -10.0779 -14.7476 -5.91836 -3.01735 5.15236 1.03397
762 1 4.70243 17.4389 23.1004 -0.757233 -2.25154 -3.03363
763 1 15.6083 5.39883 9.38646 -2.39537 -1.73738 -2.12578
764 1 19.1874 6.22207 7.91315 2.58463 0.238104 0.563746
765 1 21.3818 13.1099 11.0116 -1.48513 4.08335 2.41808
766 1 -10.1217 18.4895 -16.7786 -1.04877 1.56851 -4.60153
767 1 -2.78881 -12.3834 -0.313562 2.87128 2.54348 0.525578
768 1 -8.23442 9.06939 8.07085 -0.948107 1.01258 -2.25921
769 1 14.4069 25.6079 19.4913 -2.36976 -2.11579 1.28011
770 1 -6.60028 21.7021 23.6195 4.10758 1.54766 1.17725
771 1 8.15626 -16.3156 9.54251 3.13662 0.802242 3.326
772 1 7.09054 7.21143 5.98429 3.98731 1.78083 1.91463
773 1 11.2124 -19.6301 12.2247 -0.47997 1.00471 -3.0285
774 1 16.6288 18.7079 14.5408 1.40432 -2.09712 5.40172
775 1 21.5489 -21.2984 -10.8354 0.793785 -2.69622 0.243887
776 1 8.88488 -0.204504 22.2754 -2.34801 -0.360314 1.46484
777 1 22.5752 -10.8078 -12.4516 3.85197 -1.79103 0.875619
778 1 1.12965 -18.1317 -15.2019 -2.61864 -5.49776 -0.534662
779 1 5.28057 3.83718 -8.68692 -4.38344 6.2397 -1.32724
780 1 -5.27773 -11.6119 -19.8134 1.18716 2.79319 -0.0717369
781 1 -20.1663 1.85724 7.80355 2.55823 4.45046 5.01114
782 1 20.2516 -7.63236 -15.4555 -3.3502 -2.31463 -0.123997
783 1 5.20209 -15.3561 22.3111 -4.00598 6.30214 -0.0928771
784 1 12.5996 13.0931 -3.63336 2.49204 5.27834 -4.00619
785 1 -2.20894 20.8184 20.58 2.65401 0.00927905 1.47914
786 1 -22.0489 20.8165 21.5116 -2.91962 -0.997498 -4.88389
787 1 8.97402 15.0517 -12.1399 -0.843093 -3.83357 -0.715216
788 1 -19.8469 6.30338 8.28389 2.88335 -1.01898 0.090958
789 1 -13.5229 19.8745 -0.206293 3.51861 -6.24311 -2.31927
790 1 3.30993 1.6881 15.1753 1.65667 4.12827 -2.40816
791 1 -3.68817 21.2275 13.4265 -2.83369 -3.89225 0.0298846
792 1 -22.727 14.5525 -8.12237 0.0903161 -2.91623 0.58752
793 1 -23.5753 -11.0408 0.885078 3.6075 0.420272 -1.63292
794 1 5.0933 16.9485 -22.3196 0.5554 3.38131 -1.38274
795 1 19.852 -7.6208 20.9779 0.284355 1.08822 0.525972
796 1 -10.9155 -14.2322 -14.4909 3.3053 -3.7135 1.0421
797 1 -19.3866 -13.9183 13.2709 -0.0813464 0.716352 -0.52239
798 1 -16.2719 1.90302 -8.62296 2.34262 -1.13854 -5.89452
799 1 -11.5117 19.1749 -2.23788 -2.21414 1.46404 -0.364809
800 1 -18.1972 -10.4832 16.7891 -1.40174 -0.959349 0.150973
801 1 20.4137 15.265 -2.45956 -1.23558 0.824014 0.614722
802 1 -20.2679 -18.8248 15.2104 -0.881475 -0.652029 5.0364
803 1 18.7526 -10.1044 -9.48492 -1.79876 3.29058 1.31509
804 1 9.28505 -21.1847 -7.60054 2.15088 2.90266 -7.04352
805 1 10.0419 24.5432 23.2519 -1.57851 -1.60918 2.72754
806 1 -1.76382 -13.3085 12.1406 3.89056 3.26051 2.97574
807 1 15.887 22.1632 -21.6198 4.00708 1.29837 2.32875
808 1 -1.88732 -18.0999 -12.1056 3.20399 -1.77327 -0.994852
809 1 -5.61266 22.3822 -18.4892 -3.03777 -6.86342 -4.10109
810 1 -20.5981 -16.919 -5.84019 -3.736 -3.37983 2.93167
811 1 -15.4347 -7.24819 -6.87783 -3.43988 -5.25307 -1.75731
812 1 4.06761 -12.2531 -9.39631 6.0837 0.63612 -0.0648613
813 1 -13.7627 24.6396 -17.8695 -2.3826 -6.42398 1.63235
814 1 -20.559 -2.47393 -1.17424 0.342484 0.637108 -5.02615
815 1 -21.6339 10.7915 -17.0232 0.711256 -5.49883 1.84333
816 1 17.9678 -17.527 17.6376 -2.21728 0.453252 -0.781771
817 1 7.2383 -11.9803 16.2608 2.2369 4.1266 -1.38902
818 1 -11.4959 6.7649 20.417 -2.79539 0.809531 -2.21522
819 1 9.23861 12.6367 19.0137 1.80548 4.90299 -0.484269
820 1 3.40244 14.3435 8.99111 -3.32246 2.10746 0.354181
821 1 -23.1357 -22.9729 -22.9963 0.207619 2.10196 -1.47079
822 1 20.5867 -14.5672 16.3515 -1.04677 -0.991998 2.76494
823 1 7.04637 -10.7521 3.63671 0.459514 -0.405801 4.87968
824 1 4.10103 -19.9109 -8.153 -2.47557 1.69342 -0.62033
825 1 -24.4752 4.10943 4.34525 1.65098 0.248356 -3.49478
826 1 -13.4369 7.75464 -5.41091 0.499572 -0.855733 -0.153007
827 1 -3.01237 0.432092 5.69753 5.94769 1.07119 -2.53422
828 1 -8.18565 -18.5832 13.0312 -0.47447 2.22553 -1.34744
829 1 19.0464 14.0789 20.5405 -1.9973 0.368937 1.86663
830 1 -10.0009 -11.2067 21.1802 3.95189 0.252042 0.318228
831 1 3.13609 -14.4398 -23.9255 0.853959 2.00475 -5.70919
832 1 -5.9781 -4.16167 11.0958 -0.0720688 -2.85281 0.430551
833 1 -14.0026 -3.97199 -7.58414 -6.10491 2.77177 -0.448683
834 1 -0.489868 11.8174 -2.00105 0.758594 5.89142 -5.57474
835 1 2.3332 6.90684 -21.343 0.908441 -4.45072 -0.0880804
836 1 5.14035 -12.5704 21.8639 -0.709649 -1.65679 -1.02139
837 1 -18.8322 -18.8221 -7.45616 -3.66157 -1.0385 -5.87902
838 1 -24.1773 -19.3289 2.47928 0.378511 -2.00626 -1.34265
839 1 -20.9653 20.6126 -11.0966 3.04286 -1.69545 -3.4315
840 1 4.01958 -16.8552 11.8711 1.90579 -1.7051 -1.3532
841 1 19.1352 3.74881 9.53949 -1.33852 -0.773802 -4.12536
842 1 -7.86014 -22.0783 -3.67364 0.0946115 -0.151438 -2.68214
843 1 19.4753 -5.34274 19.4361 -4.3399 3.14272 -2.55497
844 1 18.5924 -17.5381 -22.6443 1.29043 -2.28273 1.34262
845 1 19.4377 6.31791 -2.17811 0.370375 -1.04969 0.511785
846 1 8.95508 7.49083 -12.884 -3.79887 -1.43266 2.2415
847 1 -12.7728 -24.5762 -14.743 -0.526217 1.18033 0.628946
848 1 -5.62198 16.5832 -13.4175 0.552158 -5.17184 -0.0707346
849 1 22.5798 -13.8196 -11.6604 4.3391 3.45147 -2.0103
850 1 17.6337 -19.8531 -23.8333 3.1288 1.53117 -4.60322
851 1 -23.7322 15.0093 -13.2926 5.56054 -1.75797 -1.79869
852 1 12.0624 -0.962454 -2.33632 3.10579 0.727807 -4.63979
853 1 12.5007 10.7418 -12.8234 -3.63283 -3.3853 3.75829
854 1 -22.8238 -13.4268 4.46801 0.788797 3.65657 0.67544
855 1 -17.2825 22.2818 -19.9496 -1.95855 0.660241 -1.80111
856 1 -20.7412 -3.41522 -7.68575 -0.285602 1.85157 0.900036
857 1 -23.9818 -6.23161 8.71052 1.70298 1.64462 -0.881444
858 1 16.7897 -12.5878 14.7328 -4.94428 1.79827 -3.3318
859 1 -14.0948 -8.93351 1.24683 -2.74294 -0.235242 0.85679
860 1 12.5092 -11.3068 -15.3256 -2.70377 1.17443 3.37636
861 1 -23.2617 19.4686 -13.0714 0.190585 -0.604882 -1.17536
862 1 0.489768 14.3922 -10.554 0.0699949 -1.52678 -4.32192
863 1 18.8671 -15.6443 5.64789 0.265509 1.97792 -1.52691
864 1 -15.2875 3.86706 18.6931 0.34156 -1.56133 -1.00631
865 1 -0.227298 -20.7823 12.9092 1.07963 -2.1914 1.04887
866 1 13.9602 -2.81958 22.8575 -0.970129 -1.23677 2.17119
867 1 -3.66119 11.5976 21.1652 1.80865 -7.85016 3.63919
868 1 1.23915 17.6488 -3.76087 0.153592 1.05662 -0.997776
869 1 -0.296369 18.5624 3.85159 4.19045 -2.23808 1.44618
870 1 15.366 20.5027 19.6358 3.58493 2.91385 -0.832952
871 1 4.5 8.20054 -17.8464 -6.66644 0.874247 -5.71857
872 1 -2.33411 -8.294 -22.0252 3.64736 3.94986 -0.0438284
873 1 -4.82048 -0.102269 -22.4831 -2.35609 3.41395 3.9134
874 1 13.2973 1.52176 0.689745 0.174172 4.42676 -1.08699
875 1 21.6048 15.7624 10.1396 -0.391024 1.26877 1.97679
876 1 14.0739 -15.7394 -7.7235 -0.847497 2.52888 1.78291
877 1 1.31229 -20.1822 18.3373 1.00892 2.58524 -3.5868
878 1 5.16716 12.9767 -23.259 -1.22771 -1.90167 -2.24687
879 1 15.1128 5.31067 -17.2178 0.324825 -1.7286 -1.66364
880 1 2.85084 15.2472 19.5765 2.19163 -1.71656 -3.31072
881 1 -1.58078 -4.34467 20.5615 -1.26339 2.24326 -0.27302
882 1 -12.2163 -2.57293 -2.85774 -0.426174 0.144625 7.95627
883 1 16.689 18.2549 -7.90732 -1.8757 0.194299 1.29812
884 1 18.5307 -19.2867 -15.4571 0.774612 -1.84951 -3.07685
885 1 -6.27231 -18.8673 -2.7466 -2.11468 2.37129 -1.90382
886 1 -4.9212 23.2027 4.28699 1.44936 1.5386 -1.23832
887 1 10.0556 -23.1795 18.8043 5.48434 -3.82492 -0.0535623
888 1 -9.21518 10.7714 -16.8896 -3.62759 3.94077 -0.444683
889 1 -15.9311 -4.51672 15.4176 -3.4378 -2.1612 2.39011
890 1 11.4932 -17.0806 13.9304 -1.66705 0.252005 0.584392
891 1 -23.9388 -2.93442 4.48549 1.3809 -2.16292 1.13168
892 1 4.99467 -9.70013 -3.75026 -5.42185 1.29396 7.1805
893 1 21.3909 -4.85752 0.331952 2.36807 3.33509 2.82835
894 1 -0.863701 10.6753 20.8357 -3.64983 -4.51718 0.208699
895 1 2.24361 -23.387 5.87495 -3.62797 3.88129 -3.57731
896 1 9.81739 -2.8261 20.0472 0.889903 -0.098428 -2.05763
897 1 -13.187 -23.279 8.99771 3.89333 -1.77989 2.31423
898 1 16.5634 1.50124 -23.7738 -3.13359 -3.41671 0.744809
899 1 14.5321 -18.7212 15.3772 0.252868 1.37652 -4.82609
900 1 -14.0206 -15.021 -14.8019 -3.39099 0.109379 0.704996
901 1 2.95772 -20.7154 8.89853 5.61491 -1.00862 -5.5891
902 1 -6.26394 17.2613 -1.70098 -2.59454 1.70158 0.668895
903 1 -5.60476 23.5354 -21.1747 -1.71881 0.802853 -4.31473
904 1 -10.4348 -7.56519 -6.61174 2.39035 -0.342201 -3.93275
905 1 22.2172 -7.3294 23.8664 -5.43954 -0.402605 1.66303
906 1 -6.67544 -23.5032 16.9609 -5.68361 -0.365937 -6.71166
907 1 -12.9147 3.85466 -12.9353 -1.36131 5.62865 -0.0413091
908 1 -8.75907 -15.6265 12.7218 0.367703 -2.77342 0.0923304
909 1 16.1098 -20.2104 10.6537 -0.718185 -2.69661 0.213649
910 1 -9.55482 5.24651 -4.00465 -1.15644 -1.17564 3.79541
911 1 -1.93711 11.2779 23.6531 -2.20773 2.10309 -4.56434
912 1 -16.9851 20.7551 -9.1902 1.5015 -2.12697 4.02721
913 1 -3.4157 22.961 15.8737 -2.32037 2.23937 -0.491037
914 1 -22.74 15.2922 10.9322 -0.185895 -1.24781 0.321972
915 1 16.0589 -7.96616 -14.4462 -3.0175 2.94601 3.33656
916 1 -16.576 -15.5564 20.4636 -2.52905 -2.04457 -0.863029
917 1 22.9161 3.09436 -21.321 6.43048 -1.12663 -4.39968
918 1 -5.71312 7.60573 1.19596 1.59647 -3.5711 5.19256
919 1 -10.2392 16.3821 10.3176 3.83007 1.84375 0.661622
920 1 -0.0901151 14.7137 -19.5826 -3.11122 -0.302423 1.49489
921 1 9.61972 -9.61791 -20.2595 0.536595 0.458909 4.52792
922 1 -11.6422 3.15457 -20.5172 2.1283 5.05164 -1.1704
923 1 3.91048 -11.4698 0.582865 -0.586851 0.00919765 2.03348
924 1 -6.04591 15.2162 4.645 -3.5602 1.47231 -1.36696
925 1 1.34823 12.7315 -3.92147 -1.74074 1.78562 2.77544
926 1 1.12641 -15.1518 7.78003 3.50545 5.9824 -7.68142
927 1 5.6623 12.25 18.3094 2.01864 2.0017 -2.85408
928 1 7.27241 -19.0242 10.2614 1.69888 0.460927 -0.67261
929 1 -7.6409 -15.4157 -4.27562 -0.480267 -1.85941 1.72555
930 1 -19.2403 -20.4929 -14.2107 -1.56744 3.71363 -1.05704
931 1 18.1833 -1.31293 -7.57926 -2.97458 -1.42887 -3.11912
932 1 -19.3045 16.1481 15.3777 1.50791 0.995976 1.5499
933 1 -18.7008 -21.4727 -23.6903 2.74469 4.0168 0.597352
934 1 -3.35071 16.411 -21.9032 2.48012 -2.61931 6.59667
935 1 23.3073 -12.8905 -3.4121 1.70591 -0.546995 3.30966
936 1 8.57428 12.606 13.1564 -1.61606 -2.03665 -1.39183
937 1 1.29249 12.927 21.2311 -2.49785 2.53184 -6.30905
938 1 18.7766 8.34731 5.93208 2.02067 -1.00381 -2.17976
939 1 -6.87717 -13.2639 -16.1981 -4.22863 -2.83434 1.29095
940 1 22.3283 0.925033 -7.91029 0.0629408 1.75031 -1.75446
941 1 -20.8952 22.9393 7.4138 -0.688851 1.74494 -3.3546
942 1 -5.9121 -16.6119 -20.719 2.63655 -2.60732 5.36456
943 1 18.9687 -4.43333 1.59694 -0.042798 -4.85935 4.01615
944 1 -15.9871 -3.8158 23.0466 -2.7364 -3.1061 -0.899925
945 1 4.9098 -23.3967 17.4384 4.09179 -1.32462 -0.135826
946 1 -15.0406 -7.94848 7.02905 1.84164 0.171417 1.98481
947 1 -9.44977 17.5296 18.7694 -3.13651 0.219107 -4.22728
948 1 -21.4617 4.87525 -6.58836 2.84504 -1.80612 -1.68855
949 1 -4.22294 14.019 19.651 0.62115 2.70384 -0.922948
950 1 -21.6309 6.17565 11.6109 1.4588 -4.86678 4.03274
951 1 -9.24119 -24.2824 -14.9718 3.67541 0.966587 7.04856
952 1 12.1765 -14.4195 -9.49526 0.770382 -7.8869 -5.59613
953 1 16.1012 -2.33235 2.41083 4.54413 0.0278714 1.86919
954 1 15.3429 8.22427 -9.16752 3.41803 -1.77186 -2.85758
955 1 -11.4859 19.3741 -19.0928 1.62135 1.37338 -2.20324
956 1 -12.1011 -7.83891 -9.45907 -2.47313 0.81114 4.81951
957 1 -4.98928 -1.74332 14.9301 1.58016 0.538372 1.02453
958 1 2.14526 11.8522 18.5588 -3.97814 -2.39609 -1.05304
959 1 -14.4658 -16.3889 -22.5393 -3.58918 -3.86274 3.39888
960 1 -2.37558 -22.7412 4.19674 0.371214 -0.538801 -3.45903
961 1 -6.11506 13.5587 0.599392 5.07522 1.21143 0.881677
962 1 -4.05991 5.88227 -6.82762 3.61897 -8.30012 1.91352
963 1 -16.8636 25.1338 -13.6179 -1.43865 -0.802783 6.92077
964 1 11.2889 -16.5188 -22.7632 -2.2446 0.373517 -1.28225
965 1 -13.568 11.5103 6.04223 1.62386 3.64732 -0.256291
966 1 -18.7615 -7.13244 12.4688 2.22881 -2.71977 3.20471
967 1 20.38 -4.8477 -15.7259 1.61128 -2.44437 2.96773
968 1 -2.92556 24.5706 -15.2983 4.97188 4.09082 1.52615
969 1 15.0976 -22.953 3.98988 2.01638 1.06069 -1.86173
970 1 -4.17787 -23.7828 -9.26503 -0.413775 2.98211 3.61081
971 1 14.8317 -5.48511 21.6667 2.33407 -1.70513 2.51122
972 1 -8.93231 -19.5522 -0.306541 -1.89999 1.29056 1.68225
973 1 -11.1757 -4.3297 17.4216 3.77161 -2.94485 -0.311673
974 1 -1.49756 23.2595 -12.8242 2.01837 -3.82356 -1.8239
975 1 -12.349 -10.2169 5.13748 1.80607 -1.64034 0.313918
976 1 -19.8984 -7.06426 8.47434 -2.59233 4.74769 1.5685
977 1 4.05902 -22.9043 13.4272 0.0762854 -0.103541 2.42357
978 1 3.12298 14.9245 22.5458 -3.15108 -3.83704 6.79241
979 1 5.38739 24.7303 -19.631 0.0902145 0.721698 -1.1786
980 1 6.52086 20.7721 11.1569 -2.31093 0.759886 0.772782
981 1 5.43672 -3.36708 -6.14616 -3.56002 -1.69429 2.22404
982 1 -5.2862 -6.93828 4.7258 -2.2562 2.61513 1.63698
983 1 -21.1126 7.36537 17.4109 -3.3981 -0.0907569 -0.734563
984 1 -14.4727 17.2094 -4.83247 5.73667 3.60194 2.74744
985 1 -17.3483 18.7935 11.817 1.17875 2.17817 -3.40191
986 1 -0.438667 4.80605 10.204 3.79765 -0.975735 -0.0530382
987 1 -24.4803 -16.4226 10.6803 2.22119 0.699446 -3.01465
988 1 -10.3794 -23.909 8.98949 0.73193 3.59047 0.33267
989 1 6.31858 2.18057 -6.68858 -1.06575 -1.43872 -2.43812
990 1 11.8979 -6.60784 13.9699 4.54609 1.53529 -3.52593
991 1 -8.40402 -8.15636 6.83686 -2.47381 4.03665 -0.423568
992 1 -22.1259 9.49441 2.35852 -0.278896 -0.538077 5.89003
993 1 -22.1805 1.0258 23.7634 4.2216 5.60886 -0.420204
994 1 21.5836 -16.4175 18.4214 1.09346 3.62227 0.455647
995 1 8.55436 1.53927 -0.00487079 1.56137 -2.03766 5.10819
996 1 19.2784 13.2743 -16.0667 2.61377 -1.87102 -1.56561
997 1 -23.19 24.602 -23.7872 1.09001 2.1482 1.72856
998 1 -2.88297 10.5142 10.5252 1.89838 4.01368 -6.93805
999 1 -22.4162 10.517 6.9997 6.37901 4.39664 0.346316
1000 1 16.6883 16.1468 -9.80986 -4.7546 0.0567133 2.94462
1001 1 -21.4392 -4.60078 -5.10393 1.88046 1.99785 2.29413
1002 1 -13.7142 -15.9362 3.29451 0.194435 -0.859057 5.46201
1003 1 10.245 -13.0223 10.4266 1.63018 3.61807 1.65455
1004 1 23.1356 23.7445 8.9848 -1.59321 1.3026 2.30355
1005 1 -14.8882 17.8234 1.15028 -5.51602 -0.479572 -3.95703
1006 1 -22.5923 9.32098 18.8565 -1.17237 1.23542 0.307259
1007 1 12.5099 -0.547948 18.5279 -1.23114 -0.471443 1.39614
1008 1 4.30381 -2.92724 15.0565 3.71071 3.09604 2.42957
1009 1 9.9422 -15.1726 5.58253 1.54971 1.01395 -2.06598
1010 1 -11.2869 3.5075 -9.40687 0.584265 -5.65168 2.83575
1011 1 -18.4361 -0.185283 1.83422 0.0253137 4.11279 -3.08289
1012 1 0.251107 2.80368 -1.35078 0.29145 0.741821 3.93755
1013 1 2.08461 -14.4893 3.2033 0.382713 -8.89795 0.874026
1014 1 -22.3742 -22.417 2.39315 4.04158 3.16953 2.02637
1015 1 -0.806347 4.87999 -21.5568 -3.61982 0.200797 -3.15545
1016 1 -22.7941 2.65728 6.31193 -0.734717 -2.47398 2.57071
1017 1 -8.38446 4.00563 12.0474 1.66649 1.5835 -0.00786435
1018 1 -21.7147 -20.9899 6.22025 -2.28785 2.05016 -1.21972
1019 1 8.24773 17.0765 1.6393 -2.51987 2.32408 -2.93642
1020 1 -20.1347 -24.061 10.5743 -0.826149 0.135331 3.54059
1021 1 19.8617 -19.4218 -3.88769 -2.36131 -1.5241 0.116403
1022 1 -7.37292 -22.7 -11.1108 -0.26192 -0.98686 1.25503
1023 1 11.6028 -0.469724 5.10575 2.88505 -6.0835 -2.86801
1024 1 -3.60953 9.09437 22.7186 0.234599 3.22249 -1.74516
1025 1 6.7989 5.67686 -19.4153 2.2934 -7.63163 0.677122
1026 1 3.20441 14.1862 -10.6514 1.50269 3.99436 -2.53821
1027 1 -22.6305 -6.76162 13.9144 0.630456 5.55905 -2.79762
1028 1 -6.40302 -11.44 -12.7925 3.32141 4.58733 2.38644
1029 1 12.0303 12.5994 1.72741 -2.05596 -2.77462 2.01821
1030 1 -16.0389 -17.6441 23.8851 2.59708 -2.63972 1.4158
1031 1 -3.72363 -12.9797 -4.07712 0.267146 -2.59824 3.21228
1032 1 10.8292 8.17753 18.1482 4.59827 1.97383 0.887854
1033 1 -6.22143 -18.6598 1.9817 0.64144 -1.61949 -2.34943
1034 1 -14.7701 11.996 -12.0889 -3.52904 0.69004 4.79008
1035 1 12.2044 20.4394 -3.22166 -3.74618 -5.74952 -1.17332
1036 1 3.57578 -12.1159 18.1988 4.14952 1.11077 -1.90317
1037 1 -12.6658 -16.008 18.8604 4.18303 -3.91717 -1.24698
1038 1 -2.52369 6.95443 10.0942 2.73642 -3.81726 3.50855
1039 1 22.6908 19.8814 -11.0595 2.42197 -3.89122 -3.66644
1040 1 9.45437 -1.38857 -23.4594 0.12103 -2.80562 -1.26262
1041 1 -1.43278 8.87968 -13.4429 0.244912 -0.064954 3.72232
1042 1 13.9858 -5.21356 -23.8607 -5.40794 -0.795366 -0.930622
1043 1 16.0248 10.1684 -5.53637 -2.15142 5.2242 -2.5596
1044 1 -5.69032 21.8518 -9.71471 4.27906 -0.707652 1.71121
1045 1 -5.64951 -2.7152 22.9081 -0.512198 5.22537 -0.00808238
1046 1 15.6418 16.2792 -15.7574 -2.3461 0.0726914 2.20424
1047 1 -17.6982 1.16245 19.7493 -0.351499 0.479751 1.60372
1048 1 0.0299798 0.805242 18.6462 1.75758 -4.42295 -4.84484
1049 1 -24.4615 -1.10825 -12.4815 -0.325012 1.78176 1.42828
1050 1 17.7141 21.8163 19.5455 -2.71178 5.42078 -2.48384
1051 1 1.51617 -1.91037 10.9309 1.89195 1.03693 -1.8484
1052 1 -20.5033 -2.9484 -20.0249 3.51901 -0.015638 -3.03279
1053 1 3.0077 5.97351 -18.5896 0.769477 0.60426 1.64811
1054 1 -14.8617 22.3709 0.466474 -0.216951 0.54366 7.69163
1055 1 -8.68063 16.8172 15.8101 2.62528 0.856765 2.45275
1056 1 -8.81652 17.4192 5.133 4.28787 3.5215 -1.61895
1057 1 -9.84197 -16.0685 -16.5914 0.18856 4.69619 -3.13531
1058 1 -0.27016 -3.27619 -8.57802 2.63381 4.91594 4.44505
1059 1 4.29187 -22.4227 -14.9426 3.60567 -3.15719 5.42441
1060 1 -18.3104 -11.3484 6.29635 -1.49018 0.532418 -1.50305
1061 1 7.68009 8.43242 -15.2817 0.338076 -2.57574 -6.49476
1062 1 -9.54036 -1.19176 9.48524 -0.36002 -2.30805 2.5867
1063 1 1.57277 18.4735 11.4592 -0.223426 -0.350163 -2.36313
1064 1 14.347 -16.1597 7.42812 -3.90892 0.101622 2.92435
1065 1 13.8606 19.0983 -16.7219 -0.840163 -0.305164 2.43863
1066 1 16.0062 -2.40914 -22.7169 -1.03093 -7.29612 0.0811779
1067 1 -22.7401 6.28152 9.08078 -0.283289 -0.228221 -2.4519
1068 1 -2.92312 19.4192 0.638687 2.29857 1.30411 -3.01457
1069 1 23.4962 16.0156 -20.7884 4.03047 -3.99536 -3.82736
1070 1 -7.11705 6.48527 8.63948 1.74173 2.11727 3.69636
1071 1 -19.0736 23.4251 -12.3166 0.748644 -0.327562 0.426783
1072 1 13.8802 8.96232 -17.8677 -0.960882 1.87372 0.490102
1073 1 -0.299225 -22.9745 -10.8852 0.869401 -0.449665 -1.93701
1074 1 -11.9134 11.5471 -16.0936 1.86603 3.84646 -0.597761
1075 1 -2.56703 10.7583 14.5159 1.88858 4.09117 -2.76464
1076 1 21.3878 4.1032 -23.4806 2.429 -5.69292 0.495868
1077 1 16.3818 -8.53367 -9.25235 0.734518 1.77753 -2.60042
1078 1 10.7494 -7.53579 11.3487 -4.63459 3.22045 2.79827
1079 1 -17.1841 -0.517709 11.2307 -0.230544 0.872355 -1.63663
1080 1 -19.0068 -9.90146 -9.75624 5.30312 1.04822 0.880031
1081 1 8.70184 -7.79517 16.583 1.04229 -0.52026 0.704486
1082 1 -16.5524 -19.576 -5.85481 -5.58882 -0.546082 -2.62395
1083 1 -1.60425 20.344 -19.1974 -0.929721 1.42942 -0.565249
1084 1 -2.08717 -14.8118 -5.58492 0.261911 0.139787 4.60093
1085 1 -10.0392 -17.3627 -4.51951 0.850117 2.31789 3.32804
1086 1 -11.6172 9.10031 -3.89547 4.17078 -0.850223 -1.36276
1087 1 9.34872 0.344623 -17.3863 -2.16993 3.12834 -3.29348
1088 1 -22.685 22.65 5.13084 0.717517 7.08289 2.387
1089 1 -15.1509 8.56212 14.8979 0.177495 6.86945 0.809764
1090 1 -21.8441 -20.6769 -12.4709 4.13861 4.46683 3.11371
1091 1 -15.5133 9.59675 5.60169 -2.51471 2.98066 5.70877
1092 1 -18.0257 -19.418 -3.13176 0.923254 3.45775 -1.03203
1093 1 -23.9833 6.1249 6.27949 -5.88315 -6.43878 1.21897
1094 1 23.4533 20.9805 -21.6766 2.41439 -3.63998 1.09736
1095 1 -7.36982 24.0642 -12.0689 3.75816 -4.6465 -2.63235
1096 1 9.89107 21.3544 -11.4152 -3.39868 -3.34886 3.20361
1097 1 19.0467 22.7088 14.8032 -4.91231 3.29174 1.8797
1098 1 -11.9707 -1.5101 19.7606 5.19461 2.58029 1.80635
1099 1 16.4059 11.2772 16.7142 1.23617 1.46072 -1.84453
1100 1 10.1612 -9.04828 20.486 -9.36499 -1.91481 -3.02072
1101 1 6.32395 -14.7922 11.3081 4.05859 -0.504767 1.0046
1102 1 13.8404 -13.2641 15.6026 1.22041 -1.09303 2.56567
1103 1 22.7879 7.94349 15.82 -3.00662 0.272463 3.49044
1104 1 -24.5559 -2.35194 9.77103 -1.08228 -1.204 -3.5367
1105 1 19.9015 1.71001 -0.761843 0.247228 -3.16073 2.07776
1106 1 -17.5134 -18.198 5.52975 1.05398 -2.06598 0.963215
1107 1 1.02222 -14.983 0.604937 2.01818 -1.4629 -3.37489
1108 1 14.7437 13.0514 -22.3627 1.95998 -0.940259 3.42252
1109 1 -17.8998 -11.0358 3.41339 1.64274 -4.44394 -2.59914
1110 1 -9.96623 22.4715 8.92904 -3.71772 8.08643 -0.856815
1111 1 13.0495 -10.2541 6.20302 -0.736329 -0.121907 3.20638
1112 1 -1.25124 -15.8271 16.3859 -0.653662 1.27673 -1.99355
1113 1 -19.7709 19.7367 22.9658 1.72458 -1.50236 -0.474154
1114 1 -19.8712 -4.60612 11.7618 -0.355006 -3.0078 0.215644
1115 1 22.5099 23.5273 -22.8829 1.64399 -5.14676 4.49273
1116 1 -16.3785 1.03629 7.46815 2.78592 -3.56485 1.90417
1117 1 -4.50519 13.9021 6.98085 7.14616 -1.80059 -0.779812
1118 1 21.2486 -1.9334 -13.5142 0.669785 -1.06968 8.12019
1119 1 8.26836 -9.5626 5.97416 3.10163 2.71582 1.0599
1120 1 -5.42668 -16.1468 -2.62231 -0.396925 -1.84938 6.65296
1121 1 13.7561 -2.42874 -18.1684 -2.41088 4.4412 -1.85077
1122 1 -8.44289 23.1787 -1.96837 -1.46767 -3.7398 -0.895642
1123 1 15.3317 -6.22475 -3.69914 -7.37903 2.58168 -0.00616662
1124 1 -2.75839 13.3671 -15.8732 -1.04963 3.59025 -2.63273
1125 1 -21.237 6.43045 5.00232 -3.32566 -3.239 -4.89112
1126 1 -1.19846 -11.1748 -10.6363 -0.871198 -1.27187 -3.22858
1127 1 14.6449 20.45 -8.39501 0.497658 1.17577 -2.13637
1128 1 0.54512 13.2587 0.429656 0.60169 -1.77273 0.835501
1129 1 1.79173 -9.20259 -23.835 0.468377 0.161068 -2.62996
1130 1 -0.95547 14.9451 -14.3532 0.243874 2.63705 -3.63956
1131 1 17.9603 -8.20609 -4.08805 7.62295 0.935272 1.63767
1132 1 22.31 -4.71382 18.9315 -3.30551 -4.78193 3.2282
1133 1 11.4656 14.4277 19.5091 0.984534 1.9886 -5.18925
1134 1 10.3679 -19.1754 17.1725 7.68044 -4.54027 6.83573
1135 1 5.3646 -1.73987 22.6618 2.68331 0.00872053 1.06804
1136 1 -20.487 -20.259 -21.7384 1.86345 3.10289 -1.11832
1137 1 4.60951 3.89776 2.33487 -0.154572 1.2733 0.478978
1138 1 -22.3931 -23.4626 5.09069 -6.37043 -0.739429 -2.8116
1139 1 -4.319 9.17723 3.38196 -2.44143 -2.08781 -2.33831
1140 1 14.6998 -8.54654 -17.7419 -4.09629 -6.81338 0.291409
1141 1 -19.4357 7.6229 12.0263 -0.731429 -0.181694 -0.193433
1142 1 8.5409 13.823 5.02495 -2.65339 0.93587 -0.354119
1143 1 1.33777 -7.31944 -13.4535 -0.41141 0.965359 -6.99594
1144 1 17.151 3.17117 -12.0744 -0.680704 -0.631458 -1.25791
1145 1 2.3923 19.9389 21.4867 -4.82023 -4.76388 -4.81582
1146 1 10.5453 16.3233 21.4183 2.31809 -1.27142 -0.241933
1147 1 -6.33332 11.2239 2.06689 -7.17446 3.97369 0.526559
1148 1 -10.8296 7.91712 12.128 1.99174 1.61853 1.35153
1149 1 1.92737 -15.1407 10.6854 0.61652 1.78657 -7.24748
1150 1 -12.8319 13.5393 8.19249 5.47875 -5.94492 -1.05637
1151 1 21.4033 -23.9118 19.9595 1.50437 1.10693 -0.803711
1152 1 -14.0261 15.4078 18.4913 -1.14511 5.40835 2.74427
1153 1 -3.74306 -22.3524 -0.640273 2.88091 1.38359 -3.71506
1154 1 -1.46374 12.0597 -21.938 -4.89947 -5.40107 -1.62359
1155 1 5.2316 -19.4506 16.0737 -1.31889 0.904489 -3.56532
1156 1 -17.9128 -12.3945 23.1727 0.768193 0.997346 -1.26638
1157 1 3.59113 2.41786 -10.4663 2.46632 -2.87008 2.18156
1158 1 -18.962 -0.271857 17.559 -3.263 2.57085 -0.588473
1159 1 19.1063 -4.16204 14.0339 -0.589021 -2.4371 1.27846
1160 1 -8.69354 5.52311 -8.00548 2.30214 1.12375 -6.95749
1161 1 -7.71434 -22.4209 -20.3262 -1.65084 2.70695 -3.46254
1162 1 9.71668 10.2609 3.47892 1.37697 -1.34237 2.25381
1163 1 -18.7021 -22.5152 12.4041 -0.688225 4.49496 2.40696
1164 1 -18.1032 -14.7348 8.48588 1.78598 3.05641 5.15337
1165 1 17.9676 24.0093 -0.770851 -2.57508 2.20281 0.379937
1166 1 -15.4007 24.2844 17.8891 -4.5621 -4.10515 1.75559
1167 1 -0.463797 13.2684 17.8851 6.70708 -2.94995 -2.66351
1168 1 11.0971 -10.3274 -1.54514 -4.85143 -6.88027 4.52416
1169 1 13.9463 -7.75078 17.2231 -4.14634 5.10592 -0.797999
1170 1 3.93375 12.0111 10.4568 6.6868 3.22482 -4.26526
1171 1 22.2144 -1.82148 -7.03329 -2.15474 1.45818 -1.73542
1172 1 -19.8198 -17.8396 -15.3667 1.11151 -2.75051 3.67551
1173 1 7.31526 -20.0647 19.1071 -2.61437 -0.461908 3.31968
1174 1 -24.6018 -19.7602 -16.4198 -2.3272 6.93856 2.14241
1175 1 -10.8235 13.6011 20.8482 -1.14721 3.86511 2.80691
1176 1 -0.807045 -10.5974 12.7329 -0.330541 5.89844 2.73187
1177 1 10.7103 3.78952 -18.373 -0.17049 -5.90286 -2.12366
1178 1 -5.02801 7.11377 6.92708 -1.97556 1.92796 -3.0283
1179 1 8.41513 -8.5981 -9.1949 1.16254 0.886666 2.58937
1180 1 -9.71007 46.8488 -12.3434 0.448175 -2.61521 2.82424
1181 1 11.1689 18.9155 -10.4015 -0.48114 -1.22512 -0.426992
1182 1 19.9754 7.27875 0.679063 4.10414 -0.623877 5.37498
1183 1 2.99996 -5.7566 -16.876 -2.73498 -1.11539 0.255189
1184 1 7.09779 19.0867 23.575 -1.46517 1.79009 -2.83841
1185 1 14.5127 8.58581 -23.0923 -0.179787 -4.10536 -5.67499
1186 1 7.73019 -9.01691 1.17826 -1.58331 0.238203 -2.00609
1187 1 -12.9295 18.309 -6.92866 -0.842616 0.497325 2.2692
1188 1 2.6815 2.30256 0.302167 2.4817 -0.95969 -2.2846
1189 1 15.1716 13.8884 4.26214 1.03106 -0.120021 -0.473647
1190 1 16.3454 -2.46211 -19.8521 2.24949 -1.04258 -10.0559
1191 1 -1.75777 -2.90204 -19.7925 -0.146803 3.62522 -1.76757
1192 1 -15.504 -0.186121 -10.4516 1.76862 1.35082 -4.15694
1193 1 8.57834 -2.16058 15.5279 -1.74851 -0.920685 -0.575044
1194 1 8.72247 16.8327 -7.42942 -1.56386 5.12756 1.05978
1195 1 13.7393 -13.4997 -17.1733 0.653467 0.975258 -3.88711
1196 1 5.14844 16.4589 -13.0996 -3.22502 0.0962507 -3.7743
1197 1 -19.7439 16.9631 21.7534 1.45745 2.80694 2.6103
1198 1 21.1157 -21.3599 11.2487 2.6942 0.728954 4.22087
1199 1 -13.7588 7.61882 -10.8694 2.58327 -0.10655 -1.02919
1200 1 14.1052 -10.537 9.92054 -7.14947 -2.41124 0.562594
1201 1 22.3116 -19.1349 18.5586 -2.37567 -2.48101 -1.43305
1202 1 -15.8393 -0.0853512 -5.34354 5.50355 -3.44626 0.682023
1203 1 -15.4589 -12.5584 -15.8766 2.08392 2.01672 3.4409
1204 1 -2.76691 21.6202 3.52371 2.45231 -1.48676 3.07552
1205 1 -4.46279 -14.6689 11.6909 1.34285 -1.06203 3.07623
1206 1 22.0165 -20.5603 -22.9955 -4.51657 4.14272 -2.50785
1207 1 15.328 -5.03155 -15.0843 1.02995 0.448219 0.450091
1208 1 23.061 -8.69398 8.21902 -4.48975 -1.65902 7.72636
1209 1 5.5298 -6.44636 -23.1464 1.76051 -1.75772 -1.6044
1210 1 -1.8602 18.3253 -6.7045 -3.83988 0.0890463 2.7554
1211 1 -16.8424 -10.4054 9.86049 -3.02696 4.78091 3.40924
1212 1 20.7438 5.22153 -10.4134 -1.41634 2.14222 2.97899
1213 1 19.7651 -16.2449 20.6341 1.06416 -2.3527 0.419532
1214 1 11.6504 1.84732 -2.10888 1.59915 1.18402 3.00462
1215 1 4.91721 10.3359 -8.66099 2.63404 2.96551 1.67917
1216 1 14.8563 -8.10637 -11.5947 0.586584 -0.960115 0.766761
1217 1 16.178 -14.2852 2.04388 3.19271 -0.074547 -2.41263
1218 1 17.4467 -4.46108 -10.3547 1.60948 -3.44537 -0.598404
1219 1 11.8708 10.0216 11.0592 -1.24489 -1.03253 1.07319
1220 1 -18.9334 23.3271 15.2595 1.40577 3.30309 0.894565
1221 1 -0.0528107 19.7037 -21.1743 0.227597 1.93418 0.298384
1222 1 20.0729 19.7325 11.6648 -1.01376 -2.07443 1.30826
1223 1 -23.4277 11.3309 12.2183 -2.14938 2.5541 3.68576
1224 1 14.797 -6.46316 13.4 8.27042 2.42984 -4.83705
1225 1 -2.07422 -20.5643 21.5728 -0.390697 -2.30183 0.794928
1226 1 -21.4364 13.6962 1.81684 -2.4622 -4.49103 -3.16248
1227 1 -0.387353 -8.24244 0.491603 1.73447 -0.439217 1.47546
1228 1 -23.9241 -20.7387 -10.5005 -2.88777 0.0565173 -1.19166
1229 1 17.9209 -18.0319 -0.9154 -0.00025859 2.4272 -0.192409
1230 1 -14.8993 -18.9193 -10.71 0.472001 -4.52079 1.95728
1231 1 -18.5731 -7.1997 -9.78264 2.43025 0.188109 7.16978
1232 1 -21.248 16.9359 -22.3682 1.20054 -2.30997 -4.55599
1233 1 -3.11257 2.90764 -21.1906 -0.201838 -3.54772 -4.8573
1234 1 15.5177 12.6609 7.04316 2.98243 -3.55659 -2.04089
1235 1 12.8037 18.4247 2.14146 -1.35083 6.42217 -1.03688
1236 1 -8.4403 -23.0761 13.6954 1.38322 -2.70281 3.9905
1237 1 -18.6182 20.7191 15.8728 0.522102 0.497316 0.645141
1238 1 8.82411 -2.70836 -13.6845 2.67983 -0.923505 1.59505
1239 1 -1.681 -23.7717 6.76211 1.69683 2.186 1.19807
1240 1 -5.83844 -24.0121 2.89672 -2.17476 0.0324054 2.85034
1241 1 13.7401 13.3553 -17.1382 2.5459 -1.93055 1.5889
1242 1 8.10059 -17.7783 -13.0191 -2.8867 -0.350035 -0.764348
1243 1 9.20178 16.5085 -20.8463 -1.65678 2.91919 1.71504
1244 1 -18.0888 1.72625 9.87024 -5.686 1.77614 2.14575
1245 1 -20.9367 12.2798 -22.9331 -1.5543 2.33455 4.52372
1246 1 -7.4321 -15.7719 4.89762 -0.481311 -2.63654 0.48893
1247 1 -2.27186 1.36215 -10.409 1.29314 -1.39972 -0.668887
1248 1 9.37791 6.05906 19.5399 -2.9725 1.48444 4.22085
1249 1 6.81308 14.7405 -21.2039 1.14125 -0.476445 -1.65345
1250 1 5.5975 2.91272 22.5782 -0.698521 2.59618 1.67297
1251 1 20.8277 -0.431902 22.4164 0.369948 0.715469 4.56672
1252 1 17.9053 -18.8012 2.0127 1.69823 -0.780441 -7.02703
1253 1 13.6158 25.1153 -2.04296 0.331353 -5.16067 -3.14852
1254 1 -21.537 -19.7841 3.7179 7.32738 3.38463 5.92775
1255 1 -4.71137 -12.6048 7.12684 -1.0735 -1.39128 -2.72337
1256 1 4.85874 -19.1069 -19.3564 -1.31988 1.71573 -3.7028
1257 1 -4.90098 46.6539 -11.5892 4.29299 1.48431 0.910856
1258 1 -16.5096 8.7858 21.6352 1.46848 5.62179 -0.803525
1259 1 19.8473 -10.2533 6.71593 0.134498 -2.3723 -3.0834
1260 1 4.21629 -7.576 -14.8845 -0.18796 5.89814 -2.29114
1261 1 13.7594 -10.6944 -11.746 -1.16652 -0.126287 -0.608372
1262 1 12.1061 -13.1285 -4.9589 -0.0844634 -4.91718 -0.262782
1263 1 -13.6558 -7.34935 -2.449 -0.100986 -4.46463 3.31944
1264 1 -22.2618 -12.0515 -3.8299 -1.44659 -0.50458 -4.88323
1265 1 -8.1262 13.8239 -10.6419 1.20351 -0.442807 -2.8787
1266 1 14.6678 -7.54138 2.81725 0.825496 1.01155 0.745742
1267 1 22.5785 -16.8114 3.23108 -0.746734 -1.23221 -1.83822
1268 1 -20.2952 -12.7453 -18.8411 1.29889 2.96864 -4.6994
1269 1 11.0828 -6.45163 19.9719 2.02226 2.42746 -1.52189
1270 1 -23.4277 16.8319 13.2804 -0.452717 4.00351 -1.69118
1271 1 -0.0166729 3.61966 17.5417 4.41989 0.50115 0.0672869
1272 1 -20.0269 9.78793 15.7157 1.44564 -3.0635 -4.25006
1273 1 19.7833 4.38928 22.6943 4.4956 2.00971 3.75493
1274 1 22.6818 18.6958 -19.8831 1.12323 0.842455 4.85431
1275 1 3.76449 4.5631 9.8045 -4.8857 2.23792 -0.524401
1276 1 -0.652119 -9.25883 -20.1033 2.05459 0.578687 1.64261
1277 1 -10.9852 21.8579 -5.5236 1.21837 1.52906 -0.0016953
1278 1 15.9286 -7.64042 -21.6845 2.74237 -4.90854 -0.271215
1279 1 -17.649 18.0076 -12.6302 -2.11723 6.09115 -1.23324
1280 1 0.07113 -3.78313 -4.90751 -2.28888 -1.84316 -3.4747
1281 1 14.4182 -9.04197 21.5675 1.94971 -4.61878 -2.43114
1282 1 9.93019 -18.9329 -1.30151 -2.71922 2.22755 0.53952
1283 1 6.32483 -20.4989 -9.80591 -1.79033 -1.12028 0.511387
1284 1 6.13713 -13.2203 2.06036 3.72567 -3.14614 0.773996
1285 1 -12.4212 21.9538 15.205 -0.211046 1.31107 -0.592301
1286 1 -7.69139 5.48164 -15.532 3.32608 2.72114 -7.69742
1287 1 9.02397 -16.5431 19.2859 -4.5412 0.223403 2.44103
1288 1 2.61147 -2.87635 -16.5304 3.67431 -0.627384 -1.70644
1289 1 22.7422 -12.9435 -8.82907 2.65159 -0.85399 -6.90849
1290 1 1.63722 5.31419 7.7596 -2.42556 -5.18441 -3.58577
1291 1 -18.8708 14.7016 2.31065 1.4714 -1.38909 -2.22014
1292 1 -3.58736 19.9542 -3.88209 -2.85969 -1.36847 2.15875
1293 1 -6.0796 -2.41944 -2.31537 1.4609 -2.16825 -1.46356
1294 1 14.8252 -13.2307 -6.70033 1.85294 -4.66966 1.87437
1295 1 13.7329 5.7313 -2.85522 -1.81877 5.77163 -1.94722
1296 1 -5.67199 -9.29556 6.49153 -4.44219 0.595552 -0.542851
1297 1 15.7194 15.0765 16.4919 3.20956 3.10434 -2.15722
1298 1 0.832632 -6.63107 -1.78504 -0.73033 -2.22544 -1.12458
1299 1 -8.95649 -12.3256 -6.42174 0.966513 -5.60367 2.75382
1300 1 2.87354 -1.97764 -2.97618 -1.39423 -4.51205 -0.933843
1301 1 10.5197 16.179 -9.49696 3.50093 0.567391 5.64576
1302 1 -3.79387 -3.04763 -23.1742 -0.593442 4.1995 -2.83287
1303 1 -6.05618 -7.99697 -17.2014 0.351599 6.71978 -2.45072
1304 1 2.72244 0.35047 -4.91891 1.00973 -2.94774 4.37073
1305 1 -4.28625 2.69603 9.45282 2.33721 1.66027 6.86785
1306 1 6.93722 -22.2864 -0.820885 -1.43207 -3.52805 1.16016
1307 1 -15.429 46.5497 -2.84864 4.65421 4.81543 1.64987
1308 1 -19.3666 -3.46772 6.56359 1.61724 3.92195 -1.4878
1309 1 -0.54028 -10.5316 -5.91174 -1.57136 -1.76733 -6.52102
1310 1 -2.74526 -17.2545 -2.05182 -1.57217 -2.47537 1.27559
1311 1 -3.02403 18.1007 -13.3845 -1.6169 -0.824792 -0.460307
1312 1 -16.924 -8.59344 4.17077 -1.67669 0.322218 -0.997799
1313 1 18.1349 18.8087 23.6178 -1.86384 1.5039 -2.42925
1314 1 -17.1281 10.8069 -18.0863 -2.37638 -3.67773 3.82295
1315 1 -18.9799 -10.7917 -20.915 -2.06608 -1.09503 -3.80674
1316 1 21.6496 -10.1809 -15.0121 1.25489 1.74603 -2.32984
1317 1 -12.0746 9.40873 -12.0873 0.554236 0.324774 0.157288
1318 1 -24.6244 20.6079 -1.00865 -1.64092 -0.874481 2.1304
1319 1 13.9041 22.6897 0.0102818 -1.81179 1.74082 -4.08581
1320 1 21.0162 -7.36735 -8.25427 -0.937551 -5.42189 0.824195
1321 1 7.48107 -21.1593 -5.28015 1.21173 -4.00975 -6.49035
1322 1 0.296689 -13.4668 -5.25314 0.0348938 2.10766 1.55505
1323 1 13.9491 -11.2203 12.7516 -0.261839 -2.8117 0.863735
1324 1 -11.9486 -17.6821 -19.5554 9.19434 -1.32898 -3.32755
1325 1 -1.46232 13.6178 6.32582 -0.713388 -3.95603 -0.915247
1326 1 -18.9508 -18.3795 -20.4593 -2.46355 4.5607 0.852478
1327 1 -9.45209 21.6933 -22.7632 -1.56941 1.50475 2.07217
1328 1 10.5628 12.1478 6.56623 -2.11261 0.175783 -2.33504
1329 1 21.5562 -15.1202 -4.54219 0.318806 -0.908833 0.230492
1330 1 -10.2997 15.5754 -7.24992 -0.321004 2.21966 1.52317
1331 1 -19.153 2.07203 -2.47269 3.30747 -2.16603 0.676437
1332 1 12.854 -21.7832 22.846 -1.87825 -2.32363 1.75871
1333 1 1.76988 9.73307 5.212 5.77357 0.622336 1.15723
1334 1 12.2645 -9.99599 -8.06297 3.03672 -1.21832 3.56672
1335 1 -15.7864 24.188 -15.8149 -2.4352 0.811 -1.40725
1336 1 2.22428 20.6996 -7.36016 2.53392 1.27698 2.45628
1337 1 6.94802 -20.5578 7.71816 -3.42671 3.17862 -2.77972
1338 1 1.32708 5.48624 -1.87639 3.67821 -0.796674 4.38302
1339 1 1.01881 -20.0177 21.212 2.72655 -2.1985 -2.80157
1340 1 -19.2848 17.1438 10.7064 -0.235953 6.18963 0.729506
1341 1 2.06606 10.0088 13.6551 -1.19006 0.936363 0.120979
1342 1 1.56137 -23.5432 -15.6413 2.80577 6.23279 -1.90971
1343 1 -10.9908 -10.2177 -7.603 7.77776 -3.49717 -0.16921
1344 1 18.824 -8.56041 2.64919 2.24144 -0.832243 -2.24315
1345 1 -23.3635 2.78282 -19.7595 5.46359 0.182483 0.513948
1346 1 17.0586 -4.04308 -13.275 1.16754 -2.45249 -1.53847
1347 1 -16.4557 -11.7716 -19.6964 -2.84969 -3.07739 2.37095
1348 1 2.71012 12.3373 -15.3617 1.21762 3.87689 -2.93692
1349 1 3.8431 -13.0902 10.0472 -0.457053 -4.9426 -2.749
1350 1 -15.5515 0.514911 -2.60801 -0.636788 -1.62894 0.933695
1351 1 15.8799 -15.353 16.9143 -1.62252 -3.7885 -2.44422
1352 1 6.0213 22.6416 21.1768 -0.241218 -3.49048 3.39665
1353 1 7.06815 21.2222 0.0503974 -4.59206 3.25359 3.15382
1354 1 -1.6271 -4.47057 -17.1963 -0.148499 5.69543 -0.32446
1355 1 -8.26607 22.0283 17.7692 3.39374 0.738378 -2.45732
1356 1 -19.0311 -13.8145 -3.86445 -2.45329 0.350401 -0.667918
1357 1 -18.9093 -7.24067 -12.5825 2.30294 -2.97637 0.065066
1358 1 -10.489 24.5375 21.4188 -1.81638 3.43467 -0.417544
1359 1 -21.9826 -24.437 23.0153 4.82083 3.46662 0.785295
1360 1 19.4772 -12.4452 8.4328 -1.81887 -0.117378 -1.86051
1361 1 -7.88575 -21.9654 4.00677 0.116751 -1.0857 4.74526
1362 1 20.5271 19.507 8.57627 -5.43169 -0.965789 0.640057
1363 1 -15.0313 -9.84977 -21.6533 3.43623 -4.31614 1.74189
1364 1 13.8435 -13.5484 -11.5315 -2.42516 1.48745 -2.0104
1365 1 9.1207 -5.39262 -21.5081 -8.82783 3.13569 4.10782
1366 1 19.9569 -15.8304 -0.0333404 4.37041 -3.96401 0.901862
1367 1 -9.3013 -11.436 14.8079 -2.72409 -3.53123 0.543698
1368 1 -18.0173 17.5414 -2.00726 -0.533223 3.78393 -2.26312
1369 1 23.1332 2.21565 -5.47092 4.94107 -3.50814 -5.33356
1370 1 2.28143 -12.5327 22.3099 1.82625 3.84561 1.21449
1371 1 -18.9804 9.61869 -1.69354 -0.0483711 -0.893067 0.404231
1372 1 -10.8888 11.1594 5.33343 -7.30288 -3.06488 -6.0119
1373 1 -13.1192 -8.81615 11.5773 -4.79166 1.18007 -1.47844
1374 1 -18.0609 25.229 17.2917 -1.55165 -2.80443 1.6017
1375 1 17.4767 -6.06327 3.31897 -4.56441 1.59581 1.40037
1376 1 5.46652 10.1323 -6.01161 2.23451 -2.67372 -2.53014
1377 1 -11.6439 22.4095 23.906 -1.24352 4.93785 -2.59821
1378 1 9.8602 -10.9401 0.842665 -2.69044 -2.3721 4.90685
1379 1 -17.8166 -17.7699 2.53333 -1.53848 2.533 -4.40953
1380 1 14.6904 23.4252 -12.1188 0.0982012 -4.23983 -4.10615
1381 1 18.1296 16.9778 11.1692 2.43122 0.281366 -2.92353
1382 1 17.1672 -13.4683 9.87421 -2.44918 -1.26166 -1.25161
1383 1 -6.84351 -22.7594 -15.0752 1.65078 0.674423 -1.54117
1384 1 2.2414 20.6202 -13.2768 0.77418 -0.217193 0.431493
1385 1 -15.9634 23.8284 12.6011 0.0350368 1.77465 -2.2704
1386 1 -12.9742 8.47948 1.15906 -4.02023 0.8267 -1.69871
1387 1 -18.3728 -2.93665 0.805205 -4.80568 -3.76292 -0.49903
1388 1 16.6237 -3.2573 17.4996 -1.01638 1.57412 -0.621278
1389 1 21.5914 -5.68511 -2.1712 -3.4058 0.509805 3.25792
1390 1 7.54923 -1.36378 11.3168 0.320734 1.24165 3.71508
1391 1 -11.1143 20.6693 21.4397 0.861818 5.1632 1.41898
1392 1 21.8417 3.81214 2.33912 -1.58575 -3.53248 3.0267
1393 1 -0.928566 -5.56677 1.23917 2.26648 0.288525 0.0482359
1394 1 4.38957 7.53863 -0.10363 0.0814625 -3.57212 0.311175
1395 1 1.12231 9.939 -6.56074 2.23089 -0.520844 0.895254
1396 1 -17.6465 -8.86321 7.22173 -0.614314 1.87199 1.84346
1397 1 5.78014 24.2138 -8.02639 2.09022 2.41356 -1.28021
1398 1 2.63874 22.3427 -5.04402 -2.53788 -9.08472 -2.62202
1399 1 -1.37949 -23.7072 -1.74563 -0.663396 -1.20865 1.99921
1400 1 -11.9784 15.4227 -23.5414 -1.24019 3.35809 5.77456
1401 1 22.7858 -23.2589 22.6073 -0.731367 3.79613 -0.452538
1402 1 -18.3129 -5.14171 -16.9515 1.68896 -4.80288 4.16123
1403 1 14.3935 -22.2369 14.2933 -1.48032 -1.80129 3.90321
1404 1 20.3116 -8.90863 9.28065 3.05373 -1.47664 1.04895
1405 1 20.462 20.5085 -21.3625 2.70664 -1.60794 -2.57161
1406 1 -8.30158 3.97313 -12.8239 -3.78934 -2.78302 0.470319
1407 1 23.7233 9.78192 0.0825018 1.3386 -3.90715 0.990166
1408 1 -4.48048 -5.29104 -12.8446 2.26434 0.523328 -0.583808
1409 1 -3.04101 4.52349 23.0808 -1.23039 6.98653 2.93617
1410 1 -1.76554 -16.4833 -18.8844 3.2037 5.71291 5.69433
1411 1 18.3447 3.85058 -23.0793 -1.21036 -3.16475 -0.434314
1412 1 -20.6699 9.60635 -9.55226 -0.105607 2.01254 -0.203003
1413 1 -16.0009 2.95301 -21.4628 2.59722 2.50156 -0.075109
1414 1 7.01643 22.8141 5.54664 -1.04814 -3.5002 -0.180302
1415 1 -6.16207 -23.772 0.0704765 2.84191 -1.16311 1.09969
1416 1 -22.4014 -8.47669 9.4519 3.04206 -1.82133 2.01331
1417 1 11.1911 5.2184 14.0874 1.73605 -4.32846 -0.807786
1418 1 14.8337 -7.94595 -0.285568 -0.935877 -1.34318 1.20462
1419 1 9.34404 24.1135 -0.92958 -0.116775 1.82527 -3.67658
1420 1 -12.6908 20.0237 -22.9932 -1.39694 0.26479 1.13651
1421 1 -24.3791 -9.65907 5.64313 1.51573 1.14145 1.03525
1422 1 -11.615 -20.4125 -16.473 5.65594 -1.42885 -6.64311
1423 1 7.16693 22.638 -19.4633 -2.77123 4.6379 -0.546046
1424 1 21.1028 11.5446 -8.22612 -0.781105 -1.34849 -1.22687
1425 1 -1.78871 5.77386 -11.7803 -0.211963 3.07396 -5.97882
1426 1 8.33207 -20.6942 3.41595 1.18928 0.246136 4.1377
1427 1 20.0388 -14.0902 -2.40849 -0.508371 5.50268 -1.65605
1428 1 -5.06394 -17.5088 19.9364 0.258219 1.62103 0.976131
1429 1 -20.2296 -15.8648 7.13781 3.47726 3.55569 2.33683
1430 1 1.59038 14.3762 6.53267 -1.95166 -1.49595 0.288265
1431 1 -7.76159 0.57791 -8.95368 -3.77617 1.03676 3.99576
1432 1 -12.6774 8.54254 23.2489 -1.28512 -1.82698 -1.92559
1433 1 -17.9044 -12.2329 -17.1017 2.00468 -2.15168 0.903869
1434 1 -22.8186 5.00736 22.4749 1.75746 0.255999 -0.429534
1435 1 19.7521 21.661 -4.39895 -2.96679 -2.16 1.0903
1436 1 -16.3693 -4.44431 -15.2853 -4.47725 0.92928 2.90234
1437 1 3.0237 14.7307 -22.8437 -2.46858 5.73311 1.63424
1438 1 0.00608058 -0.563486 -14.3502 -4.31143 -3.77496 1.66219
1439 1 -18.5554 8.06804 -13.0036 1.32331 -0.928076 3.99224
1440 1 -22.3884 13.7483 -3.17565 4.73397 1.69786 5.55082
1441 1 -17.4498 -15.9163 17.5382 -2.91957 -3.34447 -1.88891
1442 1 -19.5693 -9.27327 -5.83762 -3.20053 -0.0851577 3.24756
1443 1 17.9413 -13.3822 17.1023 -2.2829 3.94064 1.14312
1444 1 12.1118 20.3408 -23.0111 -2.95965 3.25452 1.62363
1445 1 11.563 -19.1411 9.61361 -2.44186 5.73046 0.375061
1446 1 4.26787 -9.31989 -9.35231 1.13526 -0.887344 1.89717
1447 1 22.7615 -4.5307 -17.0488 -2.90524 -0.29877 -3.11972
1448 1 -16.7251 2.56708 4.88694 0.174046 1.93716 -3.43914
1449 1 11.3162 -3.17004 -0.64212 2.22885 -1.84307 -0.48247
1450 1 -7.13222 -3.97536 -8.26021 3.6261 4.53063 1.67047
1451 1 8.43407 23.9307 -11.3556 3.56147 3.1739 -3.59494
1452 1 -5.92693 -22.9152 -17.6958 -4.10756 -4.48191 -1.40917
1453 1 -1.50237 -21.8575 -6.87554 -2.96151 -4.00339 -2.87954
1454 1 7.64069 -12.433 -0.389654 2.24758 -7.39173 -0.15886
1455 1 -14.8714 -17.1327 -5.33436 -4.09015 -2.56936 1.15799
1456 1 -15.7502 14.4663 10.6093 -2.87117 -2.64111 1.44329
1457 1 -19.5091 0.945878 -21.0661 2.71507 -3.87429 2.57887
1458 1 -20.9513 12.8501 7.75734 0.988755 -2.32119 -0.458146
1459 1 -12.2937 -13.5052 -4.46651 1.97504 0.636368 -0.679491
1460 1 -15.8686 4.90205 -12.2942 -1.0571 -0.807795 1.37854
1461 1 -14.1015 15.5377 22.7652 -1.02878 4.99069 1.55023
1462 1 -7.85294 -17.1592 8.33961 6.46442 -5.9322 -1.23777
1463 1 6.77093 0.405132 13.5105 -2.59635 2.15883 5.91918
1464 1 3.53181 -19.772 4.83226 -1.74228 1.64245 -0.148165
1465 1 -20.8069 19.5868 -14.7483 -2.55156 -1.05788 1.28286
1466 1 -16.4586 -6.83594 -3.1922 5.16137 0.81135 -0.649762
1467 1 -23.9335 -15.7924 -14.0924 4.03175 5.00736 6.95556
1468 1 18.7171 24.382 18.7583 2.46172 -0.455028 -3.94227
1469 1 18.721 14.0347 5.05855 -4.22387 -3.79788 -6.16416
1470 1 -1.67808 -12.2376 6.53029 -0.0899088 2.44016 2.80761
1471 1 -6.19666 -4.99096 -10.7872 1.96178 1.9241 -2.28653
1472 1 22.8481 3.32171 16.2201 -1.20233 -1.75684 1.05467
1473 1 14.5356 -17.9198 -14.0189 0.239183 3.73614 -0.810829
1474 1 -1.24394 20.9198 -23.7909 -1.75571 -2.96797 -0.147174
1475 1 -22.6098 -24.8441 -3.88542 -1.61595 -0.515851 1.35802
1476 1 -21.427 13.476 -20.2263 2.339 -5.48523 4.91199
1477 1 19.8209 -1.02437 -0.931346 4.80644 -0.297827 1.12347
1478 1 -0.725813 3.76717 3.65259 3.15731 -4.17312 -2.15243
1479 1 9.12528 -6.92558 6.30357 -0.856615 -1.62402 2.68062
1480 1 1.57569 15.1048 -5.57914 -1.46284 -1.09773 -3.71697
1481 1 -7.875 15.5081 -3.64239 1.37231 1.1533 -1.404
1482 1 4.48054 22.396 -23.2581 1.59685 -5.70519 1.38539
1483 1 9.61979 -22.1174 -19.9416 -6.53802 -3.55852 -0.69309
1484 1 -6.16365 9.67205 5.90193 1.66775 -6.92314 -1.55098
1485 1 11.5201 -8.77714 -24.1133 -1.02611 0.67992 -1.5749
1486 1 -18.4191 -6.33524 15.2368 5.97306 -1.07046 -1.23274
1487 1 -5.18369 3.58579 -15.7138 4.27485 2.05196 -0.372528
1488 1 -17.3468 -15.1589 11.4598 -0.575418 0.879705 -1.21514
1489 1 -21.7335 16.4665 -2.6955 -0.090243 2.76764 -1.24514
1490 1 -22.7746 4.46053 -1.91002 -4.11358 -2.30688 -1.4857
1491 1 13.2319 7.55822 -5.07093 -4.52658 -5.24103 1.83602
1492 1 -11.3584 10.8534 11.4901 0.113993 3.14169 -1.8155
1493 1 -3.94644 -6.13962 -17.86 0.253874 -0.365598 1.34475
1494 1 -10.8154 5.77493 -19.1606 -2.84898 -2.10615 -4.97247
1495 1 -21.1236 -9.58925 19.3938 -2.77902 -0.850538 -4.4463
1496 1 -3.87544 10.9142 -9.72526 -2.08764 -3.53733 -3.5071
1497 1 14.0139 -9.5339 -20.4708 -4.30247 -1.35016 -0.625554
1498 1 -14.5591 5.66113 11.8697 -3.16069 0.456658 -0.678125
1499 1 14.6219 4.04405 21.809 1.41559 3.25234 -7.62735
1500 1 -19.2377 18.7264 14.05 0.906583 2.89479 3.46417
1501 1 7.99984 18.0926 -14.6915 2.04628 -2.74332 -1.37366
1502 1 -21.524 -7.0109 -6.41155 2.5171 -0.909541 -1.68978
1503 1 8.43967 25.1444 -22.895 1.47976 0.854749 -2.78176
1504 1 -3.5575 -24.0978 -6.37975 -5.10153 0.521427 -3.14067
1505 1 17.9658 -21.8381 -19.8677 0.906596 2.48305 4.6986
1506 1 14.9987 14.4882 -0.356524 -0.184364 2.69878 1.73852
1507 1 -19.8447 20.4459 -6.22332 3.90389 -2.87651 0.424754
1508 1 20.7957 -11.2242 -3.32137 0.504615 4.26365 -1.57244
1509 1 12.143 21.7303 -8.15836 1.63914 -2.09857 0.223159
1510 1 -14.3042 -11.8229 -1.31244 2.98356 -0.403389 -3.19238
1511 1 -24.0126 -4.95869 16.7805 1.71312 -4.57846 1.4897
1512 1 -12.9926 -14.4138 -1.94901 2.02986 0.507786 4.23729
1513 1 -21.2829 1.41193 18.2046 -2.09704 -0.483393 1.36168
1514 1 -15.1551 -4.91155 -5.21026 -3.74908 2.74612 1.96936
1515 1 -8.7892 -22.953 20.4962 -4.02331 -1.36606 -1.0023
1516 1 -8.75078 23.6096 23.6982 -1.85833 3.06305 -1.029
1517 1 23.1561 -17.0436 -9.79634 -3.56448 -1.94996 2.28743
1518 1 -4.67341 11.6581 -23.1399 3.58833 -2.42447 0.0523783
1519 1 -11.782 -18.3289 -0.03239 0.908752 5.32858 1.86883
1520 1 9.95897 3.70835 -12.6047 -0.270486 -3.36473 -2.45032
1521 1 -8.87332 -7.63692 17.1557 -6.436 6.22339 -2.59697
1522 1 -12.8165 -2.02097 -14.2377 -2.15227 -2.23403 1.90963
1523 1 -7.11359 6.88865 11.8947 1.65697 -6.59016 2.35292
1524 1 0.847157 -19.8064 5.85663 1.46155 -2.59678 -1.59073
1525 1 -11.0923 -6.01745 0.599728 1.24866 -3.66988 1.33381
1526 1 22.7827 23.0531 1.44094 -2.41756 1.15862 4.06976
1527 1 1.81569 0.254407 -7.72513 -2.32205 -1.77876 3.38026
1528 1 10.7796 14.9991 16.4367 -3.09486 -3.9419 2.91654
1529 1 -7.176 -0.406286 11.1046 -2.22042 5.02207 3.28995
1530 1 16.6207 16.1629 5.55783 2.86363 1.24911 0.248836
1531 1 6.09823 -8.11879 9.73187 2.33662 2.73125 1.27215
1532 1 17.6676 -5.23768 -17.3132 1.85748 2.12307 2.07465
1533 1 13.1649 21.0194 12.9401 2.07121 -0.140119 1.50257
1534 1 -16.6218 -5.94964 11.1049 -1.39139 2.70676 -1.54194
1535 1 4.2111 -5.9766 15.0077 1.33224 2.0539 1.82325
1536 1 -6.67852 0.00535759 23.6953 -2.90618 6.89483 -0.548216
1537 1 -3.31004 23.7533 -17.923 -0.0874302 -1.52913 1.88144
1538 1 7.03854 16.7122 19.4121 2.61318 1.01879 -1.05256
1539 1 2.2528 8.23998 -14.342 1.73778 1.72406 -2.33403
1540 1 -21.0451 5.5612 -23.4392 4.62286 -1.05399 5.51451
1541 1 6.48027 -16.4891 -7.68909 0.0958104 0.243348 2.15835
1542 1 -20.6801 -4.24118 17.5881 -3.00679 -0.319518 0.861308
1543 1 3.89357 -0.458054 13.3761 2.95649 1.76621 2.75969
1544 1 -4.33143 19.6946 -19.0154 -2.2311 2.44519 0.567901
1545 1 -7.27147 -13.3746 14.0786 -1.97247 1.82653 -3.53833
1546 1 -14.0606 -14.1465 20.9323 4.94668 -4.40758 0.973533
1547 1 14.5999 -0.142338 -2.95685 4.4713 1.84079 1.46315
1548 1 16.3566 46.2133 -8.46799 2.47533 3.86744 4.97689
1549 1 -0.0725825 -2.25528 -16.6226 5.12219 4.36905 -1.52893
1550 1 -4.67558 -7.07951 -9.64148 1.31155 1.00778 0.184631
1551 1 9.66004 -2.129 -7.57765 3.68103 0.887853 0.574629
1552 1 17.7072 9.96631 -17.8864 1.82017 -1.6868 7.32455
1553 1 -11.3461 18.9112 -11.9155 4.36528 -1.12011 2.33171
1554 1 -5.46118 -8.21543 -22.181 1.34854 -4.82481 -0.167382
1555 1 -20.5393 -5.02367 -2.45054 -0.530341 -4.97227 -1.11226
1556 1 19.7144 -19.9399 -8.6588 1.24985 -1.28818 3.93162
1557 1 7.99074 -21.5224 -17.7334 -1.09761 -1.01342 0.854837
1558 1 8.39613 -17.2421 0.661262 0.647353 0.416126 3.15247
1559 1 23.4753 18.247 2.56399 3.50349 3.21837 -1.86255
1560 1 -18.9191 -18.6894 20.5089 0.073981 -2.9175 -2.0395
1561 1 19.779 19.5768 -6.62325 1.88366 -4.24837 6.56925
1562 1 -1.66395 -4.54685 -1.4665 -1.40379 -1.6169 7.39267
1563 1 -2.67817 -5.59904 10.715 1.33943 -0.856485 -0.164674
1564 1 8.34058 14.01 -7.19932 4.25361 -5.85224 -6.7022
1565 1 -6.22976 16.1778 -10.7179 3.30927 0.188559 5.66509
1566 1 2.98171 -6.90333 7.15011 5.81811 1.7677 0.0864725
1567 1 1.99184 -9.64209 -21.0253 -1.98974 2.4024 0.555365
1568 1 18.1469 20.6239 -11.8841 2.71624 -5.41717 3.00129
1569 1 9.41173 12.8992 2.26433 -0.795906 -2.0945 -0.746584
1570 1 -22.5786 1.03402 -13.4596 -1.885 -2.96435 -2.2344
1571 1 -4.05844 -9.65918 0.362163 -3.39768 3.06749 -2.28149
1572 1 -0.911491 -16.142 11.1319 -3.1464 -4.5828 -0.533037
1573 1 -11.8475 -11.4279 18.8447 -4.9335 3.66305 1.22614
1574 1 19.8329 -17.9015 3.78116 -0.457972 -1.12261 1.22339
1575 1 -18.3755 15.3955 5.17277 -0.260023 -1.65957 -0.141222
1576 1 12.5937 20.4772 -19.1866 -0.910483 2.1367 5.11038
1577 1 16.0284 -23.8332 6.81878 3.40856 1.65804 -0.133087
1578 1 17.3007 0.282549 -11.9801 -0.953189 4.07954 -3.3397
1579 1 -5.89867 13.5157 -6.68134 2.06028 -2.00307 0.312865
1580 1 -15.5353 -24.6245 -5.52989 -4.52503 0.745062 1.30433
1581 1 -8.63944 -5.34388 10.5109 -2.60797 -3.49062 1.28205
1582 1 -14.5055 4.49092 -2.20542 -0.901841 2.69487 0.90709
1583 1 10.4245 -1.29761 -4.87869 1.43532 -0.45223 0.813072
1584 1 -6.85183 -3.72487 13.8505 -2.32415 0.653208 0.596221
1585 1 -8.40341 -13.8995 -23.2047 4.04017 -0.411169 0.764222
1586 1 -17.8118 -23.4323 1.04859 2.94311 -1.34602 0.513877
1587 1 19.4708 -2.76862 -9.46899 -1.97495 -4.31204 -1.69496
1588 1 3.42137 19.3176 -21.8009 2.52637 4.02718 -2.99488
1589 1 -11.8612 -22.5854 -2.35808 0.684489 5.99916 -6.21638
1590 1 21.3037 7.85226 -16.0403 -1.12952 4.49836 2.19625
1591 1 15.0401 12.4299 1.43234 0.278769 3.47963 1.78385
1592 1 16.9916 8.57779 15.6874 -3.07949 0.726616 -0.520941
1593 1 0.703335 23.9009 -17.9453 0.605212 -0.590855 6.18861
1594 1 10.0677 4.33324 -0.828228 -3.40417 0.927243 -4.95807
1595 1 7.37256 16.761 -4.81795 0.73884 0.871758 0.13569
1596 1 -4.46139 -1.68934 -19.959 -1.45906 -2.01612 4.15914
1597 1 18.6423 -23.0793 7.63276 -1.78328 -2.78704 3.82045
1598 1 5.3488 10.8927 2.71605 4.67711 -3.85904 2.69205
1599 1 -22.8273 -4.33919 11.1072 -0.0670303 2.67035 -6.92443
1600 1 18.3958 -15.4397 -17.4989 -1.98998 2.54074 -1.98603
1601 1 6.1347 15.4904 -18.3709 -1.99408 1.15034 -0.829307
1602 1 -21.8811 -11.7707 -21.3827 -2.55234 -2.65583 0.428009
1603 1 6.66697 -9.51331 -13.2786 6.49231 -2.83062 -5.45743
1604 1 21.1889 -15.6398 -16.6563 -6.1227 -0.284174 -2.65625
1605 1 -0.835526 -3.72844 -11.2397 -0.506255 1.3688 -1.36949
1606 1 -22.4383 19.7665 4.47699 0.880144 3.59373 -4.18562
1607 1 11.927 -21.5094 -14.3318 -4.2379 -1.47385 0.590201
1608 1 -24.0833 3.80971 8.69079 -0.336343 1.94735 4.18071
1609 1 -22.9296 18.494 -17.4901 -0.733223 -3.42214 -1.47555
1610 1 -10.4876 21.7789 -14.1121 1.11492 1.09633 0.459894
1611 1 4.56608 11.7757 -2.58931 0.340211 -2.96805 1.70664
1612 1 -22.73 -16.0197 15.3095 5.19971 2.98148 -4.42615
1613 1 -1.54306 -16.7223 0.822506 -5.97795 5.76929 1.38413
1614 1 -15.6572 -13.5469 0.602455 -1.09194 4.27429 5.05719
1615 1 -1.47225 -14.1029 -10.893 -0.518199 -0.314375 0.427169
1616 1 17.0798 -12.994 -18.8805 -3.55831 1.57292 -0.582809
1617 1 -15.7774 -14.7915 -10.7177 0.245859 -3.20696 -1.99987
1618 1 10.6301 17.7302 15.8545 -2.63772 0.382649 -3.77465
1619 1 15.4235 15.3615 21.5595 -1.15607 -0.596474 -3.56337
1620 1 14.747 -11.0205 -8.80042 3.10543 -0.949968 0.668234
1621 1 -21.1169 3.50152 12.4117 1.16527 5.71186 2.90651
1622 1 -15.7575 20.6323 15.8418 -3.51964 -1.84378 2.77765
1623 1 -12.2962 -14.8801 16.2735 -4.544 -1.76974 -1.40006
1624 1 5.68826 20.8027 -20.9525 1.73987 1.77529 4.59879
1625 1 11.0687 13.5653 -8.72639 -1.203 3.51791 2.46867
1626 1 15.3786 -0.689669 18.4636 -1.88673 1.56646 4.53026
1627 1 18.8083 -6.2206 23.3898 -0.402133 6.01281 -2.44577
1628 1 17.4236 2.0183 0.351785 -0.636628 4.93133 -0.380903
1629 1 -5.83761 -24.0208 14.1638 2.93838 -2.72457 5.47142
1630 1 12.6525 -6.92338 22.4369 -2.55175 1.13098 0.267846
1631 1 -23.9728 -19.049 6.55412 -1.65651 0.0725537 -3.51794
1632 1 -6.04325 9.05338 -23.9617 4.45631 -6.80723 2.30354
1633 1 17.1606 19.5406 -21.7962 -4.39241 -3.16322 -0.708413
1634 1 -19.2606 -8.69895 -22.9702 0.279636 -2.93931 0.996874
1635 1 7.41692 -15.0566 -11.8356 -0.509438 -0.74264 -0.361645
1636 1 18.0911 -9.11245 11.5366 -0.887775 -3.86588 -1.99871
1637 1 -0.912106 19.7083 -4.11079 6.90811 -3.565 -0.0832867
1638 1 14.6237 -5.48772 -18.29 -0.105588 -0.334843 -0.769036
1639 1 13.0249 11.6301 19.2309 -0.186224 2.91465 1.31997
1640 1 -15.7892 -23.5413 -12.0663 -1.07741 3.86396 -5.86484
1641 1 19.8201 -12.6827 19.4072 -1.06958 0.591651 0.0745906
1642 1 -0.925469 22.3632 6.02793 2.09725 -1.6595 1.08274
1643 1 -7.62971 22.6569 -6.46539 0.716416 0.583053 -0.140104
1644 1 -19.7232 -1.86885 11.1266 1.40742 1.03243 1.20332
1645 1 -5.81618 -6.52217 -7.18902 1.11267 1.06448 -2.64711
1646 1 -21.3915 -6.53571 -18.7633 3.46288 -1.61115 3.09632
1647 1 16.795 11.9833 -15.6697 -0.579027 1.15534 2.80365
1648 1 -19.6416 -14.6062 23.5702 0.906234 2.98083 -0.726486
1649 1 -16.1699 -6.61263 -11.154 -4.21911 -2.43766 3.44541
1650 1 11.3942 -2.98917 -12.3865 0.173393 -4.10368 2.1907
1651 1 13.7424 -17.9112 0.123356 -5.59674 -1.69608 -1.96913
1652 1 9.51749 6.66172 -18.5292 3.51742 -4.26531 -5.00336
1653 1 10.9486 -21.9281 6.63025 -0.472269 -1.60831 -0.724916
1654 1 4.81093 -18.0917 9.34926 -6.38425 -3.70551 1.38867
1655 1 -0.908502 12.6561 13.4381 -0.389457 0.406698 2.17263
1656 1 -5.68312 11.8382 16.7344 3.67555 1.1387 4.92732
1657 1 17.2437 7.99624 -13.5448 -5.13644 -1.73832 1.20683
1658 1 -18.3617 18.4205 6.47124 -3.79342 -3.15024 -0.926717
1659 1 -5.75935 -23.0864 7.2574 2.08484 -0.53503 2.12548
1660 1 4.65236 -10.6007 -21.3516 1.00748 0.113144 -1.01943
1661 1 -24.6152 -0.851971 17.0233 -2.93088 -2.58075 -2.06376
1662 1 -8.47154 -20.2944 -7.7065 2.39693 -3.66225 0.0105404
1663 1 -14.2991 -1.59787 -1.25744 -3.13714 0.489336 3.50403
1664 1 4.08614 -10.5018 -14.5157 3.28506 1.79613 1.41853
1665 1 -6.29003 6.07458 17.3568 -1.60771 0.813622 -0.636589
1666 1 17.7137 -8.2641 -16.6968 2.52741 1.54907 1.81693
1667 1 -13.9188 -0.174813 8.12961 -1.42157 0.726904 3.61906
1668 1 -10.2682 17.6706 7.75837 -3.62197 2.10797 4.25754
1669 1 14.5044 47.012 -12.0299 -0.863026 -1.20207 3.81305
1670 1 4.61695 15.9352 -2.67575 3.55755 2.74688 -3.84131
1671 1 -13.7796 8.52048 20.5165 2.66533 3.81589 -2.74505
1672 1 2.59087 11.2157 23.1266 -4.9841 -6.07645 4.07043
1673 1 1.23281 -17.699 1.28821 3.41894 2.19781 3.77669
1674 1 4.31802 -3.04585 -8.82998 -3.48947 0.560534 -4.15188
1675 1 -0.147964 9.56445 15.2806 4.46371 5.25918 3.81746
1676 1 -20.2357 0.743021 -4.68893 -0.620013 -1.92262 2.64234
1677 1 21.8619 -18.4737 11.139 -0.686494 0.0992264 -2.50377
1678 1 3.21525 22.9487 -18.9645 0.241995 -2.3479 -0.00114888
1679 1 -10.6701 22.3564 19.5317 0.598209 1.44694 1.76951
1680 1 23.6625 -18.8841 -21.226 2.52806 0.0396846 -6.12175
1681 1 -16.3094 -7.36146 -22.8704 2.15227 4.41989 -3.8209
1682 1 8.11508 9.1284 -0.545911 -6.64307 1.89534 -1.54593
1683 1 13.3304 25.0879 -16.1543 -1.39056 -0.621891 -3.2185
1684 1 6.17052 15.5265 17.0823 0.786944 -3.20959 -3.83604
1685 1 -21.9296 16.1156 23.4562 5.98689 -1.41178 5.12966
1686 1 11.9686 -10.5432 21.9626 -0.753289 -0.0112359 3.64878
1687 1 22.138 -17.4437 -13.5589 3.19142 1.98891 5.53121
1688 1 -17.4781 -2.6804 -13.3781 2.01604 -3.47934 -0.477472
1689 1 2.8161 -23.7938 -1.55728 -7.19163 -1.90472 -0.720341
1690 1 -6.51377 -21.9596 11.6595 2.32548 5.41786 -0.838096
1691 1 -16.8341 -13.4262 4.92501 -1.38223 3.03057 1.3741
1692 1 -0.5935 20.9867 -6.61894 3.28411 -2.03561 -1.41448
1693 1 18.1662 7.24004 20.2811 1.43439 -3.42795 1.12046
1694 1 -13.6176 2.17096 -14.8909 -5.87014 3.55971 2.47691
1695 1 18.3346 47.0952 -10.3166 -0.644952 2.76878 -1.26682
1696 1 12.0354 -2.53513 2.15294 -3.26791 -2.36282 4.78538
1697 1 -10.6815 -22.5425 6.53469 -0.705161 -3.05873 -1.07173
1698 1 -9.05217 11.2722 -1.76482 -0.231883 0.682945 -3.10393
1699 1 13.4082 2.0743 15.3085 -2.08777 1.14447 1.23878
1700 1 13.4501 -1.996 -14.1514 4.48692 3.99147 -4.45206
1701 1 12.3136 24.6957 -4.42671 0.612169 0.85912 1.60518
1702 1 2.01065 -19.3993 11.7097 0.924937 5.63726 3.29356
1703 1 2.54549 2.2167 -13.4208 4.33594 -0.567638 -3.47624
1704 1 -8.38937 -12.2297 3.6459 0.380073 -0.301108 -2.46081
1705 1 -1.11382 24.7394 18.5795 -1.37322 -0.245272 2.58198
1706 1 4.44374 11.1749 -17.5058 3.9205 3.59793 -0.101024
1707 1 -11.5674 -7.89079 15.6321 -2.67462 3.92836 -0.195684
1708 1 -6.15804 21.6137 12.3725 -5.11613 6.58284 -2.16422
1709 1 18.7476 19.8383 -2.48999 -4.8577 0.0316068 -5.64267
1710 1 -6.56232 -20.6931 -12.9378 -5.45363 -0.131696 -4.22625
1711 1 -2.75218 3.66462 1.58526 3.40244 0.251153 -1.38501
1712 1 11.2225 13.2323 -19.106 2.09548 0.192344 -0.320956
1713 1 22.016 17.0659 12.9137 -0.0852334 5.87441 -0.878246
1714 1 6.41249 0.384364 -10.57 1.81029 -1.22387 0.146666
1715 1 12.0615 24.9569 18.0844 4.97045 -1.10214 1.72385
1716 1 16.5143 -23.6456 22.4462 5.86991 -2.04689 -1.02419
1717 1 9.6094 -14.5236 -0.230867 -2.70597 2.68891 1.65583
1718 1 9.4204 -19.3811 -11.0629 -2.74669 -3.87656 0.608986
1719 1 22.3726 8.16948 2.28358 0.21077 -0.298629 1.81896
1720 1 -3.50073 -23.4821 8.81114 -2.29076 0.0496327 4.9
1721 1 5.57971 2.46772 10.3879 -0.981391 -2.27662 -0.326145
1722 1 18.8592 -23.1301 15.9277 -1.67026 0.680969 -0.252826
1723 1 -23.235 16.126 1.65183 1.59121 -0.540138 1.60582
1724 1 -17.9497 -24.2236 -1.7786 -5.3871 -1.07937 -1.17784
1725 1 -15.5864 8.53996 -17.5136 0.151008 -0.142885 1.10169
1726 1 17.8337 21.7037 -23.7073 2.1976 -1.43598 1.89374
1727 1 23.1642 -3.46067 -19.7559 1.14355 -1.45763 0.473276
1728 1 -24.2002 -6.06398 -20.543 4.69684 -3.99428 -0.555504
1729 1 -13.1908 7.31134 13.7155 -3.72155 3.03138 -2.04631
1730 1 -2.086 -9.7262 23.7688 5.92653 1.31582 1.52931
1731 1 21.9179 4.29418 -3.87175 1.30222 9.77789 3.01215
1732 1 15.1474 -13.1655 7.52119 -1.71294 -2.28515 -0.935482
1733 1 -10.8324 -17.4243 7.91512 -0.874946 1.46236 1.8022
1734 1 -6.98674 25.2466 -22.6249 1.69283 -1.24355 -4.24169
1735 1 0.499161 21.264 -17.1307 -1.11061 0.775682 -2.25174
1736 1 17.578 5.13372 11.4847 -3.52804 2.2127 -2.75616
1737 1 -18.3647 1.17354 -6.78749 -0.806557 3.43407 -0.903305
1738 1 1.43767 13.0245 -21.4018 -2.70125 -2.9479 -3.31072
1739 1 -5.94547 -19.2294 14.8287 2.3591 0.93379 4.67757
1740 1 3.44236 19.8374 15.4045 0.621113 3.84507 -2.9625
1741 1 11.8108 11.1718 -23.8052 3.46728 0.852919 -2.70753
1742 1 1.18038 -6.96499 22.1274 -2.31348 -1.14419 -3.09794
1743 1 17.4255 -16.24 10.2676 -2.7115 1.65972 -2.21867
1744 1 15.3756 21.3513 -5.8714 4.06299 3.24939 -1.1225
1745 1 5.79842 13.086 -6.18921 3.96248 3.21526 -1.61972
1746 1 17.5008 23.1898 -11.3257 -0.735909 -6.54673 3.40219
1747 1 3.77735 -15.9864 -7.07808 -1.49769 -2.94768 3.75693
1748 1 14.1959 -1.61551 -5.64473 -0.517671 -3.65862 2.4238
1749 1 21.2005 10.1069 15.1091 2.14496 -0.420967 3.15807
1750 1 16.5758 23.4277 13.4026 -3.11305 -4.79875 1.18179
1751 1 1.48116 -7.25047 14.0055 -2.94288 -0.60584 0.881953
1752 1 23.0753 20.1414 -17.4191 5.1799 -4.26763 -2.81304
1753 1 -23.1568 -14.5994 -21.1088 4.99775 0.0369235 -0.694906
1754 1 20.0837 11.0182 -21.9197 3.95146 5.00816 -4.65741
1755 1 -10.4101 -0.666562 -8.59841 0.744705 -3.32211 4.52366
1756 1 -16.1646 3.77018 8.83006 0.251891 0.322317 2.86716
1757 1 17.6723 -12.5018 -8.88327 1.88599 0.495955 -0.87157
1758 1 21.314 -23.9938 7.54873 1.41103 2.59476 3.83886
1759 1 22.4202 10.5832 12.5237 5.38893 -0.121273 -1.97104
1760 1 -18.2509 -13.0815 -22.3421 0.830789 2.52821 -2.84044
1761 1 22.807 -16.1799 -22.0447 0.687957 7.50125 5.45821
1762 1 5.77456 18.5992 5.50949 1.46891 2.70291 0.835919
1763 1 -1.75751 4.47258 12.9983 1.53817 5.27701 -0.556137
1764 1 -14.9845 19.3893 -13.6532 -3.98417 1.01399 -4.43004
1765 1 3.56663 -17.9284 -4.9349 -6.46744 -1.7225 -0.71864
1766 1 -19.278 2.6201 16.754 3.05492 1.23179 -3.41054
1767 1 9.58702 24.2717 19.2942 0.0656513 1.80871 -1.23851
1768 1 12.8109 -4.64697 7.53356 -0.747855 1.30749 1.73058
1769 1 -23.5297 16.1283 16.3026 3.12648 0.0830385 -2.19685
1770 1 -9.79988 -5.36511 21.3792 -3.86105 0.566886 -0.858674
1771 1 0.221595 22.234 8.94719 1.52034 0.881732 -4.62029
1772 1 12.6373 -21.6304 3.34003 1.48383 -0.568329 -2.00177
1773 1 18.0352 13.8877 7.93476 3.61219 1.4831 -0.938362
1774 1 14.0424 -21.3275 18.3002 3.84882 6.53444 -1.9574
1775 1 7.48034 13.8228 -9.89019 0.1069 -3.8026 3.51035
1776 1 11.214 12.3949 -1.08822 -0.927803 1.04968 0.0725113
1777 1 -22.8308 -11.1976 16.1031 1.71402 4.83883 -1.48332
1778 1 -15.2207 -6.783 -13.8262 0.027194 6.01772 0.66286
1779 1 6.89638 3.04137 -3.63005 -4.4326 1.26899 0.636791
1780 1 5.91573 7.07686 -5.69686 0.880397 -1.60709 2.97528
1781 1 7.51734 18.6446 -22.0111 -5.31978 4.60981 -0.0408051
1782 1 -22.8624 -14.27 -11.3119 -3.03734 -4.05858 1.23243
1783 1 16.75 7.71926 -6.65682 0.344262 1.07996 6.78918
1784 1 -8.11566 14.8563 13.6106 3.04636 -2.14577 -1.98192
1785 1 -6.23127 6.68256 -8.65729 2.80233 -5.21588 -8.82926
1786 1 -6.44699 0.453645 -6.28138 1.15713 -3.76364 -0.127067
1787 1 5.05991 20.1291 -13.8346 0.831516 0.95632 -1.09606
1788 1 -14.7145 -16.8361 16.5872 0.592496 2.35966 -2.91291
1789 1 -23.976 -1.59313 -5.48177 -0.944104 3.95084 2.44959
1790 1 7.36354 4.17134 -14.2069 -0.288529 -0.952394 -2.53691
1791 1 0.259313 -6.27264 -16.012 -1.03647 5.98573 -0.673768
1792 1 -15.5536 5.7695 6.86229 0.122104 -2.48976 -4.15737
1793 1 16.6265 7.67824 -21.2789 -5.1015 0.0851737 -0.162471
1794 1 16.1428 1.69758 -19.0476 0.400263 -3.17287 -1.23407
1795 1 15.4613 -1.77146 -12.1174 -3.87476 1.67797 4.40959
1796 1 -21.5713 -10.2974 -23.9448 -2.45493 -1.38016 -1.7802
1797 1 1.45469 15.3761 15.6728 5.45955 -3.70034 2.56955
1798 1 18.8812 -7.24355 -19.1196 2.1311 4.69252 -1.18446
1799 1 -12.2862 8.9185 -14.7701 -0.889282 0.174327 0.740985
1800 1 -0.690866 0.224919 10.9137 5.01951 2.44083 -3.2093
1801 1 -12.2471 -20.8106 -4.78092 -3.57195 -1.84318 5.35914
1802 1 -18.9298 -18.5003 -10.6598 -1.49131 -2.81064 0.832564
1803 1 -15.6505 13.3997 -9.75646 -1.48011 -2.08779 -1.41916
1804 1 -2.59976 -21.8923 -14.187 0.688334 1.68872 -3.42284
1805 1 9.86806 4.97309 -8.28685 -1.21608 -0.967244 3.76825
1806 1 10.6029 -3.31795 17.0258 -3.7665 -2.61302 -0.326325
1807 1 -19.1822 -9.93853 22.5545 -2.95182 0.135586 5.46437
1808 1 20.7027 -8.66685 18.3628 0.467844 1.58587 5.76592
1809 1 10.891 19.6126 0.137862 -1.98687 3.4957 -2.56666
1810 1 10.2387 -21.9797 -4.92387 2.57957 -1.22496 4.04508
1811 1 -2.00855 3.92644 20.0965 3.52157 -0.353173 4.44627
1812 1 -10.1973 -3.50363 -21.8118 -0.362922 -0.0866765 -2.13864
1813 1 -16.7668 9.05376 18.4089 -1.03865 0.615618 1.58512
1814 1 11.6457 3.62857 -10.1216 -2.01007 5.18346 1.88261
1815 1 13.1563 -2.58402 -22.8462 1.61318 3.60138 -0.167136
1816 1 0.135878 17.0469 -9.69569 -0.698419 -2.90084 -2.14748
1817 1 -2.18639 18.0877 -17.3357 4.42331 0.277422 0.624282
1818 1 -21.8552 -7.8553 6.35798 5.54597 2.07592 7.23765
1819 1 -14.6699 -11.8724 18.6749 -0.882454 -3.36112 3.58291
1820 1 16.1266 12.1943 -11.9217 -0.22455 -1.84382 -5.01557
1821 1 20.8767 22.0075 12.9524 1.01611 4.30541 -3.79927
1822 1 15.9672 -2.52465 -2.56611 -0.341089 -2.02317 -4.00237
1823 1 7.56885 46.299 11.7911 -0.457734 2.07188 0.194195
1824 1 -15.978 -18.5289 10.4199 -5.31863 -2.34075 -4.46571
1825 1 9.15272 -9.92453 -5.07749 0.588905 4.40606 -2.40047
1826 1 19.2303 11.105 5.0281 -1.68884 -4.3222 -0.738666
1827 1 14.7605 -22.2318 -2.30454 1.29565 0.996308 -0.488228
1828 1 -12.9264 -21.1672 -21.8503 -0.243993 5.88399 -4.22839
1829 1 5.29934 15.9025 6.89042 -0.444209 0.53805 3.41206
1830 1 -15.697 2.94095 -16.5737 -2.69702 -2.32602 -1.63206
1831 1 13.4131 -15.582 -3.86194 0.25185 4.35789 -0.59554
1832 1 -23.2486 -11.8984 22.9898 -0.546522 -1.65346 -1.69267
1833 1 -10.9843 2.39426 19.2942 -1.02484 4.75853 -1.72069
1834 1 6.31404 -8.70752 -19.8144 2.62107 1.42756 -0.299189
1835 1 5.33929 22.2864 18.4507 -4.02495 -1.3408 2.63331
1836 1 -9.51956 -24.857 -19.3467 -2.27282 -1.13104 -2.00499
1837 1 14.0226 -20.3099 8.84876 -3.31256 -4.13013 1.90779
1838 1 19.8209 22.8102 1.50943 -1.49996 -0.583564 1.82791
1839 1 19.767 21.9749 6.03704 -1.62377 -2.75525 -3.42791
1840 1 -21.0378 -13.36 -1.74259 -8.52062 -1.85087 1.15993
1841 1 9.24756 -23.962 -11.4565 6.19795 2.24462 0.0525901
1842 1 15.1772 -18.0199 2.5753 2.7739 -3.73865 2.23255
1843 1 9.83961 -1.25491 -19.7403 -0.718062 3.39318 -0.235695
1844 1 -6.7612 -1.65036 4.0988 5.43367 -0.774016 -1.24559
1845 1 20.3858 18.1087 -22.757 -2.26229 -0.627681 -3.02393
1846 1 11.776 -19.4432 5.10939 -3.73283 4.59753 0.201479
1847 1 17.3686 -14.7888 19.5311 -0.00236463 1.58492 3.14885
1848 1 5.202 7.38991 -15.261 0.576373 2.63151 -2.66296
1849 1 12.0526 -23.495 -12.2704 6.91021 0.0507556 -1.85512
1850 1 16.5114 -21.513 -6.56216 1.52929 -0.200288 2.29123
1851 1 -7.72543 3.71554 -0.571094 1.31053 2.70084 1.07335
1852 1 2.08974 3.03441 -20.402 -1.46623 -0.660263 -5.11045
1853 1 2.85614 -12.91 6.96556 -4.61778 3.79208 2.5941
1854 1 4.95664 47.2472 11.7127 -4.86178 -3.74371 -3.05694
1855 1 0.137157 24.4307 -15.2576 2.82855 -1.36309 -2.80558
1856 1 9.65348 -4.12118 -18.8865 2.33228 0.548055 -2.74184
1857 1 0.350266 -20.2921 2.48003 1.00828 -1.52538 -1.4204
1858 1 2.50754 -14.9541 -11.9573 0.106832 -4.00473 0.706801
1859 1 5.67959 -14.9373 -15.8018 4.52318 -1.73706 -3.10711
1860 1 8.51941 0.159516 9.08156 2.26141 -0.713984 -2.31053
1861 1 -15.4497 -22.9586 -17.9 -1.03213 -4.00455 3.82093
1862 1 -12.7905 -0.606352 -9.98235 -5.17504 -1.10267 3.98523
1863 1 -3.02269 -15.4984 -8.79306 -1.28818 -2.65248 3.32508
1864 1 -6.89114 12.1081 19.4965 -0.40275 1.5905 -0.866993
1865 1 -11.0496 -3.10554 5.99639 -2.79457 0.85447 -1.06061
1866 1 8.39288 21.429 13.1772 -0.450457 3.7474 -5.99914
1867 1 7.40232 -7.33928 -1.51181 -2.79737 4.82642 -1.45596
1868 1 -8.42368 2.56709 18.5896 3.09096 6.1862 0.375867
1869 1 -0.88954 24.2719 15.9659 -0.769693 0.727295 -3.5638
1870 1 -18.9914 11.6632 13.9351 0.605759 -1.19059 3.31699
1871 1 18.9013 -11.3068 4.1068 3.53321 -2.89056 1.72632
1872 1 -1.89573 -7.76101 -8.90228 0.682214 -0.384656 -2.07181
1873 1 -10.2921 14.8418 7.66333 0.631378 2.91005 2.01431
1874 1 -10.1404 -15.2684 -19.867 1.04329 2.46864 -3.18999
1875 1 23.6812 -8.11991 -11.2496 5.53314 0.799555 -3.30847
1876 1 -23.3626 9.11293 -19.975 -3.96772 -8.61146 -0.585961
1877 1 -18.4017 -4.67071 9.22452 2.73053 -4.198 -1.7713
1878 1 23.0252 23.2366 -1.56165 5.59147 1.30841 0.638376
1879 1 -20.7203 -18.1664 -18.1184 -3.33462 -1.4624 1.68994
1880 1 -1.44272 23.1967 -19.8756 2.55283 -0.915864 1.49167
1881 1 11.857 5.02913 20.6923 -0.0832184 2.80515 4.01287
1882 1 -10.2169 7.30551 17.9216 0.911982 -5.10506 -6.06638
1883 1 -6.68926 -14.531 -8.02066 5.141 3.24775 0.462422
1884 1 17.4641 13.9956 10.7854 2.99531 -0.251001 -1.55645
1885 1 -7.35464 18.7274 22.6733 -5.10743 0.816955 -0.88887
1886 1 18.7565 21.9256 8.84413 0.857564 0.522715 -1.70396
1887 1 18.6167 -5.47962 16.8605 1.08029 2.56755 2.55955
1888 1 -9.99944 -18.3802 -15.2533 1.42432 7.12667 -0.953216
1889 1 -13.2174 1.32003 10.4877 8.56973 -4.53703 2.17032
1890 1 21.8712 7.87625 24.0026 3.55315 5.10143 -0.435967
1891 1 -11.2 -15.0527 -22.6395 0.160091 3.39644 4.38988
1892 1 0.401192 -12.4219 -15.803 5.26196 1.02283 0.509263
1893 1 2.65329 -0.640594 22.6061 0.150265 3.8977 -3.93086
1894 1 0.401279 -17.9581 -5.53752 -1.38249 6.36536 3.89019
1895 1 -21.2987 -6.57734 16.3016 -0.318382 -5.38785 2.04141
1896 1 16.5646 23.0243 1.73102 0.110013 -1.7573 3.57903
1897 1 -12.9698 45.6542 -9.1151 3.0861 0.795008 2.22634
1898 1 -21.7011 19.1363 12.787 -1.07964 -7.49468 -3.18988
1899 1 -4.95383 18.6994 -5.98403 3.7053 0.215511 1.43515
1900 1 -11.2098 -0.450866 4.71328 1.94357 -0.992952 1.42935
1901 1 -11.6537 -13.8961 -17.4845 -2.08768 5.78643 -0.474551
1902 1 20.0558 -0.158058 -21.1987 2.11425 -1.84713 -1.10613
1903 1 1.03297 -15.1954 -14.3974 -1.17274 -0.503033 4.27701
1904 1 -7.92088 -20.9789 15.8759 0.00886101 2.80898 -1.85814
1905 1 -14.3548 8.54799 -8.2414 -2.53878 -0.340319 -3.06926
1906 1 -22.4556 -24.4196 12.2128 -0.639785 2.79872 -1.33632
1907 1 -21.5797 -10.6114 13.3389 -3.09776 1.38437 1.81826
1908 1 -14.0847 -5.87926 0.238455 -2.15766 4.21934 1.36737
1909 1 9.27408 -10.1969 10.9787 -3.4426 2.6124 5.68948
1910 1 -7.31021 -9.80464 16.1618 1.49024 3.96057 -3.37482
1911 1 19.8601 -2.3744 -5.44708 5.39113 -0.773344 0.206183
1912 1 -15.5443 3.78752 0.188997 2.71922 2.7376 1.83491
1913 1 2.07665 19.3967 -1.54249 -0.807171 -0.761346 -2.8186
1914 1 19.9216 6.80535 3.65096 1.53877 1.37618 -1.26072
1915 1 20.4717 -22.3392 -16.8546 -0.87516 -3.48241 -9.37701
1916 1 -4.83978 16.8362 2.57317 -1.68346 -0.0801424 -3.12249
1917 1 -22.5196 23.2074 17.4637 -1.15434 -4.72643 -2.04725
1918 1 -18.1284 -1.61244 -20.443 -0.351013 2.08799 -0.182815
1919 1 -24.3672 10.633 -14.4355 3.45053 -0.185015 1.45582
1920 1 22.7922 -15.9836 0.559378 0.286607 2.04932 -2.84003
1921 1 18.6161 13.0063 -4.61551 2.44645 0.89033 -0.355439
1922 1 7.25591 14.1678 20.4346 4.04878 -1.99973 1.12345
1923 1 14.0519 0.0865005 -10.6083 -1.36798 1.73693 4.27811
1924 1 22.6846 -18.2996 -1.03175 -3.98131 6.18747 -4.1776
1925 1 18.8488 -22.4387 18.9339 1.9311 -0.782807 -2.10285
1926 1 14.8017 -4.50215 -6.72874 -2.24478 -5.20153 1.55215
1927 1 -7.71609 -23.3691 -23.139 0.396459 -0.348085 -1.12939
1928 1 22.1877 -4.55012 5.19881 4.08501 4.74682 1.16214
1929 1 8.75682 19.8578 1.71293 -3.15447 -4.0457 -3.37429
1930 1 -5.55078 -14.4438 -18.6306 1.11897 5.34708 -1.65068
1931 1 -10.5526 6.889 -2.13937 -5.07733 0.902235 -2.63789
1932 1 0.0810913 18.346 6.70616 -0.0333245 0.677061 5.4634
1933 1 -5.51387 18.3345 -21.3702 4.40723 -5.1727 2.9548
1934 1 1.3783 -10.6393 -0.487139 -8.68872 -0.211956 5.738
1935 1 19.007 -15.1339 2.64515 2.93557 -3.26328 -3.70126
1936 1 18.7589 -22.2455 23.6683 -0.490396 -2.99455 -0.274558
1937 1 2.28575 3.75026 19.476 -5.563 -0.438393 0.239223
1938 1 2.16104 6.03047 17.3842 -2.3861 2.7293 -1.94957
1939 1 12.3525 11.0927 4.08146 1.60173 -1.12081 -2.23157
1940 1 -19.9578 -24.2955 5.13808 2.10068 -0.420069 2.83486
1941 1 -0.00438006 -22.5297 -13.5804 -0.118665 -1.50802 0.943676
1942 1 -1.63969 8.711 -3.648 -3.20779 2.44755 1.03231
1943 1 5.03167 17.6274 -6.09197 -0.817856 4.396 -0.333547
1944 1 -20.1394 -23.4524 -3.33389 -1.67976 -2.77328 -0.0599389
1945 1 -24.2139 -20.4715 20.6034 -1.15126 -2.91679 -0.844061
1946 1 8.37686 9.03104 -5.61715 2.05933 2.52689 -4.08663
1947 1 -17.4658 14.0459 -14.7773 -1.35022 3.59261 -0.177703
1948 1 13.1513 1.95201 -14.2582 3.88026 1.34625 -1.23241
1949 1 -8.08806 -7.98564 -8.16873 -5.27237 4.49163 0.630942
1950 1 23.4633 20.8953 -6.97158 -1.30377 -1.93399 -1.90024
1951 1 -5.26933 -11.1779 13.4622 1.73908 -2.3441 4.5436
1952 1 4.89648 -15.5282 -13.0548 -0.554898 5.92577 -4.53393
1953 1 15.0314 -19.4199 -2.13738 -3.31995 -1.0437 -1.85851
1954 1 5.80495 6.81715 10.4311 -3.85675 2.24473 -2.66811
1955 1 -13.9789 -17.8389 22.1997 -0.0557766 -2.10102 0.164941
1956 1 -4.21942 0.0473759 8.52639 0.780501 -1.64805 0.329803
1957 1 14.1607 13.8887 9.24875 -3.53651 3.15322 5.91177
1958 1 12.5214 5.66895 17.9496 3.07975 -0.700388 0.998412
1959 1 -24.1024 -4.9294 -2.56198 0.156006 -5.7149 -0.609084
1960 1 -14.7027 -3.65565 -20.4835 -2.27388 1.03646 -2.87799
1961 1 17.4888 -13.4948 -6.18026 -2.08684 -4.12456 -0.302819
1962 1 0.2118 -11.2288 -3.03241 -2.37992 -1.24636 -3.91303
1963 1 -0.135584 18.5575 0.588886 2.96389 0.838403 2.15369
1964 1 21.209 25.1594 -14.0606 -4.12193 -2.37472 1.24556
1965 1 16.9457 -3.99706 20.337 2.2589 -3.61202 2.97242
1966 1 -21.5551 -17.053 -11.1247 -2.41887 4.67285 7.63037
1967 1 -15.3001 -22.5104 15.9626 0.0841088 0.380071 1.42025
1968 1 -21.7204 12.9048 13.9241 -3.66717 -4.35893 -0.892404
1969 1 -4.84133 -5.86131 8.89527 -3.71298 1.75006 -1.27466
1970 1 21.7231 -8.50087 -2.98486 0.925604 1.17259 3.15511
1971 1 21.7073 -0.859302 8.21157 1.34785 3.15003 -1.69233
1972 1 -2.93126 -6.52293 6.60287 1.04278 -1.29846 3.02719
1973 1 14.1549 -17.2508 18.967 2.42994 1.11619 2.2673
1974 1 16.7864 -10.7256 9.60019 -1.85763 -3.08931 3.6846
1975 1 10.9285 -15.9128 -18.4055 -1.80185 0.661429 3.35832
1976 1 21.241 -10.0344 24.1955 -1.26132 0.973251 5.01505
1977 1 15.4941 -13.3301 12.2299 4.88922 -6.3117 -2.22951
1978 1 6.69715 -3.71205 -23.9312 1.65318 0.157033 4.94677
1979 1 0.0447751 21.0375 11.5239 -3.72862 -0.890819 -4.36761
1980 1 -22.1314 5.11077 -18.8636 1.05799 2.31453 1.78862
1981 1 15.9752 23.4331 -2.82363 1.84359 2.27043 -5.90631
1982 1 -19.7689 -3.67628 22.5766 2.28503 -5.39132 -2.14691
1983 1 17.2461 -6.08977 -5.94328 -1.87849 3.17924 1.03011
1984 1 1.84245 18.825 18.8087 -1.14631 -2.85648 -0.928718
1985 1 2.71103 -23.8943 -9.27877 -2.73789 -6.52807 0.846949
1986 1 12.7126 -5.29103 1.87073 0.845935 -2.12174 -5.0909
1987 1 -22.0463 2.08268 9.86553 1.63019 -1.55562 0.0872203
1988 1 9.40445 17.7836 10.6632 -3.44139 1.48789 0.974816
1989 1 -11.2455 -13.4452 9.64269 -2.10945 1.70334 5.88974
1990 1 19.3121 -15.6792 -6.43835 4.21743 0.868383 -1.57691
1991 1 -23.0029 -23.0101 20.9997 -0.31295 -0.566617 -4.36435
1992 1 13.4148 19.3965 4.90397 1.51777 -1.27524 -0.637873
1993 1 4.35377 13.4834 -13.1842 -1.50644 4.27075 0.528472
1994 1 -21.7049 -16.8308 4.55782 3.24328 0.988007 -1.55351
1995 1 1.43932 2.58041 13.3534 3.04978 -3.70418 -5.21914
1996 1 -10.3625 8.12738 -23.404 -2.32041 3.10809 1.18596
1997 1 20.8606 23.5566 10.5456 6.60921 -3.96171 0.359493
1998 1 -13.3292 11.0023 -0.000402617 -3.31301 1.68959 -0.143116
1999 1 -1.63352 -11.8237 21.6538 2.20031 1.03606 -0.283963
2000 1 5.2542 3.09951 -20.3021 -0.182596 3.23731 -4.3088
2001 1 -10.1588 -11.4591 -3.809 2.53076 -0.672082 -2.65199
2002 1 -20.7435 21.8105 -8.45554 2.04589 -0.622356 5.74644
2003 1 12.4409 -3.89748 -9.8465 1.81012 -2.39223 1.16987
2004 1 -0.768642 -21.0353 24.0015 0.666197 -1.55574 0.926023
2005 1 5.17638 -5.46498 18.5183 -2.71332 2.68939 4.23563
2006 1 9.78441 -11.1421 -9.10032 0.50483 -2.16634 5.2034
2007 1 -10.9964 13.8266 -12.0589 -6.71733 -3.86917 0.661143
2008 1 -8.33628 23.0748 13.5062 0.933267 1.76126 -5.5896
2009 1 -3.92303 1.88487 -1.39412 -2.74075 -1.18746 -0.904053
2010 1 -4.93545 2.50305 23.6313 -1.19896 -5.78043 -2.23078
2011 1 -3.73349 9.53396 19.1182 -1.95706 1.70472 1.93542
2012 1 18.8989 -19.3719 14.1821 -0.281562 3.71357 3.28555
2013 1 -13.4694 23.2965 4.60905 1.84032 -0.422269 3.12964
2014 1 -6.94576 -8.93964 13.2986 -0.619411 -2.68476 -1.51222
2015 1 -2.49877 -7.99972 -1.43276 -3.77473 -4.98972 1.85683
2016 1 -5.23453 -17.6649 -9.1093 -0.757338 -0.0248695 3.88253
2017 1 9.99489 8.70651 22.6663 6.04522 2.96763 2.40292
2018 1 -17.3869 -1.45288 6.48562 -1.23036 1.87754 1.01078
2019 1 1.32712 23.0941 18.7916 -2.2606 5.36734 1.89116
2020 1 7.91037 -13.3348 -15.1526 0.0126891 -4.58637 -0.534746
2021 1 -4.88759 12.4835 10.777 -1.23837 -2.35261 -2.43555
2022 1 18.3676 24.6925 11.3234 -1.48824 2.88229 -2.30296
2023 1 -21.0673 -10.806 6.00989 -3.15125 0.0141772 -2.93747
2024 1 9.22382 9.5024 12.3292 1.94672 -0.19909 1.73527
2025 1 6.74203 -11.3279 23.7386 -2.58265 0.736442 0.874231
2026 1 9.46125 20.6082 10.398 2.08524 3.2708 -2.79806
2027 1 5.44592 18.422 -11.1734 5.0892 -2.34856 0.0259096
2028 1 3.62122 -1.58783 -21.4873 2.85786 0.953032 0.331103
2029 1 15.2627 -9.17546 -2.78851 -0.882263 4.07783 1.17144
2030 1 9.09556 -18.0862 -21.0396 -0.575329 0.538627 -0.730286
2031 1 -6.52967 -22.0989 -8.57631 -0.775975 0.799467 -0.00398455
2032 1 -8.22771 5.10197 3.93289 -2.48471 0.402897 -3.04382
2033 1 9.7474 14.9576 0.240698 0.600786 2.02854 1.77173
2034 1 -9.34895 -2.54381 -16.4787 2.15166 -2.52006 1.0552
2035 1 16.515 -16.1929 23.221 -0.986506 2.366 -8.15677
2036 1 -17.3708 7.58632 -22.6532 -6.88439 2.39606 -1.18747
2037 1 -17.6925 9.81613 11.5615 2.3192 -0.342117 1.41095
2038 1 18.1274 -0.122183 12.2604 -2.27037 -0.170257 7.86087
2039 1 8.82706 -22.7732 -22.4142 3.43872 2.92005 2.73849
2040 1 -6.08512 -24.0343 -4.5861 7.60181 -3.64195 2.00705
2041 1 -13.6949 -13.7585 24.1677 2.20665 0.0954269 -1.85576
2042 1 6.21264 -20.4473 22.8119 -0.0657444 1.84399 -2.99759
2043 1 18.9512 12.5049 12.8115 -1.5569 -5.29241 7.28279
2044 1 3.51506 -5.14899 3.04273 -0.152376 -0.194623 -4.90186
2045 1 5.96108 -17.6278 -14.9632 1.09565 2.3412 1.23655
2046 1 -6.36663 15.9983 17.6238 -1.2364 -3.60944 -3.28193
2047 1 -6.7245 -14.5345 7.69776 -0.348711 -1.43566 -1.9965
2048 1 3.18535 15.4479 -16.9378 -1.68167 -0.46444 3.07434
2049 1 17.2755 20.9769 -17.3765 -0.409845 -1.67282 -1.71429
2050 1 -11.3084 6.41213 -9.50987 0.451447 2.5261 0.768579
2051 1 -21.2002 8.80728 -3.64176 -4.75597 0.0241741 -4.85904
2052 1 -7.98722 5.01354 -20.159 2.78112 5.83936 -5.85804
2053 1 -23.414 11.8016 -19.0162 -5.9763 5.38007 4.11313
2054 1 15.2458 3.71085 -0.287993 0.540658 2.59816 1.33989
2055 1 5.07283 12.8704 7.0394 -1.69524 4.58309 -1.00695
2056 1 -5.73935 24.6144 23.042 0.0275628 1.38801 -0.28346
2057 1 16.7207 -4.42923 7.38618 1.68218 0.971597 2.6785
2058 1 21.9165 9.51383 -11.6877 2.4631 1.49725 -5.27591
2059 1 3.08687 -9.46083 21.9682 3.50045 2.23043 -2.01098
2060 1 -8.57245 -3.62672 -5.65074 -1.84211 1.05391 -3.70025
2061 1 -16.2961 -24.6058 23.9189 0.891483 0.984822 -5.86749
2062 1 -16.5404 17.8587 -8.34007 -0.818212 -0.946437 -1.78107
2063 1 -9.43021 -12.2516 -17.7331 0.521927 -0.724502 8.01387
2064 1 -13.7062 -16.6679 10.7949 -3.05199 2.943 3.79731
2065 1 13.5639 -19.1581 23.137 -2.40451 -3.27804 1.0854
2066 1 19.5049 7.95095 10.0881 -1.64142 -3.42709 -0.469483
2067 1 23.5492 7.09376 21.8395 2.20956 1.06537 -2.80184
2068 1 -15.325 10.1941 -5.17471 6.40522 -1.78379 0.481699
2069 1 20.2976 -23.8837 -11.8667 1.22984 -3.61848 -2.96848
2070 1 -24.3968 -0.266046 -0.92196 4.82906 -4.10212 4.42388
2071 1 -21.3351 -14.2645 21.0194 1.60224 0.660434 -0.914035
2072 1 -18.7859 6.63099 21.3993 3.07933 -0.0154264 -1.34803
2073 1 -18.3253 7.404 -17.0896 -0.568871 2.55813 -0.987496
2074 1 2.2037 11.4329 -11.4304 -1.14427 3.59016 -4.79736
2075 1 -8.93993 -15.8515 21.5857 -2.54338 -2.70858 -2.31652
2076 1 -13.8686 24.517 -9.39028 3.12449 2.26258 0.889944
2077 1 -17.2106 -4.97811 2.83708 -1.92363 1.9311 1.74469
2078 1 -13.3343 2.60507 -22.9512 2.94434 0.628016 -5.65444
2079 1 6.50246 -14.3356 -18.4408 -2.85922 6.58924 4.22639
2080 1 -23.3718 -23.8308 -15.6613 -3.12407 10.2529 -5.65044
2081 1 -23.8171 17.3699 -15.0721 0.846826 -1.4215 0.831414
2082 1 -8.3204 18.1512 2.35821 1.62966 0.418891 -2.50911
2083 1 19.2383 9.45666 -7.63414 -3.99279 1.5643 -0.177008
2084 1 16.1399 18.6111 21.6701 -7.81144 9.11694 1.20639
2085 1 -19.8884 -21.2011 -10.0733 -7.9764 -0.618532 -0.528738
2086 1 -11.353 -14.6335 6.80818 -0.811416 4.39961 -4.51001
2087 1 -11.7707 5.99504 -14.9248 4.58341 0.554749 0.837278
2088 1 9.103 20.1076 21.9846 -5.09283 2.37887 -4.41148
2089 1 9.22242 15.0973 -18.0285 2.08247 2.90911 -5.97805
2090 1 16.1038 7.32769 18.3419 -3.84441 3.11355 -2.68698
2091 1 -9.29342 6.24901 13.7487 0.631417 -3.89791 1.19745
2092 1 -18.327 23.3211 -22.3858 4.2185 1.80294 -2.8126
2093 1 -2.6947 12.6333 -3.46852 -1.59619 -2.22973 -3.43949
2094 1 23.6119 12.0701 -1.9132 1.21732 3.75739 4.49141
2095 1 -20.2371 -9.63848 2.53022 -4.83265 1.1988 -0.298134
2096 1 9.32406 -5.33578 -0.300515 -1.04325 -2.71845 -1.00082
2097 1 -4.95546 5.32823 10.3076 1.27657 1.04264 0.180885
2098 1 -15.1045 -17.1152 -8.56894 2.52931 -1.92461 -0.407161
2099 1 15.7758 -10.9432 5.47991 -7.70836 2.94153 -5.20445
2100 1 0.91751 -4.19283 22.0553 2.34776 1.55946 1.92417
2101 1 -23.1979 -7.25698 18.4224 3.08472 3.21705 -2.71955
2102 1 6.39991 6.5225 -8.73175 3.81384 3.68315 2.37415
2103 1 10.4555 -17.0499 -14.2979 -2.73564 -1.00472 -0.0696824
2104 1 -19.0458 -4.68526 19.8024 -1.473 -3.30919 -0.691817
2105 1 14.2593 10.594 -10.4847 -3.28825 -2.3766 1.15826
2106 1 -19.3324 -15.6367 -21.0106 -1.93916 1.10988 4.2124
2107 1 -10.4226 5.50307 -12.2375 2.90052 0.555317 7.1635
2108 1 -9.05671 11.6162 1.35387 -4.24804 0.0549121 4.93874
2109 1 -5.29261 7.05964 20.0607 5.69834 0.700259 -0.82653
2110 1 2.85579 9.55389 1.66748 1.16579 -0.814567 -0.718372
2111 1 -23.9559 -9.18523 20.4792 3.39345 -3.35164 1.85073
2112 1 -11.1901 3.42236 11.2166 1.30054 -0.123063 4.22543
2113 1 -17.8964 -1.95254 19.7361 3.19835 -0.690967 -1.32726
2114 1 0.794884 -24.3948 19.6548 1.37957 5.17548 -0.511504
2115 1 17.8766 -16.5419 -10.5455 -1.78543 -1.93853 2.6793
2116 1 20.2126 -2.75694 3.53912 4.70466 -1.8608 -1.77248
2117 1 23.0962 22.7673 6.25363 5.47482 -0.853111 -3.50971
2118 1 -12.8358 -0.28101 -4.74658 0.584656 -3.85914 2.01073
2119 1 -11.5385 16.4349 1.09137 -2.29907 -3.30294 2.72964
2120 1 15.1346 -17.4794 11.358 -1.4014 2.63337 3.11175
2121 1 8.99051 -19.6288 22.6797 1.96093 0.150353 -2.75983
2122 1 11.5122 8.8307 -8.63131 2.51047 2.99245 2.45447
2123 1 22.2167 -7.32636 -17.9733 2.83521 0.327657 2.9183
2124 1 20.8055 -2.06707 -19.2518 4.23391 0.22829 5.25169
2125 1 -3.79116 -13.5684 14.4195 1.78359 -3.8841 -3.08326
2126 1 11.3044 -6.21043 -4.19841 -7.41467 -0.408089 0.680947
2127 1 -23.7319 -9.56369 -21.864 -2.01902 3.43348 4.16625
2128 1 -16.8432 -21.7352 -2.43684 1.9866 -2.27728 4.90084
2129 1 -13.8523 -21.4349 11.3194 3.70332 -3.93824 -1.32515
2130 1 -19.6417 9.39767 -5.86322 2.86084 1.1056 3.53341
2131 1 19.2521 -7.63508 -1.6142 5.68163 -5.19571 -1.66953
2132 1 10.4712 -21.3394 -23.8298 -0.387353 -6.83353 -3.8884
2133 1 -13.4728 -12.9076 6.12727 -0.00256535 4.07709 1.11932
2134 1 13.5997 20.882 8.25532 1.6061 -1.97222 -1.66814
2135 1 16.9363 10.3048 -23.6384 5.43055 2.73495 3.19834
2136 1 -5.12063 -22.0361 4.80761 -0.497248 0.218591 -1.25958
2137 1 16.4884 16.1382 -24.274 2.4477 -0.873854 -0.917357
2138 1 15.5593 23.9637 -14.9265 -0.966068 -5.52081 -3.26447
2139 1 -10.2247 4.14676 -16.9203 -1.28927 -3.48624 4.54844
2140 1 9.93336 -13.6792 16.1515 3.61285 1.75419 -0.794927
2141 1 -21.0188 -21.3339 -1.42625 0.118287 0.84693 1.06814
2142 1 -16.9155 -7.89837 17.1321 0.377839 -7.7026 4.65798
2143 1 19.6592 3.57925 -15.6986 -2.77916 7.93879 -0.683045
2144 1 5.14016 -2.02935 5.0552 0.296458 0.229905 3.32503
2145 1 18.9694 10.0547 22.5867 1.04504 -6.07779 -1.51689
2146 1 1.43235 8.10456 19.1454 -3.66148 0.645134 -0.181404
2147 1 3.94853 6.079 15.2049 -3.9012 2.68842 -3.2326
2148 1 11.8053 -21.4636 20.052 -5.01862 3.11649 2.57496
2149 1 19.6313 -5.00954 -4.15958 -1.59376 -1.48901 7.21189
2150 1 17.3051 -6.78224 0.320416 1.57812 -0.483869 -3.84231
2151 1 6.88605 5.82406 -11.7895 2.63683 0.275876 1.44954
2152 1 7.93187 22.9493 -4.47631 1.20437 -4.76722 2.60779
2153 1 -8.41721 -13.2348 -2.31914 -0.102703 2.28851 -2.07656
2154 1 -11.2259 18.0437 -24.1554 -3.3385 -2.82035 1.08576
2155 1 12.0191 6.60596 23.1837 2.75816 -4.16319 -2.48862
2156 1 -21.9056 17.1682 -8.82225 -0.153295 -1.08424 -2.23239
2157 1 -2.65777 16.8949 17.5217 -0.0317599 -5.11025 -1.1355
2158 1 -16.3293 14.0681 13.957 0.128212 -1.51702 -2.14003
2159 1 4.14972 -20.8694 11.6922 -6.67286 -4.0818 0.956056
2160 1 -19.5834 -0.876436 22.2782 3.29285 -5.40544 3.02556
2161 1 -1.77015 9.3083 -6.42159 -2.29358 -1.99938 2.00665
2162 1 19.5714 10.7052 -3.20898 5.14582 -7.1032 0.829537
2163 1 7.11968 -6.52161 14.5886 -2.98818 2.32221 -0.192669
2164 1 16.9139 1.7544 -9.29535 5.57055 3.96673 -1.42435
2165 1 16.6292 18.9842 -13.3801 -1.22156 -4.10989 2.87958
2166 1 -15.8447 19.333 -16.3398 -0.97093 -1.97275 1.42892
2167 1 -12.573 -9.84016 -16.9228 -1.82665 -3.31584 0.825987
2168 1 -20.1727 18.6325 4.09914 -1.09233 -4.57559 -1.30676
2169 1 11.0263 -7.05968 -20.4153 2.45245 -3.23992 -1.03756
2170 1 -7.35993 -16.939 -0.741691 -0.475138 -0.132511 2.37175
2171 1 -4.56954 2.80041 5.43125 -4.91627 1.37599 2.91243
2172 1 0.734807 21.8188 -2.87943 -3.03015 2.45642 2.48057
2173 1 20.9093 0.623368 -15.1827 2.45519 -2.715 0.904714
2174 1 5.53591 7.34233 -2.81251 0.915845 0.033823 0.803007
2175 1 11.0482 -22.3181 11.9852 -0.089429 -2.62591 -3.18448
2176 1 8.55924 -17.7844 15.1586 0.882958 -3.92071 0.12718
2177 1 20.0259 17.9349 21.5555 -3.35083 -2.12738 -3.65405
2178 1 18.5023 -17.434 -8.18912 6.32429 0.219417 1.38679
2179 1 11.73 -3.34352 5.09021 -3.41316 -1.36077 4.61437
2180 1 10.1837 -8.05432 -11.1106 0.380826 -2.50833 -5.53843
2181 1 -16.5922 -20.1029 19.7097 -3.0669 2.75683 -0.603754
2182 1 -1.91833 -1.96597 12.1271 -4.9464 -1.60222 -1.0632
2183 1 5.15645 -2.98858 12.2941 -2.62721 -2.10118 -4.29194
2184 1 16.0058 16.1676 -19.7933 -1.15541 0.72404 -5.6062
2185 1 7.43017 8.31191 19.7717 3.70849 2.74848 -1.84406
2186 1 2.7124 -9.26926 -16.7565 0.0425583 4.55723 -0.34188
2187 1 14.724 -5.47267 9.428 -0.273867 -2.30422 0.805953
2188 1 -13.43 4.03771 9.66879 3.3375 0.251704 -1.6541
2189 1 2.58246 18.1967 -10.4291 3.53044 0.677592 2.38309
2190 1 -0.640914 3.15441 -12.1313 -1.97277 -1.8677 -2.47783
2191 1 14.1238 8.81461 4.41104 -2.60449 4.19618 -0.636496
2192 1 -0.704405 3.29523 24.1618 0.657687 1.43222 1.76152
2193 1 17.7666 -15.1432 -14.6028 1.03671 -1.34972 4.71045
2194 1 -20.3851 3.00071 24.0135 6.07729 -9.33092 -3.41046
2195 1 -10.2339 -19.8417 -9.76464 0.938145 -1.40681 2.3855
2196 1 -3.75915 5.14169 -13.6149 -0.510946 4.81654 2.18278
2197 1 17.3377 23.1181 22.2825 2.08895 -6.53542 2.94464
2198 1 2.94756 10.2529 -4.28778 -0.230436 -4.58002 1.36696
2199 1 -18.0083 12.0952 1.15832 -1.86283 -1.78269 -2.12903
2200 1 -3.05432 -23.9374 1.67589 -4.79029 -3.11188 3.59012
2201 1 13.9221 -12.9672 -22.5458 -0.670825 3.36266 -0.212394
2202 1 18.4979 -19.0033 -20.177 -1.47512 1.3642 0.62828
2203 1 7.9001 -1.31936 -3.3566 3.4804 -2.96502 1.89933
2204 1 5.12682 -0.678785 -2.36506 4.07563 -1.0055 0.0742146
2205 1 -22.4865 8.39368 -15.4116 1.4705 0.0227122 -3.60618
2206 1 -1.2176 -8.576 -14.4431 4.54661 2.47586 -1.94394
2207 1 -21.6559 -9.10326 -3.68561 -0.849989 -5.35124 -4.8754
2208 1 16.3442 19.4219 -3.92702 -2.65967 2.9568 -5.23634
2209 1 -23.7424 22.8324 22.7367 2.30311 4.25909 1.42467
2210 1 20.2969 -19.5999 -0.988174 -0.566626 1.57212 3.77841
2211 1 -17.6797 5.28167 -20.4647 8.95289 1.55384 -2.57136
2212 1 -18.5932 -5.29891 -4.53086 1.35348 2.04362 -4.99648
2213 1 18.3328 8.47956 -4.26002 -1.63166 -1.39074 4.37084
2214 1 11.8609 9.28167 20.4866 -4.45109 4.88354 1.4348
2215 1 10.5922 17.1468 -1.46727 -3.04183 3.7168 1.9272
2216 1 3.94185 -1.84552 -14.2318 -0.128457 -3.68225 -2.35364
2217 1 11.6398 -12.8972 20.0877 1.01735 4.77366 -2.83732
2218 1 -14.8497 -5.63997 21.2327 0.385017 -2.80089 3.00946
2219 1 -10.7186 -22.3821 15.2388 -0.319311 -6.09519 -1.48187
2220 1 2.37506 17.7668 -13.3104 2.48121 0.624447 -2.94429
2221 1 17.5479 4.46637 20.9836 1.25974 -0.313138 -0.69694
2222 1 0.790299 6.00799 2.78039 3.14688 7.66342 -4.48435
2223 1 -22.751 14.5145 -22.4611 -5.32949 -0.779261 1.79707
2224 1 -15.7078 14.4825 -4.79574 -1.05205 -2.90601 -0.923125
2225 1 1.47224 -17.8839 -21.7689 -8.14172 -1.34841 -2.23176
2226 1 19.9453 0.239019 14.6795 0.154268 -6.59393 0.617422
2227 1 8.97737 1.46997 -3.06927 -0.624197 -0.152313 1.81523
2228 1 -6.9629 -8.47252 23.7838 1.75876 -2.99007 -1.02936
2229 1 16.4974 5.53478 16.0009 -1.77575 -2.93078 -3.65432
2230 1 4.76878 21.7248 -2.9921 0.287342 -1.68116 0.470022
2231 1 -10.3687 20.5099 10.8532 5.13703 -3.26545 1.27322
2232 1 -22.0061 23.5343 -15.5469 -0.594364 -0.78723 -0.313835
2233 1 -13.3682 2.75971 -18.3939 -1.2847 3.84136 3.08902
2234 1 -4.52019 2.76718 -4.19649 1.36974 1.97388 -3.04436
2235 1 8.35129 -23.1657 11.8572 -0.0404793 3.2442 -0.251817
2236 1 21.6868 3.70404 -17.6466 1.59713 -6.12887 -5.03118
2237 1 -0.841473 -22.956 -19.973 -3.0713 1.28642 1.44233
2238 1 14.3278 12.7843 -14.1682 -2.53952 3.50268 -0.659581
2239 1 -14.6141 -9.25631 22.2853 -0.0935906 1.93749 -1.65004
2240 1 13.8026 18.1202 18.7782 1.03545 1.87144 4.13497
2241 1 -22.933 -2.70499 -18.5917 0.720773 1.26896 4.13093
2242 1 -9.47077 -15.3371 18.4021 0.371595 0.429435 1.21774
2243 1 12.6538 24.0576 -9.66293 1.22945 2.77816 5.2886
2244 1 23.3767 20.92 -14.8381 -0.268318 -1.89562 -3.71153
2245 1 22.3255 -19.3256 8.4244 4.05181 -1.49057 -2.53334
2246 1 2.27757 19.0689 -17.3406 -3.26918 0.462844 -3.30732
2247 1 -24.5951 -12.1877 8.98244 -2.30372 0.375468 -0.450082
2248 1 -2.41114 -7.56666 -11.993 -2.27715 2.47471 -1.63809
2249 1 -15.7927 13.0864 -16.9083 1.96699 5.76698 -1.96251
2250 1 2.9315 0.359367 7.73 -2.53963 1.55222 -1.53585
2251 1 -10.6777 -6.30922 -11.4859 1.27724 -0.130924 -1.69338
2252 1 23.3078 -13.2304 -0.512416 1.34973 -0.593239 -2.40593
2253 1 5.93917 -16.2466 -4.01909 1.4232 0.0863451 -6.22291
2254 1 4.18414 17.2491 13.7061 -2.96557 -2.9097 1.09107
2255 1 3.32054 -1.40813 -18.635 1.41505 6.00782 -0.366537
2256 1 14.2413 19.5539 -21.3565 -1.77338 0.717864 6.23209
2257 1 -0.84069 2.68977 -8.19584 2.75774 -0.0492792 0.775431
2258 1 -9.44486 14.7536 -22.0466 1.27719 -4.81252 -3.69063
2259 1 -21.4886 -8.34247 22.023 -0.821163 2.98935 -3.14881
2260 1 18.4163 17.4932 -15.3207 -1.41873 -2.24273 -0.814668
2261 1 15.0249 -3.10543 -9.45635 2.29819 -3.82045 3.61868
2262 1 17.1413 -23.3681 -1.06158 -1.98555 -1.28762 -4.49569
2263 1 1.55235 -16.8413 -2.78238 1.21607 6.19323 1.28708
2264 1 -3.0938 18.7129 3.50676 -3.90804 1.63733 2.33817
2265 1 -2.57195 1.6093 18.423 3.00242 -1.03239 -6.06626
2266 1 -22.0572 9.14067 13.8701 -0.968624 -2.63433 2.99522
2267 1 -10.8 -16.2774 -1.80826 2.55062 -3.15022 0.713924
2268 1 13.0584 0.843347 -7.03465 2.73465 -2.68469 2.11865
2269 1 15.0056 11.2992 -19.1861 0.0420411 -3.13075 -1.28343
2270 1 -5.56655 19.4706 1.55536 -1.71146 0.748478 4.25362
2271 1 22.3925 -18.9234 -7.84966 0.535996 2.23333 2.49598
2272 1 -0.337895 12.0015 10.0441 2.06961 -0.573093 -1.5277
2273 1 -23.6777 -18.4873 16.8345 2.54483 -0.0706558 0.428396
2274 1 -5.68556 -1.58743 17.5424 -5.50594 5.58837 -1.96062
2275 1 -13.0089 23.0575 -15.4176 0.151171 -1.05263 -0.628715
2276 1 1.14381 11.4706 3.03077 -4.98836 2.56385 1.33065
2277 1 -14.0239 3.54817 22.7948 -0.846426 3.03493 1.21286
2278 1 -16.376 -14.9665 -6.74281 -1.10382 2.35216 -3.22562
2279 1 -11.6549 1.23575 7.08571 1.24335 6.01155 -4.2718
2280 1 13.5446 -11.3282 -3.09032 -1.40095 -0.732105 4.6178
2281 1 19.4369 13.0011 23.3988 -1.52646 -5.18453 -2.43677
2282 1 -5.18519 22.1422 7.2568 2.0031 5.7002 1.50406
2283 1 22.3611 -11.8654 6.54838 -7.71373 -0.802516 -1.18213
2284 1 -21.1688 23.8637 -21.8085 -0.703023 -0.845496 -2.66034
2285 1 -20.4628 17.0849 1.67229 -1.38329 0.617049 2.2686
2286 1 4.06581 -10.2939 3.2125 2.69859 -2.30544 -3.91993
2287 1 20.597 17.2563 17.7281 1.64103 -2.2843 0.195976
2288 1 -24.7908 -6.91027 -7.03302 1.63894 -0.629534 1.36858
2289 1 -4.96495 14.3952 -23.6075 -2.68351 -1.737 1.03799
2290 1 16.7108 -7.79211 22.6215 3.30069 -0.832504 2.58549
2291 1 -0.928465 18.1139 20.069 0.907712 -0.819466 0.0932101
2292 1 -12.6173 -10.1162 -3.0172 1.55851 -1.17405 2.36808
2293 1 2.0733 6.17189 11.2727 -5.95903 0.882818 1.41593
2294 1 -19.8181 9.32318 -18.7841 3.05456 -1.23041 1.08719
2295 1 -14.0761 10.7601 23.9422 -2.87092 3.00125 -1.25102
2296 1 -20.3686 -9.31964 -18.8843 0.759798 -3.33734 3.68129
2297 1 9.21482 7.72265 -21.4715 -3.01383 0.80298 -2.90612
2298 1 -3.449 -20.0459 -5.42033 3.02081 0.960386 -1.21802
2299 1 9.1877 -11.9455 -3.0754 -1.77749 1.44325 -1.08354
2300 1 7.37151 11.3757 0.985427 -3.75404 0.434392 0.964577
2301 1 5.85372 -23.0307 21.3617 -6.37268 0.70021 -1.19826
2302 1 15.9158 8.95851 -15.9514 -2.10161 1.92532 2.479
2303 1 -12.2357 19.4187 -14.6831 1.24928 -0.728289 5.30043
2304 1 10.6952 16.5303 8.28867 -4.02873 -4.65078 -3.05777
2305 1 -14.638 17.1793 11.4057 -0.0936174 0.848656 -0.304886
2306 1 6.29352 -5.69573 22.2949 -2.66878 -5.00558 0.850677
2307 1 -14.3236 12.8803 22.1083 4.2821 2.65762 1.02071
2308 1 7.85721 3.76684 -17.1375 -0.516912 -0.0400504 1.64837
2309 1 22.0778 18.9947 23.3613 2.9802 -3.97215 4.04241
2310 1 5.32578 -16.4266 7.10203 -0.779263 -4.05735 -1.6595
2311 1 6.74564 1.58121 2.40242 -5.54348 -5.85386 -0.899465
2312 1 -19.9422 -19.4615 10.305 3.34312 2.83353 -1.67852
2313 1 -8.64854 13.1594 -18.0149 -6.92412 2.38549 1.7024
2314 1 -18.0757 5.46747 10.2814 0.201231 -0.887087 2.03697
2315 1 -11.1605 14.3163 14.4067 2.52827 -2.91994 2.511
2316 1 -18.0671 -12.1788 0.855191 2.30038 -3.50392 -3.11645
2317 1 -5.12014 -10.8965 -9.05985 -4.51859 0.601835 2.6491
2318 1 20.4755 -7.58083 -5.39868 -3.40845 3.3333 0.983446
2319 1 5.39877 -8.56402 6.94707 2.43953 0.935447 -1.53158
2320 1 20.8202 2.25724 -19.8128 1.47119 -4.82518 2.1668
2321 1 -2.82955 24.1874 23.2579 0.598667 -0.341903 -0.673642
2322 1 -3.57281 20.771 17.9715 -0.204807 -1.97401 -3.27295
2323 1 3.12254 -4.37658 -4.39704 -3.91405 2.29614 -1.60496
2324 1 6.89727 -18.713 -17.6209 -2.9463 -0.403822 1.23288
2325 1 13.6041 -19.9655 -16.0116 -2.45663 -4.67823 -0.483554
2326 1 -23.7488 -10.649 -14.5099 3.88859 2.70477 0.365795
2327 1 11.9612 1.13044 -18.1982 0.0946132 3.55546 -1.89532
2328 1 -9.0704 -8.68321 -4.46625 1.16633 1.37014 2.29091
2329 1 6.88295 6.16151 12.8968 0.196268 2.90327 -3.18979
2330 1 12.3222 -23.9361 13.638 -1.40604 -1.14546 0.755022
2331 1 -14.7203 -14.233 11.4926 -0.340097 2.3 0.546164
2332 1 20.6408 -13.9887 12.0422 0.93256 1.68892 5.47535
2333 1 13.1177 -20.9106 -12.0004 0.768478 -3.77755 -1.39782
2334 1 -11.5985 17.0909 15.5369 -0.0603181 -0.101659 2.36682
2335 1 -3.0019 17.6146 24.0135 -0.95885 6.27609 5.35389
2336 1 16.0978 -11.5002 -21.3706 -1.78039 -0.548478 -0.498855
2337 1 9.29637 5.48483 1.98317 -2.46968 -3.22688 0.667859
2338 1 0.545216 -1.72059 -21.5008 3.13391 -1.20831 3.10144
2339 1 6.81923 9.7126 -3.08787 -2.16282 0.915377 -0.579028
2340 1 6.66833 10.4911 12.3396 3.00812 -1.441 -3.68946
2341 1 6.59577 -19.0426 -21.5686 0.214266 -1.19372 1.31935
2342 1 5.61324 -16.307 1.67805 -3.45924 -1.66322 -4.74258
2343 1 10.7392 22.6929 3.26329 5.22353 -4.07057 -0.124703
2344 1 13.9472 24.4306 4.60194 0.207049 -6.54812 -2.15924
2345 1 7.29959 15.2858 -14.4702 -5.09014 -3.36229 -2.97608
2346 1 -4.41532 -18.8601 7.88219 -1.4919 -1.12187 -0.626494
2347 1 -14.0828 12.4417 -14.7206 -0.96957 -4.38374 1.7864
2348 1 7.51785 -3.29197 3.9812 2.60742 3.3829 3.13624
2349 1 -9.61455 21.6359 15.316 1.30211 1.72231 4.60484
2350 1 11.362 6.46392 -12.2005 -2.48608 -0.0224661 -2.92721
2351 1 18.0548 10.756 -13.217 -4.66927 -0.99861 -0.132313
2352 1 -4.13207 20.172 -23.5434 -3.93542 1.34501 -2.2776
2353 1 14.6965 -2.84309 6.11225 0.33288 -3.3229 1.63082
2354 1 21.2256 -17.6438 -24.0065 -0.883702 1.57913 -3.76474
2355 1 -8.66707 -0.437068 1.35908 -1.0192 1.84625 1.01181
2356 1 13.7534 -24.6043 -9.10072 -0.169751 -0.339558 -0.108488
2357 1 -2.2082 -1.52139 1.57167 -0.924309 -1.68947 1.86597
2358 1 2.32593 -10.7022 -11.512 1.81051 1.46933 1.64339
2359 1 7.27782 11.7837 8.44928 1.39108 2.05761 1.78844
2360 1 14.844 16.2104 1.93971 2.23537 1.06275 -1.41677
2361 1 -23.0295 9.89552 -11.8342 -1.46782 -1.99322 0.350268
2362 1 -21.1657 9.62966 10.8238 -2.98797 -1.91471 3.79119
2363 1 18.1582 -12.473 -1.00362 -1.67822 -3.2064 -0.629957
2364 1 1.92153 -2.23666 -0.2154 -5.67543 4.36268 0.107505
2365 1 -24.377 -8.49217 -4.78123 3.09817 0.301008 0.582392
2366 1 10.6982 2.82822 1.84235 -3.63049 1.10995 3.17523
2367 1 6.52171 18.0893 10.1435 -4.69867 0.974995 0.0752695
2368 1 -8.06921 -17.9614 -9.64897 0.726199 0.128852 0.0233053
2369 1 21.6994 5.73865 14.7344 -0.57335 -0.47799 -5.92954
2370 1 -20.9558 -10.5306 -7.84733 -4.53401 2.50095 -1.24326
2371 1 18.554 -21.3894 0.490676 4.00916 -4.21178 -0.19353
2372 1 22.9731 4.77617 -1.23236 9.74646 1.46266 4.02288
2373 1 11.2407 12.0297 16.6797 -0.519729 -4.04874 0.579862
2374 1 -5.81575 7.76764 -1.90014 5.30188 0.0506978 -2.9862
2375 1 10.8413 22.1649 14.3195 3.08352 5.67422 -1.45012
2376 1 -14.7796 -1.28489 22.9331 0.266458 -3.28343 -4.20025
2377 1 -6.58977 -10.3511 -4.61933 2.04274 0.193505 -3.26869
2378 1 5.94396 -1.28228 19.9236 2.89958 1.85362 5.3614
2379 1 -24.2583 13.0501 10.1489 -3.8475 1.2647 2.43603
2380 1 8.8136 -12.7619 20.2091 -9.01162 1.17892 1.94128
2381 1 13.2884 -8.04672 -4.52732 3.81983 2.4923 -0.00113245
2382 1 -14.6793 17.3376 -17.9691 1.27859 -1.54842 -1.94505
2383 1 -24.3333 -16.4976 5.67533 -1.24382 0.619739 -1.79185
2384 1 9.40017 -11.9013 22.7219 -0.319242 0.0277616 -0.803866
2385 1 -0.0140593 9.3324 1.35103 0.454997 4.04525 -1.10046
2386 1 2.8023 -2.71598 7.64929 1.88276 -4.15626 0.175156
2387 1 -11.8907 -6.24751 11.8987 0.739779 -0.935351 -2.72928
2388 1 8.89532 22.8505 21.5206 2.17544 0.362085 6.04418
2389 1 7.72397 -7.85721 11.9411 0.593486 -0.372794 -4.46146
2390 1 -23.0272 -7.58905 -9.15298 -0.371651 -2.75726 6.61843
2391 1 -9.52575 -3.79338 8.35877 3.01115 3.91658 -0.425696
2392 1 9.18913 -21.1846 -15.1872 -3.91807 -1.81779 -0.453977
2393 1 4.31004 -16.2216 19.9896 3.38979 -6.72056 -1.84565
2394 1 15.7392 16.4474 -3.90198 0.819384 -1.70598 -3.61541
2395 1 4.29736 17.683 20.0488 -2.37793 -1.26572 4.67149
2396 1 -15.544 -21.3575 -0.0214473 0.98912 -4.66774 -1.58905
2397 1 -13.9034 -7.39555 18.9246 -2.32549 -4.32268 0.238544
2398 1 -9.57414 -2.25017 14.4882 1.4585 1.237 3.27199
2399 1 -11.3579 -9.08848 9.36833 -2.06502 1.11419 -3.93503
2400 1 11.5968 -8.78731 16.0374 -1.54443 -1.61319 -2.34975
2401 1 -17.5028 20.8532 -4.48083 -1.58591 -0.749724 1.87334
2402 1 16.7174 14.0962 -17.7355 -0.706428 4.88458 -2.04308
2403 1 -9.22214 1.22074 23.7068 4.87366 -0.673828 -2.37125
2404 1 -20.6857 -6.3506 -23.0004 3.30408 -2.27233 -2.46179
2405 1 -4.2933 -10.8081 -22.4622 8.51889 -1.91183 -2.14033
2406 1 -23.5529 7.10739 -11.4425 0.889096 1.43002 2.6022
2407 1 -13.3198 -11.5587 14.1134 6.50426 -2.59888 0.195446
2408 1 -19.6941 -4.72405 -13.3866 2.33559 -2.6589 -0.991168
2409 1 4.19725 11.9971 14.9535 4.42593 2.91019 -3.1168
2410 1 6.39635 -21.4456 -22.986 -2.4724 1.3439 0.168524
2411 1 8.40499 12.9313 -16.4316 -2.01911 -1.84586 0.106483
2412 1 11.1217 19.3813 18.0607 -4.34107 1.78256 0.45497
2413 1 -6.77639 19.7369 4.50622 4.24287 1.85715 -2.88174
2414 1 14.8491 -7.58004 -6.99891 4.19381 -0.517908 1.32341
2415 1 22.7862 -24.0967 -23.1027 3.92666 -0.856364 0.289045
2416 1 7.35826 14.4365 9.959 -1.93916 -1.79606 -1.36716
2417 1 -5.0246 -6.87861 -0.40122 -0.335836 0.462529 5.6546
2418 1 14.3955 3.27434 -5.94657 -1.28639 -0.513818 -1.44705
2419 1 22.1991 6.29877 -18.1971 7.52483 0.975153 2.5538
2420 1 -1.27509 -5.54384 -6.86033 1.00748 -1.30127 4.48862
2421 1 23.1979 15.8575 -7.53933 2.62116 0.860238 4.1984
2422 1 -16.3928 6.17089 14.818 -0.567503 2.47737 2.16202
2423 1 14.6201 21.973 5.84474 1.04393 -3.65694 2.93047
2424 1 -24.4375 17.0393 9.20973 1.10888 -0.434016 -2.23543
2425 1 -16.1643 10.4173 -22.3883 1.98058 -0.206426 2.79519
2426 1 -1.45367 15.118 20.2766 0.627335 4.53186 5.02703
2427 1 13.2135 4.08691 4.97838 0.348697 2.60123 2.29031
2428 1 13.4728 -15.2603 13.4205 1.05663 3.23334 -5.50293
2429 1 -8.57255 -10.2174 -11.4725 -3.18398 -1.18812 -5.49879
2430 1 -14.4073 -6.86985 16.1277 -1.40449 2.74499 1.12496
2431 1 -18.408 15.5867 -9.36051 -3.79358 -5.49162 -4.56367
2432 1 19.4245 15.5875 -17.4222 -3.88815 3.20958 -1.82029
2433 1 19.6151 -19.8483 17.8796 2.23657 -3.37949 5.28371
2434 1 -0.735988 -22.0344 -3.9396 0.733171 -5.70443 -2.82587
2435 1 -14.0203 23.2239 10.8074 3.33353 -3.6777 -0.307332
2436 1 -8.41748 9.65417 18.4958 -2.76184 -1.01034 -1.81847
2437 1 -14.4586 -4.52345 11.4339 -1.55744 -1.67117 0.794028
2438 1 -2.36824 -22.7357 -22.5492 -3.08906 0.680305 -3.05171
2439 1 -13.9159 18.9924 9.11736 -1.40058 -2.04148 -5.63982
2440 1 6.66999 -3.02472 -16.9295 0.21749 -0.482721 -0.910103
2441 1 -22.565 14.2834 20.3905 0.606525 5.25315 0.121837
2442 1 -1.95156 -8.30194 -17.32 0.358071 -2.09792 0.101739
2443 1 4.97363 12.2676 -20.3903 2.11797 1.24501 -2.01157
2444 1 13.0526 21.687 20.6406 -0.444879 -1.95298 0.110604
2445 1 0.58271 2.73485 21.6148 -1.71872 1.50637 3.55113
2446 1 -0.821009 -6.26639 16.8861 -1.20599 1.37103 1.5775
2447 1 -0.18876 -13.3741 17.3149 1.10739 -3.35163 1.49078
2448 1 1.03324 -13.0238 -9.92413 3.1697 -3.09508 0.926432
2449 1 16.6221 -22.2331 12.4859 -0.895638 -5.48987 7.03125
2450 1 8.69304 12.8913 22.8418 0.39466 -1.61698 3.04515
2451 1 9.15192 -23.1339 4.72241 -2.39634 1.58907 3.31181
2452 1 12.7966 17.1816 -13.9451 -1.15647 2.81392 4.1926
2453 1 -2.55557 8.43694 12.5452 1.44872 4.03501 -0.171567
2454 1 -6.04385 7.75867 -16.7844 2.54592 -1.43485 0.329114
2455 1 10.5004 9.96792 14.9163 3.90482 2.10452 0.797481
2456 1 20.7392 21.4935 -24.088 1.19615 -5.30833 -0.183243
2457 1 -2.78212 2.04481 11.8933 0.126895 -2.46518 -0.00788063
2458 1 -21.7925 21.4337 -4.23482 -3.14564 2.4823 -4.17408
2459 1 -19.8494 14.6365 -7.00292 1.55577 -1.36719 6.12885
2460 1 8.78918 10.9605 -14.2399 -1.46105 2.61097 1.81278
2461 1 -19.2738 16.3216 -4.09237 2.16294 -0.599765 -4.24747
2462 1 -11.7509 23.5171 2.42541 -5.00665 7.51442 -1.42365
2463 1 -14.4231 -20.9396 24.071 2.60452 -1.52577 -0.138313
2464 1 8.15566 21.0944 -13.6616 -4.40317 -5.59872 -0.432665
2465 1 -9.46351 -13.9789 -10.8517 2.58141 7.5379 2.27688
2466 1 1.54369 4.33384 -4.51637 2.7228 -1.70598 -2.88739
2467 1 1.83117 -17.7503 8.96957 -3.19315 -3.96946 1.43649
2468 1 -19.7519 -23.8187 -6.40144 -2.61514 -2.37021 -4.72088
2469 1 14.5703 -23.2655 -23.859 2.18834 -2.78225 2.09475
2470 1 13.4639 -19.8774 -7.71142 3.99583 -0.723379 -6.69017
2471 1 -3.12322 22.8683 -22.3177 2.84072 1.33436 -4.03059
2472 1 -20.0658 -0.228394 13.3721 4.117 0.494671 5.38339
2473 1 13.6261 9.62626 -6.78428 -1.27067 -0.192652 -3.74985
2474 1 -4.46725 -10.1886 -17.3966 0.767774 -3.75591 5.94974
2475 1 -15.6355 11.6055 10.1738 -1.27307 7.10463 -0.0185266
2476 1 -7.20992 -20.2301 -18.6418 0.692301 7.88846 2.92022
2477 1 13.2779 10.408 0.175608 -1.252 3.96062 -0.305191
2478 1 -3.74151 -22.5311 -3.5997 -2.52885 -0.555082 -1.11333
2479 1 -22.1851 -4.84877 3.63611 4.14277 2.33733 -3.8976
2480 1 -1.58476 21.9121 -9.43415 -3.00497 -3.03409 2.05518
2481 1 -14.8026 -8.26215 -9.32795 -4.81099 -0.687461 6.77758
2482 1 6.35763 -4.60172 -1.26595 2.89128 0.3429 -0.0856465
2483 1 0.338612 9.39121 -11.016 -2.19694 -6.57215 -1.69559
2484 1 1.62737 -14.125 -7.51718 -1.96466 4.91467 2.64364
2485 1 -1.81859 -20.1381 4.40541 0.641669 0.641736 -1.32189
2486 1 -1.70645 -19.0477 6.99095 1.22231 -1.46714 0.125564
2487 1 4.18109 18.4687 0.202842 -10.0465 -2.92587 -1.99246
2488 1 -7.39235 19.609 18.4942 0.28905 -4.10703 5.59256
2489 1 4.7693 22.0721 -9.54991 -3.59731 -5.75865 1.86738
2490 1 -13.3958 22.1792 18.1924 -0.55315 -0.886001 3.19578
2491 1 11.0481 -21.3656 -2.26577 -2.4634 -0.798138 -0.486533
2492 1 22.6801 14.4257 2.07427 -1.13747 -0.803917 -1.28715
2493 1 19.7811 22.7687 -19.7016 -4.1052 -0.276246 2.2443
2494 1 -15.2684 -13.7329 -21.5922 -3.95295 0.90044 -1.5894
2495 1 16.6397 -14.1943 -10.9878 4.56084 -2.91261 1.4466
2496 1 3.69434 4.61022 -22.3887 2.68896 -0.680258 -2.28333
2497 1 5.11356 9.01174 20.9707 -1.40032 2.55934 -1.3191
2498 1 -3.73612 5.96194 3.16274 0.126646 -0.956553 0.454912
2499 1 -24.334 -14.9233 8.11624 4.47681 0.589104 0.623006
2500 1 11.1431 20.76 6.83304 2.56142 -2.13214 -3.34619
2501 1 5.58043 13.3082 4.41912 -1.9672 1.42799 -1.44808
2502 1 -6.46326 -10.8173 8.88525 1.23664 3.58339 1.81148
2503 1 18.3996 14.2434 -0.68318 -3.16801 2.10772 -3.63297
2504 1 9.96695 13.2033 10.7289 -0.639564 -0.865812 -5.02625
2505 1 -10.2789 18.0801 21.5212 0.569471 -0.107629 -2.50061
2506 1 -23.1011 10.5133 -8.04185 -2.10305 -0.760048 -0.235508
2507 1 9.51731 -2.41784 -16.405 3.0473 1.7514 -4.4248
2508 1 12.7743 22.2514 -5.47228 1.30936 1.95574 3.62713
2509 1 -4.33601 -4.44793 3.67949 -6.64682 1.3759 -4.6457
2510 1 -21.1757 0.185735 -1.25525 5.14064 1.48728 1.65486
2511 1 3.86908 6.3533 20.051 4.03133 -0.92469 -2.5974
2512 1 -10.0775 9.98772 14.02 3.99383 1.22847 -0.107343
2513 1 20.8543 9.35377 7.79951 4.04441 -2.30448 0.733794
2514 1 21.3975 10.9002 23.9021 1.05227 0.138209 0.298358
2515 1 2.38838 -22.0496 3.46638 -3.668 1.27027 -2.43878
2516 1 2.51508 13.1222 -18.8163 -0.801636 -5.18402 1.86107
2517 1 -11.4393 -12.2795 16.3019 -1.61225 3.87044 -6.29323
2518 1 -3.55512 -4.37146 -3.66297 -0.586152 -0.594497 2.62385
2519 1 -22.723 20.7849 14.8088 -0.258753 -3.50942 3.22777
2520 1 -23.262 1.8525 -7.93378 0.610487 0.756747 0.956201
2521 1 7.42709 6.10099 15.9076 0.501473 2.82148 2.58161
2522 1 -4.28499 9.83222 0.323882 -1.688 -5.7761 -0.170638
2523 1 -17.435 -23.673 -22.1297 1.89428 1.08079 -1.32522
2524 1 9.33591 23.3323 -21.0361 -6.86725 -6.21376 -0.445105
2525 1 -12.336 -16.0541 -9.01582 3.05812 0.293061 -3.21319
2526 1 -9.2184 -4.18069 -14.2247 -6.96417 -2.75096 2.12223
2527 1 5.67618 5.06201 7.69309 0.455858 1.85888 0.337468
2528 1 -8.40344 11.7555 6.38094 -5.9718 -4.10851 -0.964553
2529 1 -17.7766 -9.27161 -2.53636 -3.81892 4.88013 -4.42484
2530 1 3.11954 -13.3912 -15.3756 -0.911745 -5.07674 -0.807606
2531 1 -18.5097 -9.43733 -16.6403 1.88139 -3.03307 -1.77206
2532 1 -14.0266 -17.0283 0.744887 2.02638 -2.45511 1.75904
2533 1 -14.0082 23.2411 -2.79226 -0.339537 -4.37749 2.29198
2534 1 -16.6851 -12.176 -3.09093 3.10628 -1.93886 0.644822
2535 1 16.1701 -6.72935 16.0445 0.463953 -1.22023 -1.87227
2536 1 -24.0412 -20.6129 23.6768 -0.65618 -2.55816 5.6216
2537 1 -0.609809 -23.4622 13.3155 -0.827647 1.45487 -2.60663
2538 1 -8.12459 4.87738 -23.0863 -3.04735 -0.555073 -1.50144
2539 1 10.9466 -11.3111 17.4021 -0.572333 2.89772 0.884127
2540 1 19.7226 -7.98938 15.6192 0.371748 -3.28289 -1.06982
2541 1 5.30849 8.44279 13.8488 3.12484 -4.94867 5.35511
2542 1 -11.6928 -7.18077 -21.5928 7.1835 1.82073 -0.997961
2543 1 -18.4748 -6.88989 -6.89206 -4.69773 3.79408 -0.449649
2544 1 14.1906 2.26151 6.6074 -0.575111 -3.05712 -1.1516
2545 1 -12.0981 11.2428 -20.5606 -0.00440794 -3.30294 4.08625
2546 1 -15.83 3.62054 13.535 -4.00269 -0.468804 0.977925
2547 1 -13.5483 -2.0227 5.95112 3.27564 1.99376 -2.43938
2548 1 18.3541 -6.55039 -8.59762 0.867005 4.37206 4.77845
2549 1 5.45396 13.683 -15.9406 -0.522525 -1.29625 3.25222
2550 1 -23.5194 -18.0053 -18.5614 4.65192 -4.28156 -0.492559
2551 1 -6.82962 10.1975 -15.6275 6.40474 -0.0690462 -6.60506
2552 1 -1.57582 -14.604 8.69414 -0.940201 2.24374 3.81842
2553 1 0.981011 22.6276 14.7701 1.06627 3.92834 -5.06629
2554 1 17.7347 24.3928 -7.83549 0.756265 -6.01602 3.63799
2555 1 3.39829 13.9229 -7.64507 0.322487 -0.358037 -1.27113
2556 1 -9.49882 -11.2743 8.88019 -1.91567 1.28926 2.58614
2557 1 16.1328 -20.8812 -11.5792 -0.290108 2.19681 6.32371
2558 1 -20.9177 8.86055 -21.3786 3.81982 -4.77299 0.615178
2559 1 -18.1713 6.78888 5.91716 -0.628037 3.35782 0.168018
2560 1 22.6932 -22.0504 8.9678 -2.25403 1.70622 0.998077
2561 1 -12.1184 -1.23769 10.3266 -2.13691 -1.7443 1.2435
2562 1 -20.8881 -5.49212 -9.71891 2.61389 2.33817 0.48108
2563 1 20.1776 -3.11009 -23.4971 -1.56981 5.0995 -0.568024
2564 1 -11.5002 -15.8903 -12.084 3.52475 2.82364 -3.61833
2565 1 13.0632 18.7263 14.859 -3.44357 -0.277475 -1.35142
2566 1 23.474 -8.61542 13.9103 0.0437254 1.50839 -3.01149
2567 1 -11.5576 -0.156975 -18.6717 -1.42302 -3.42807 0.66594
2568 1 20.3508 -11.2566 -19.6179 1.80688 1.21922 -3.33017
2569 1 -24.0345 -18.4597 -11.8127 0.0570363 0.228381 -5.59749
2570 1 -22.3547 15.0045 -16.8379 1.56779 -1.65511 2.56722
2571 1 11.5129 0.820592 22.1847 -0.241806 -5.9895 4.11679
2572 1 -22.4446 -18.949 -5.31612 -0.722623 -0.647418 1.77308
2573 1 18.3337 -24.4858 -3.37697 0.375523 4.03191 4.26653
2574 1 -17.3264 -24.4021 -7.69449 -2.09594 3.22336 2.61516
2575 1 3.94881 17.0609 2.77604 -3.14956 -5.52641 -1.94281
2576 1 23.4014 18.6821 15.2322 4.71765 1.4276 1.02151
2577 1 14.7737 20.916 -2.16627 -2.46356 -1.55721 0.12898
2578 1 -19.254 -16.8068 -3.18183 -1.83314 -2.81732 -1.16287
2579 1 -10.7011 9.66979 2.57087 -1.7704 -0.202544 -7.02454
2580 1 22.3942 11.7737 -20.7717 0.651017 -1.69158 1.568
2581 1 -7.93006 16.1954 21.4542 -0.181788 -3.06968 -1.24125
2582 1 13.8457 23.4903 9.61806 -2.27538 0.986948 2.96429
2583 1 6.07612 19.3994 -1.79118 3.64071 1.03977 0.661704
2584 1 -10.3865 -22.354 -11.2538 -0.501938 0.469594 -1.51401
2585 1 14.3546 -14.3096 19.6089 1.6554 0.495766 1.16509
2586 1 -13.6932 14.7033 12.7 -1.27628 2.77482 -4.83014
2587 1 17.1855 -17.0239 7.46771 -2.00856 2.35246 -2.96513
2588 1 16.2028 -0.470959 -17.2928 2.18857 1.58311 -0.538561
2589 1 -0.431517 -7.62776 7.70027 -0.695021 -5.28494 1.93584
2590 1 14.3666 2.6988 -8.93791 2.41006 2.65202 -2.19764
2591 1 -4.31043 -20.7807 13.1589 1.9283 0.578484 1.47329
2592 1 -0.699876 -18.6434 9.75504 0.106655 2.75343 0.936438
2593 1 -23.648 -6.94038 -23.0281 1.50602 1.18048 -0.891666
2594 1 22.1996 -6.59144 15.2353 3.07019 -2.47951 0.986271
2595 1 -2.32982 -18.6775 -20.9937 -0.0490056 -1.68571 -0.985867
2596 1 -14.9282 10.3286 -19.8992 1.21226 1.42189 -0.894543
2597 1 -18.8717 -2.48691 -17.4962 -0.0458039 -7.19226 1.66868
2598 1 20.4945 -0.487308 -3.58612 0.137435 -0.0958907 4.10972
2599 1 -6.70147 2.52723 7.59089 -5.32583 -1.42485 -0.809901
2600 1 4.92435 22.6039 1.5205 1.85461 1.49754 -6.00851
2601 1 -1.59729 7.8619 3.41911 3.24118 0.220394 -2.46996
2602 1 -5.45277 -13.2558 -1.88468 0.898073 2.2995 4.87628
2603 1 -23.9557 18.2999 -6.96433 2.47199 1.16101 -2.97743
2604 1 13.6683 -13.2213 -0.77114 4.72086 -0.0334427 -3.06844
2605 1 -17.1844 7.84576 -5.46629 0.162068 -1.23406 5.99476
2606 1 17.7941 16.6283 20.5757 -0.386496 1.76665 0.598907
2607 1 11.7193 2.66949 -23.0179 -5.18553 -0.789593 0.556814
2608 1 12.1998 -19.2735 -22.6266 -1.90288 0.135174 0.70491
2609 1 -13.4565 -4.7777 -18.241 4.43471 -0.448296 2.56121
2610 1 1.2932 5.68843 -16.2377 -0.584854 -1.47556 3.23965
2611 1 -22.1481 24.5904 -19.1443 -10.5511 0.405532 0.185969
2612 1 -17.8344 -22.9569 17.2096 -2.06645 2.42653 1.98225
2613 1 -23.2339 5.38668 16.214 0.601 6.93725 -1.2431
2614 1 -13.4039 12.4186 -18.3865 -0.995897 -3.22136 -3.91798
2615 1 -4.49597 2.16713 16.454 2.92381 -0.991576 0.706136
2616 1 -23.5765 -2.21983 -10.1707 1.20823 5.33898 2.49017
2617 1 -4.41026 11.3298 -17.2265 2.6123 -1.91121 2.79842
2618 1 -7.61063 -18.2356 -12.5431 -1.01089 1.69188 0.00334003
2619 1 1.06433 9.37412 -21.075 5.85668 -7.44446 -3.5483
2620 1 -8.78136 14.6453 5.11909 0.0661809 5.03939 1.77894
2621 1 4.66133 -22.124 6.72525 2.23857 4.69498 -2.22554
2622 1 -2.34219 -17.6393 20.5942 -3.24289 2.63829 -3.83065
2623 1 -21.4404 19.5342 -23.0229 -1.34049 -3.16878 2.60921
2624 1 -20.1521 17.5316 -6.62153 0.773996 -2.41248 -0.109765
2625 1 -7.69429 -4.85231 23.1142 2.45026 2.22557 1.1581
2626 1 -4.50388 2.26925 20.659 -1.78238 6.23788 1.34361
2627 1 16.6575 24.0247 9.28863 4.17313 3.66388 0.338404
2628 1 13.064 -7.46772 -22.1907 -1.0975 3.44428 -0.271361
2629 1 -23.0127 -2.43793 7.334 -1.28448 -3.55492 -1.12644
2630 1 -11.4935 -8.6561 18.3467 2.40281 2.08367 -0.635908
2631 1 19.0865 16.4302 1.49117 2.97473 2.52634 0.909124
2632 1 18.4455 -2.30998 -17.5742 -2.07774 0.849612 1.17076
2633 1 -3.99581 -14.6024 -13.9317 -0.150047 2.51182 1.4733
2634 1 -7.43167 12.6574 -23.9867 2.7129 0.535211 -1.34005
2635 1 -0.99155 7.7502 22.9764 -2.86758 -1.24038 0.779486
2636 1 -14.9953 -19.5843 15.889 0.0847923 -1.0713 3.77046
2637 1 10.616 -14.5733 -15.8411 -2.74769 2.54007 -3.43602
2638 1 12.3785 5.42373 -6.7326 -0.329063 -4.51059 5.64326
2639 1 -1.05728 -9.90632 19.4879 -0.40634 0.0398234 0.529957
2640 1 3.49361 15.6913 -20.1302 0.816391 -3.35339 -0.91236
2641 1 23.3111 7.72784 -13.8094 0.71815 0.473381 3.10622
2642 1 -5.36986 -19.2414 4.85879 1.16114 2.52214 1.17454
2643 1 -3.43515 -14.7943 23.7088 -2.37787 -0.456398 -8.20062
2644 1 22.7635 -22.2808 -14.8224 -6.3301 -3.57921 -0.494357
2645 1 5.76043 -22.1048 15.2231 0.158268 2.75358 0.317535
2646 1 -3.7967 10.0496 -2.36747 -3.04582 2.76726 0.0104247
2647 1 -12.6627 6.32701 3.09188 3.08402 -0.505758 0.464032
2648 1 18.3588 1.55916 3.08932 -1.81879 -0.481788 3.47768
2649 1 -19.1647 18.4802 -9.91178 0.793847 0.284589 -1.75491
2650 1 -4.86783 8.73388 14.2408 -0.964803 -3.08465 0.646519
2651 1 -17.8827 -20.028 16.8185 -3.00293 2.13499 -0.956807
2652 1 -20.6638 -5.88533 -15.9941 -2.59337 1.4442 8.58589e-05
2653 1 -8.39117 8.76533 -2.54423 1.84498 -2.0075 -3.45308
2654 1 20.9357 -8.96295 0.598759 4.63005 4.59915 -1.12809
2655 1 -7.22142 -11.3089 0.998058 -0.599853 -0.71 -0.616407
2656 1 -6.544 9.10953 -20.8621 1.99159 -5.528 -5.50312
2657 1 -10.9262 -7.20639 7.23643 3.56755 -2.47263 -0.451662
2658 1 -7.221 0.90542 16.5883 1.97227 0.315219 3.03712
2659 1 16.693 -5.32787 -23.1265 -2.82972 2.70644 -4.59056
2660 1 -11.7227 22.6321 12.3248 2.65217 -3.20152 1.69293
2661 1 5.61039 8.00634 23.75 -1.027 3.3126 1.71102
2662 1 -21.1076 -21.7233 8.82152 2.11827 -2.81733 -5.77474
2663 1 -10.4839 9.62761 21.6658 -3.45394 -1.47538 -0.271889
2664 1 -15.915 17.4711 22.9371 -2.68278 1.39432 0.4727
2665 1 -20.6907 1.90631 0.99703 -3.7492 3.72343 0.605898
2666 1 18.9484 -22.2219 3.15055 0.821735 2.52467 -0.64227
2667 1 -11.1238 -4.63845 -6.27267 -2.04718 -5.65287 -3.111
2668 1 -7.86422 -18.4028 -22.4693 1.67226 1.02192 0.365799
2669 1 2.27642 -7.81011 18.2996 -0.966938 2.56321 1.26481
2670 1 23.4998 23.8465 -15.1214 -1.96329 -3.54377 -1.64691
2671 1 11.8 19.8991 22.4164 -2.07799 0.711917 -0.959074
2672 1 5.83852 -5.0341 9.14579 -0.329471 0.396968 1.4828
2673 1 -13.4951 47.2612 -0.926648 1.5631 3.84665 -1.34915
2674 1 -8.45527 -22.4087 -0.671454 -2.46119 1.05731 0.275272
2675 1 17.1403 4.79419 -9.81938 1.83273 0.714466 0.567793
2676 1 21.2972 22.2796 -17.4393 -2.07399 -0.483573 3.84462
2677 1 -0.462817 -22.7073 0.888826 -2.25288 4.15788 -5.69051
2678 1 3.62617 -19.3729 -14.9886 -2.1827 -0.797196 1.18512
2679 1 9.26469 -1.78001 2.58471 0.763466 2.37786 2.57598
2680 1 10.678 -4.90054 -7.80714 -0.13132 1.29986 4.41218
2681 1 -14.4418 -7.58995 -17.7799 -3.22591 -0.519337 1.54584
2682 1 -22.3403 1.29604 13.5108 1.64545 2.09628 -0.322101
2683 1 -17.8693 4.69597 -17.8421 0.174466 -0.752207 2.76465
2684 1 -22.6434 -10.6789 3.68478 6.98775 0.269059 4.467
2685 1 -0.854531 -8.87439 4.65329 -1.72805 -3.07602 -4.17101
2686 1 5.52278 -22.6489 -17.5141 -1.36649 -1.26086 0.587843
2687 1 19.0024 -17.2317 -13.1943 3.33996 -0.220505 -0.810491
2688 1 -15.8511 -3.72605 -0.202341 4.07033 -1.84901 4.79137
2689 1 -5.53003 -1.48356 -9.2424 0.637692 -2.22486 1.83843
2690 1 -13.9156 -11.9801 -18.2607 -2.36289 -2.73221 -2.56775
2691 1 -20.4997 -22.2386 19.6007 -3.69462 1.72846 -1.62353
2692 1 3.57273 -0.418912 -9.86852 3.67534 -1.37113 -1.19994
2693 1 8.21111 20.5149 -17.823 0.268909 -5.94686 5.5997
2694 1 -5.6561 -11.0343 20.6458 0.859669 3.17162 5.4642
2695 1 14.6248 8.45898 14.4 -0.165488 -0.671347 -3.26997
2696 1 21.8622 -19.4095 22.1753 1.35693 3.36575 3.68385
2697 1 5.51568 -0.578176 -5.27172 1.81011 0.998868 -0.410523
2698 1 15.9565 -13.6479 21.8727 -5.38056 -0.373339 -1.35841
2699 1 -16.9227 14.8066 -2.10987 0.643064 -0.512385 -2.16279
2700 1 -8.903 -19.5982 2.83764 3.55125 3.12838 5.30564
2701 1 -20.2902 22.8697 -0.123608 2.1376 -4.30634 1.47301
2702 1 -7.87188 17.8548 -18.4841 2.1167 3.31643 -3.7045
2703 1 12.6178 -6.49501 -11.2393 0.413301 0.463572 3.20576
2704 1 2.09134 -23.9242 1.12247 -4.71312 -0.344408 -2.13348
2705 1 -3.79034 -1.62532 4.13453 3.69949 -1.11121 2.63833
2706 1 2.36066 -23.0417 23.6724 7.23119 5.65837 -0.291412
2707 1 -9.46919 -14.6655 -0.235443 5.50376 3.9303 3.01465
2708 1 -12.8098 0.808137 23.0847 -3.02845 0.290091 -1.67393
2709 1 20.0755 -2.67988 20.7336 -2.34022 0.957913 -2.41349
2710 1 -4.0601 14.4221 16.7481 -2.14339 1.96122 4.67324
2711 1 -13.9977 -6.08281 24.229 -0.394731 0.617212 0.799607
2712 1 17.7061 13.9382 2.23829 -4.33606 2.36817 -2.68262
2713 1 22.0046 5.03245 -6.74833 -1.8415 3.1416 -4.16323
2714 1 -20.6735 3.01738 -11.4275 -1.59636 1.86952 -5.54692
2715 1 -12.434 11.3242 19.8368 2.57979 0.57831 -3.25716
2716 1 16.2925 10.3708 3.09447 -1.43539 3.50986 4.9045
2717 1 12.1989 20.0795 10.5693 -1.29456 -6.03505 -1.24846
2718 1 9.99312 -14.5749 23.4746 -1.77582 1.09681 -1.32806
2719 1 22.8547 -10.637 2.9792 0.667238 1.15224 4.0666
2720 1 -12.9168 -9.19648 -19.8958 -1.78774 -1.86821 0.00460073
2721 1 2.59442 -11.2521 11.9218 0.0306477 -0.0503945 0.222097
2722 1 -10.4446 19.2643 -7.14464 -0.556041 -1.96021 -2.01216
2723 1 -3.8271 16.6447 13.1857 7.27153 2.27275 2.56117
2724 1 -3.24331 5.26125 5.88485 -3.45609 -1.08378 -0.0149361
2725 1 -2.21209 7.45897 -17.2505 0.162425 1.19378 3.25786
2726 1 -9.63265 -8.02894 -23.5206 -0.0940581 2.65356 -3.46956
2727 1 -13.2785 -20.3763 -1.37295 0.0609365 0.416368 3.39738
2728 1 20.954 -3.00671 12.1852 -3.50393 4.90274 0.896759
2729 1 -3.40629 -22.3147 -18.8342 4.98701 -2.39278 -4.63715
2730 1 -8.75717 -14.7212 9.99657 1.08815 -0.124995 -1.41924
2731 1 -23.3339 22.6949 -8.28198 7.51147 0.121111 -3.09691
2732 1 1.18178 1.79927 4.91392 -0.470994 -5.73515 3.16865
2733 1 -9.07859 9.32836 -19.3243 3.07512 0.896645 -10.8537
2734 1 17.9019 -9.64263 20.7948 -0.463253 -1.48783 -4.13548
2735 1 -3.83072 7.67854 -15.0159 1.11248 1.7882 0.136374
2736 1 16.2284 13.0693 23.605 -0.0693986 0.515442 3.10957
2737 1 -22.1012 -18.353 0.490231 -7.40507 2.49752 2.40717
2738 1 -7.40911 9.54278 12.9141 2.00877 -1.28838 -2.00003
2739 1 -10.4474 -8.22483 20.7927 -2.31945 2.59963 -0.866106
2740 1 -12.597 -13.796 -20.2596 0.535106 -1.70413 -0.894241
2741 1 -8.34616 7.62742 2.25071 -0.443475 1.46184 2.95275
2742 1 -14.9154 14.8179 6.39926 -3.07223 -1.66658 1.35665
2743 1 0.118959 -19.5797 -7.92829 -0.886299 -3.02886 2.23938
2744 1 -16.3241 -19.4249 -20.4341 1.32747 -0.806681 0.120687
2745 1 -12.0044 20.4382 2.41193 -0.391348 -1.17303 2.11508
2746 1 6.0049 -12.4042 -2.97309 -1.9676 2.53487 0.413626
2747 1 -0.772653 2.3886 15.0123 -3.76662 -1.0077 -3.1281
2748 1 -4.17343 -0.441414 -11.5917 2.59693 0.0348683 -1.15879
2749 1 -12.1671 -8.20623 23.2628 2.7158 -0.268577 -0.941477
2750 1 -14.476 22.3691 -19.2891 3.79281 -0.868447 -4.92338
2751 1 8.27196 -22.9677 7.4852 -10.7456 -0.256763 -2.52359
2752 1 -9.77085 20.6559 -9.66464 -3.49145 3.46555 1.37953
2753 1 -1.49164 -8.13948 10.3332 -1.56313 -0.884899 -5.20845
2754 1 -12.586 24.1796 -0.226247 2.37032 3.05586 -0.295637
2755 1 0.766668 -11.4807 15.0525 -4.32559 1.41448 0.542474
2756 1 22.9104 11.5548 20.4334 0.902637 -5.95617 2.27777
2757 1 16.1922 -19.4127 19.3239 0.819327 1.44936 -0.160289
2758 1 -20.8147 -16.0107 -8.56435 -1.77005 -2.45755 -3.81062
2759 1 -16.5846 -17.0827 8.07038 -0.591216 -1.20048 0.705088
2760 1 0.148603 13.6288 -16.7966 -3.30402 7.36567 3.97142
2761 1 -6.99237 -15.365 15.8982 1.80085 2.42941 -2.99224
2762 1 -10.76 8.82148 9.2313 4.68062 5.65597 2.56419
2763 1 -5.71927 -11.5885 17.5251 1.57617 -0.111323 2.46115
2764 1 6.09176 22.3992 -11.9468 4.71606 1.57864 2.16563
2765 1 8.28345 -16.463 -18.9979 -4.58713 -0.0251386 -1.29036
2766 1 8.32176 8.95051 16.6914 0.96687 -8.38125 -5.06327
2767 1 -12.4201 -18.3836 -22.2289 3.58407 -0.279447 -1.81148
2768 1 -4.70982 22.7535 -0.69445 2.05961 -0.138387 -0.945578
2769 1 -16.3972 16.6611 15.817 -2.66744 6.2985 -2.56558
2770 1 -23.6416 7.46123 3.50653 -1.03494 -4.50466 3.18198
2771 1 -21.0935 -15.429 -18.768 0.6189 -1.06995 4.9083
2772 1 -13.8218 18.6899 -20.474 1.2332 -3.25863 1.75088
2773 1 9.81478 23.4761 5.87959 -7.27447 -4.69363 5.26102
2774 1 21.7744 0.121988 -17.9295 -2.90568 2.69887 0.326135
2775 1 -2.01219 -18.9687 13.8414 -1.88507 2.51659 -0.950767
2776 1 8.79674 7.90184 -8.36249 -2.51907 2.92444 -1.12261
2777 1 -13.3456 16.411 3.23379 -2.28825 0.282109 -2.39003
2778 1 -22.0981 16.9633 19.9664 -1.05254 -0.111676 0.350648
2779 1 20.7374 14.1693 17.9066 -1.10887 -0.552442 -3.72882
2780 1 -13.7296 0.576444 -7.47336 5.15024 3.8587 1.0721
2781 1 13.8307 23.9326 12.724 0.763121 2.18478 -2.18964
2782 1 7.48612 -9.79085 14.3466 -5.00488 -0.0127249 1.374
2783 1 8.9464 -7.58368 -13.9047 -4.85494 0.128949 2.30046
2784 1 -12.1812 1.89306 0.0180984 2.48718 4.85982 -0.999409
2785 1 21.8328 -4.63356 -13.395 0.434283 3.47771 4.56973
2786 1 5.99361 -4.45779 1.63653 3.39345 -2.18477 -2.68932
2787 1 -15.4871 14.9401 0.466995 -2.74872 -2.65994 -2.6142
2788 1 -20.4285 15.3998 12.7486 2.24088 -4.7227 3.21041
2789 1 8.91418 -5.85334 -5.2949 -1.02392 -0.408553 1.64985
2790 1 -7.45204 -6.05658 -15.2969 3.86653 -6.61911 2.71288
2791 1 19.5593 15.5561 -5.31817 1.34005 -1.99805 -1.85998
2792 1 -7.12102 -4.6965 2.39318 -2.87679 0.689376 1.64185
2793 1 -1.27383 0.378092 8.03518 0.971075 2.39069 -0.126129
2794 1 7.14088 18.8644 -8.96693 3.57817 -2.13699 1.88481
2795 1 21.0687 14.3499 -19.9001 -6.08639 -4.52741 -1.18987
2796 1 18.0627 -14.8286 13.0704 -0.335764 -3.75763 1.16033
2797 1 18.6036 -11.1295 -23.7271 0.627718 -1.1417 1.89732
2798 1 -21.1459 -1.85249 -4.0875 5.69029 -1.07707 1.82217
2799 1 -0.28045 -16.2761 -7.56159 1.76086 -2.32825 -1.09336
2800 1 -13.5391 -16.3153 -17.4484 2.05722 -3.47201 -0.162906
2801 1 2.76457 17.018 6.22067 1.24067 0.848752 -1.61639
2802 1 6.72499 11.3248 -10.5257 0.882993 0.91563 -0.46778
2803 1 -23.7766 -5.40797 -13.7214 3.00468 2.37607 -2.31602
2804 1 -18.4244 15.1304 -12.2149 -0.120673 5.89898 0.212995
2805 1 -17.5925 3.40806 -10.6209 3.73678 -4.82992 4.90872
2806 1 -4.42408 18.8604 -15.9117 1.9857 5.91382 -4.10561
2807 1 -20.5457 18.3285 -0.791985 0.306786 0.948722 3.74397
2808 1 5.08876 -23.8409 -10.7646 2.79063 -0.312207 1.33287
2809 1 -12.2374 17.7318 18.2379 3.37256 0.0799591 -0.171419
2810 1 6.18746 24.6129 -15.2365 0.132399 -0.484625 -1.6693
2811 1 -13.5787 13.5704 4.04297 -4.40464 -5.43015 2.8453
2812 1 -7.78107 -1.18535 21.2834 2.35844 4.96506 5.61125
2813 1 0.187476 -10.1728 -17.5331 2.40688 -1.50154 4.14213
2814 1 21.481 -4.68693 -6.72442 -0.432605 1.61241 4.2544
2815 1 21.4226 12.0987 6.53725 6.55692 3.31617 4.30484
2816 1 2.40199 -14.7337 17.2812 3.84155 -0.615436 -0.701404
2817 1 5.64974 -16.9767 -23.4284 1.97841 -1.03629 3.10435
2818 1 -0.750718 -3.37786 3.42831 -7.20507 0.287637 -1.19296
2819 1 17.9089 13.1146 15.1832 4.20232 -0.937923 -2.72647
2820 1 -15.3755 21.501 9.14957 1.53274 -1.98582 -1.36171
2821 1 19.6449 -12.4304 -15.047 -0.123906 0.427581 2.9397
2822 1 -15.9456 -3.68608 5.13184 -6.91753 -1.59161 1.80416
2823 1 12.6965 -14.1492 6.02876 -2.31943 -0.330358 3.49373
2824 1 8.2299 14.5978 15.3313 -5.70163 -1.71374 1.40264
2825 1 13.997 17.7513 -8.02692 -3.30851 -2.50798 -1.52479
2826 1 6.8144 -18.0837 -2.02964 -4.50529 -3.09001 0.330933
2827 1 8.75488 -9.31476 -23.9662 -2.30146 -2.36503 1.15402
2828 1 4.93717 -6.17411 -19.2391 2.10391 2.56989 -2.46818
2829 1 18.7991 -20.9062 9.39537 2.0817 0.61039 -0.941075
2830 1 -21.9351 6.58727 -0.170819 -0.095077 2.84286 0.614325
2831 1 19.6044 4.25496 -12.8407 0.127731 -3.78834 -0.164821
2832 1 -23.2701 -20.1242 -7.81 -5.04252 1.62684 -0.561295
2833 1 -24.4106 0.259992 6.47936 -1.42895 8.34003 -2.03103
2834 1 -9.53184 -18.1521 19.3991 -2.52837 -0.626363 -3.53242
2835 1 -5.31589 5.2669 -0.711609 2.91342 2.10442 -0.682141
2836 1 -13.5808 21.0779 -6.76156 1.1428 -2.12798 -1.34489
2837 1 -17.6901 9.67049 -9.56122 1.46277 0.272306 -1.36299
2838 1 18.3624 -12.1839 21.8913 -0.806533 0.165921 -0.0659902
2839 1 -17.0791 -3.59072 -22.5161 -2.55377 -2.54905 6.61963
2840 1 2.86565 -17.2498 23.9524 2.30813 1.85261 -1.47927
2841 1 17.4793 -18.2611 -3.81333 -6.93187 0.18465 0.59687
2842 1 -2.40403 -10.5359 -8.08366 0.121272 -0.83901 0.127035
2843 1 13.5664 4.49197 -21.611 -3.51807 3.22463 -1.62598
2844 1 19.5214 16.637 8.54059 -2.03972 -0.0268065 1.50776
2845 1 18.213 3.26681 -20.3662 -2.89215 2.98882 2.75929
2846 1 -23.3329 -0.0935644 3.79581 -1.345 -1.55589 -1.28338
2847 1 7.1854 13.574 -0.68447 1.10879 0.408628 -1.636
2848 1 -15.8489 46.681 -10.0739 2.92614 -2.35431 6.5697
2849 1 -22.3235 -20.5677 14.9688 0.55471 -0.180785 1.30415
2850 1 0.668994 5.1106 -9.41692 3.10663 -4.77155 7.67807
2851 1 -5.72811 23.197 17.5299 -2.73896 -2.14974 -1.2499
2852 1 1.99301 -5.04161 0.653817 1.51093 1.35777 1.45936
2853 1 -2.82631 23.6585 20.611 -1.88483 -0.463839 1.38347
2854 1 5.7411 -6.79527 -6.40337 1.54512 3.23945 -2.43154
2855 1 -16.8416 -5.50038 -20.5701 -6.4022 -1.79151 -1.98823
2856 1 15.8633 -16.0599 -0.416125 -1.24109 2.88931 0.447792
2857 1 18.0131 10.338 10.9979 2.60527 -1.86529 -3.76096
2858 1 12.5001 -0.659427 -20.6126 1.64213 -3.90259 2.93338
2859 1 -23.2176 -23.2208 -18.6069 -6.26768 4.4169 4.61018
2860 1 -21.4234 6.43518 20.3302 -4.80957 2.26992 -1.47123
2861 1 13.8293 12.8921 21.6933 -1.93985 1.08931 -1.94811
2862 1 11.9975 -3.74377 -15.9911 0.545192 -0.872914 -3.87959
2863 1 21.2367 -18.8051 -19.2736 -0.892903 -3.82807 0.482491
2864 1 -14.9447 12.3418 16.1465 -2.36549 -2.31633 11.3713
2865 1 3.30895 11.9823 -0.0504773 2.5098 1.1337 3.12594
2866 1 -18.0624 24.6658 -6.91076 -1.54031 3.04694 1.30864
2867 1 -17.6589 17.0462 -15.5612 4.84293 7.68261 2.00544
2868 1 2.79354 -22.4311 20.6906 -2.0311 0.177834 0.716328
2869 1 -20.8706 -15.1587 18.4627 -0.965637 -2.3478 3.04989
2870 1 -12.505 16.4597 -11.1197 -5.0939 5.11078 -0.548794
2871 1 -15.2133 19.9229 24.2169 -2.67157 2.25632 -0.278943
2872 1 7.94201 8.08587 8.69058 6.58032 3.22954 -1.41671
2873 1 -11.0208 -1.931 2.14302 2.94918 -0.360124 -4.3172
2874 1 0.112851 -8.71971 -10.9507 -0.0469055 -0.346135 -7.02815
2875 1 22.1997 -3.48278 -9.50017 -3.54247 -3.76479 1.29387
2876 1 20.4847 -22.6521 -22.5736 4.29042 3.17083 3.51339
2877 1 10.6283 -5.84439 4.24482 1.95437 -0.307138 2.82629
2878 1 -18.6608 20.791 -13.0726 1.03493 0.535778 -4.28378
2879 1 1.37793 16.0822 3.77016 2.41934 3.96635 -0.566938
2880 1 -1.57381 -0.353099 14.8176 0.315161 -0.141246 5.15867
2881 1 -16.3878 15.5937 -21.0849 1.08294 -2.28065 2.64615
2882 1 -23.3335 -16.4083 20.9032 0.770885 -2.25541 -3.12859
2883 1 12.2315 -15.2585 0.517525 -4.05771 -0.335831 2.7675
2884 1 10.6324 -4.04301 -23.6156 1.53414 1.16079 1.22243
2885 1 -5.52208 3.42181 -6.81535 1.61378 0.406238 -3.57965
2886 1 12.8105 24.3226 1.95833 1.7221 2.5594 0.194966
2887 1 -23.6771 18.0126 22.3947 -1.31053 -1.06394 1.30559
2888 1 -11.6791 5.85151 -22.0656 -0.730303 -3.17103 3.11253
2889 1 5.3992 -1.80553 9.35773 2.62076 0.787466 1.01657
2890 1 -0.328765 -7.22748 -23.7982 1.69815 2.07964 -0.354071
2891 1 6.73276 -4.10441 16.6352 -1.04976 -1.55812 0.528752
2892 1 22.7783 17.2425 -11.3936 0.110301 0.253174 -1.57672
2893 1 -11.929 -15.7634 22.6847 -0.613602 -2.96658 -2.69042
2894 1 -8.41884 2.59282 14.6419 0.828603 -4.88764 1.26598
2895 1 -18.6041 19.5803 20.4402 -3.70776 -7.71803 1.26626
2896 1 -14.1837 5.59869 16.6182 0.175954 0.607403 5.3637
2897 1 -2.4196 15.6264 -2.5159 3.5648 -3.83822 3.06015
2898 1 -7.0506 -8.4775 -19.825 -0.769599 1.49154 -4.40932
2899 1 -4.98842 -22.3317 19.0725 2.51952 5.10915 -1.16685
2900 1 15.5801 4.11635 -23.716 5.63136 -3.21843 1.21401
2901 1 -14.1467 -18.9084 -16.8618 -3.17335 -2.71214 -4.46126
2902 1 -22.2827 1.02469 -21.4825 1.59385 2.62533 -0.928811
2903 1 -14.4337 -13.1952 3.2142 3.12334 -1.57918 -1.75142
2904 1 -7.07417 13.0586 -2.30112 -3.02613 2.87117 -1.51234
2905 1 -17.6571 22.0933 21.0453 3.93534 -1.12216 0.571563
2906 1 11.8551 2.16551 19.9251 -2.0253 0.963726 6.71849
2907 1 -15.1031 25.0122 -7.02148 -0.0245999 0.748762 1.34438
2908 1 -0.237797 10.3063 17.9852 -0.964894 1.70291 -2.72222
2909 1 -8.21304 -5.58241 -22.2788 1.02585 -4.89198 -1.46211
2910 1 -14.0791 8.36349 17.7114 -4.10348 -2.12287 1.0565
2911 1 0.249398 4.97002 -18.9583 -1.36722 -1.03526 0.813153
2912 1 10.2948 -16.5621 -6.92797 2.85126 -0.623147 2.37573
2913 1 16.8866 3.48228 -4.37369 -4.92104 -1.64234 -3.43213
2914 1 0.991624 -0.459261 13.4677 1.67634 5.09336 4.02259
2915 1 -15.0961 -11.3422 23.9707 5.38521 -4.86752 2.83167
2916 1 19.9492 23.2578 -9.61736 -0.410125 1.77315 0.409309
2917 1 -8.51567 7.66062 5.24411 -1.04627 -2.4952 1.37974
2918 1 20.7554 6.81476 -4.80215 -1.99006 1.69133 1.21263
2919 1 -24.4079 -16.4447 -5.84239 -5.26059 -2.74111 -5.25086
2920 1 -24.2024 12.743 7.4149 3.33779 2.46162 -2.67051
2921 1 -17.781 21.2493 10.4881 -0.7935 -2.54079 3.92854
2922 1 -16.6691 -19.8935 -23.1489 -2.86544 -1.04393 0.248277
2923 1 -14.9876 1.0619 18.7887 -3.39954 0.99194 2.22995
2924 1 -1.48454 -16.6976 23.0918 2.80169 3.28677 0.55518
2925 1 19.308 -6.77095 13.0042 -0.541924 0.850955 5.04817
2926 1 -7.68242 7.62762 -13.3533 2.22768 -5.68484 -2.3219
2927 1 12.1506 6.16545 -0.427745 -3.24207 0.176931 3.42385
2928 1 -21.7507 46.8043 -9.2472 0.931626 0.305968 -2.6428
2929 1 4.32831 -10.9786 8.36615 -2.24052 0.0398323 0.854084
2930 1 -19.999 4.35105 -0.666574 1.27529 2.29803 -0.750874
2931 1 4.73067 -9.15363 -23.9115 -1.36637 0.171989 -0.0906317
2932 1 9.30607 18.3834 19.8568 -2.61294 7.18732 0.108814
2933 1 22.1773 -4.78712 9.90744 3.18101 -0.824323 6.29079
2934 1 9.56328 2.74401 -21.0716 -0.0634062 0.437686 -5.6741
2935 1 8.48782 23.3963 1.58143 -4.67331 -2.37458 3.14436
2936 1 22.8785 10.1918 -6.27242 1.46913 2.16629 2.14444
2937 1 -17.8756 2.27385 -14.6841 2.74925 -0.48898 2.89067
2938 1 -7.62138 -6.05744 -5.08754 1.21213 2.39293 -0.996564
2939 1 -11.5865 18.5104 4.36058 3.49857 -0.97883 -1.66246
2940 1 18.0671 18.9556 0.0875434 -0.466963 1.09369 3.427
2941 1 -8.27663 3.29589 -9.85959 2.04116 0.163994 -6.13657
2942 1 -22.0028 12.9944 22.5075 2.29043 -2.95226 -2.67621
2943 1 23.4195 8.80082 6.62497 4.95194 -3.01493 -0.897369
2944 1 8.36397 -21.8275 14.37 -2.61934 -2.8197 0.879433
2945 1 -8.43343 10.1901 -9.42784 0.0803476 0.465457 -6.5294
2946 1 11.3579 -0.803152 12.2222 -2.90566 -1.95812 -1.72505
2947 1 18.3038 -13.5777 -22.2208 2.83187 1.60936 -1.50036
2948 1 -0.358463 -20.323 -0.692304 -1.04063 3.01819 -0.0915771
2949 1 -9.87354 -19.9652 23.1528 2.12077 0.84739 -2.12338
2950 1 -21.3797 15.9389 5.33086 -0.378638 0.291335 1.79537
2951 1 10.5575 -16.9367 -9.94859 2.44552 -0.647914 -3.07318
2952 1 -12.6966 22.3914 -21.4242 0.759777 -1.85331 -1.90268
2953 1 13.2672 4.25353 1.73376 -0.868301 -3.25889 -4.06862
2954 1 -16.7278 -2.46453 9.22852 -2.56452 1.05632 4.8526
2955 1 8.55955 -10.1625 18.4824 0.013294 0.639503 -1.79997
2956 1 -15.5022 19.2932 -2.67428 -1.48684 1.31457 3.46677
2957 1 1.94375 -18.2505 14.3951 1.41581 3.72127 -3.06465
2958 1 6.20889 -8.04967 -11.0333 1.71796 -2.5882 -0.628042
2959 1 -18.2161 17.5119 -21.8994 1.26509 6.38715 1.01247
2960 1 -10.567 -0.600859 -23.0773 0.0993723 -0.568181 -1.90345
2961 1 -10.9018 -11.4015 -20.19 1.20395 4.12319 -0.363635
2962 1 -7.19142 -0.438029 -16.1874 0.726251 3.80395 -2.40605
2963 1 -23.72 10.3919 -4.06857 2.7562 -3.12748 1.61417
2964 1 -0.0251913 -20.3017 -20.6994 -1.63978 3.15965 4.02129
2965 1 18.7985 -2.4553 -14.7271 3.68751 2.05341 -0.600419
2966 1 -2.76008 -22.3559 17.4276 0.111392 -2.63411 -0.649689
2967 1 1.73849 10.0679 9.60645 0.256087 2.32349 -3.68173
2968 1 -5.09584 -13.1709 1.49906 -1.27144 3.68329 1.0232
2969 1 -2.39406 -3.9611 17.7206 -1.67332 -0.672418 0.959941
2970 1 22.182 -13.798 -14.7253 0.683723 -2.1865 2.44291
2971 1 -4.93568 17.9409 10.8439 -3.58131 -1.08366 -0.744446
2972 1 -9.55967 8.09274 -11.2773 0.998727 -0.658757 -1.99685
2973 1 -12.1306 16.0956 20.6265 -6.46132 3.12174 -1.38482
2974 1 22.113 -1.81197 19.2052 2.01648 7.39017 -0.396846
2975 1 18.3291 11.4287 -0.863396 0.568875 3.44753 5.21637
2976 1 -20.424 17.0561 -13.2939 0.102386 5.97268 1.92088
2977 1 3.20203 -8.65764 -1.53498 -0.221424 -2.34335 0.634206
2978 1 11.5767 19.7468 -14.8574 -1.16024 -5.72315 -3.79121
2979 1 5.37682 7.3138 17.707 0.464158 4.17898 0.503176
2980 1 -3.71487 13.5175 -0.645706 0.469829 0.635288 1.7367
2981 1 -11.7821 8.70151 15.9698 3.604 -0.716177 -2.25758
2982 1 -13.9932 -5.3231 7.15951 -0.491353 -4.66097 -2.26945
2983 1 -9.33815 14.523 23.4111 -3.90871 -1.56212 0.633835
2984 1 0.758942 -2.59974 -24.2927 3.99131 3.09783 1.67625
2985 1 -12.9661 -11.7841 11.239 0.396294 6.23822 4.84182
2986 1 -7.69237 16.8677 -21.3329 -0.129886 -0.549962 0.0482977
2987 1 -22.5858 47.1454 -6.57452 -1.57523 1.8994 3.30109
2988 1 0.817887 -23.6013 -6.00204 -0.400991 -3.53658 3.44033
2989 1 20.7602 17.5743 -13.4184 -1.20904 -3.42066 7.14956
2990 1 12.4442 -17.2981 16.6985 -6.23315 4.84115 -1.09344
2991 1 1.22105 2.56011 10.6896 -1.83475 -2.73454 5.10365
2992 1 23.1928 11.1954 -10.0241 -4.17865 -2.43274 0.0551711
2993 1 23.5621 16.5641 18.7551 -2.33701 2.17336 -3.29614
2994 1 17.9618 2.8258 13.0693 -1.34209 5.57989 3.76304
2995 1 -4.15173 10.9694 -6.8896 4.91509 2.89904 -0.854063
2996 1 13.7695 6.68512 5.95614 -2.95891 2.27761 2.41969
2997 1 -8.14319 -18.5066 5.7435 2.3522 -2.03431 2.68759
2998 1 2.98798 -15.4934 14.2869 -3.55711 5.07677 0.730007
2999 1 11.7624 -16.7485 -1.94598 -0.708185 1.67628 1.19318
3000 1 -2.81034 11.5777 17.1279 5.5089 4.2586 -1.38805
3001 1 9.38529 10.272 9.50751 -3.66738 -0.690819 -3.05506
3002 1 -21.131 17.0725 17.3126 -1.78681 1.26608 -3.64264
3003 1 15.4155 11.8458 10.9049 -2.4855 3.81398 2.19561
3004 1 16.5038 17.993 -17.7592 1.2049 -0.194094 -0.965084
3005 1 3.72568 5.24008 -6.48382 1.35067 -3.87309 1.85917
3006 1 17.5005 10.3911 -20.7379 -1.68407 1.07797 2.6531
3007 1 -6.77224 -20.8248 -22.6476 6.21174 -1.80502 2.47738
3008 1 -5.07558 -20.0953 23.5219 -2.67345 -0.212455 -0.437327
3009 1 -13.4589 -19.4222 9.17445 -5.30246 2.76099 -0.80812
3010 1 -14.9282 -20.412 -14.6197 -0.648479 3.47318 2.59574
3011 1 -7.19234 -0.52306 -11.6533 2.13139 0.531952 -0.843675
3012 1 1.37574 -22.4262 -18.1357 3.02911 1.48812 -3.22574
3013 1 12.4196 -17.6651 21.1648 -3.22208 2.63643 -2.91482
3014 1 -24.1554 11.2727 23.0471 3.63388 1.63661 -4.55519
3015 1 -5.12219 11.2373 7.97735 -4.58063 1.26514 4.4125
3016 1 19.8246 -14.0811 -19.7506 -3.21173 4.88367 3.66045
3017 1 -13.6539 6.12062 24.2151 2.9874 -1.76244 3.53075
3018 1 -22.1188 -1.9159 -14.1789 -1.72022 0.428745 -1.17667
3019 1 -22.1422 -17.8678 11.3045 -0.985689 6.13542 -6.15752
3020 1 -13.7216 -10.3314 7.69987 -6.69357 1.30942 3.96349
3021 1 -16.7318 22.1162 -1.94067 2.82534 0.612016 -3.15458
3022 1 16.047 -11.9292 0.791055 -1.45292 4.63009 3.52128
3023 1 4.03797 18.7657 -3.8592 -0.0181898 -1.85572 3.59254
3024 1 -24.5179 5.90095 1.32514 4.55249 0.133436 -2.35183
3025 1 4.87103 -23.8474 8.99744 1.18648 -1.20654 -0.509673
3026 1 0.519282 -21.9384 7.75808 -3.18433 -2.75203 2.25125
3027 1 13.2655 2.97771 10.9324 -0.195448 -0.879829 -1.3254
3028 1 -14.6542 12.8756 19.0996 -1.50772 -2.51245 3.65211
3029 1 6.86149 3.23063 12.8272 -1.92823 2.49168 5.44186
3030 1 -15.8431 21.5866 -11.7546 -1.71464 1.4223 0.366268
3031 1 -23.516 -8.53857 -19.1455 3.35999 -2.38729 2.88082
3032 1 18.7118 -11.041 -5.32279 -0.232574 -1.84651 1.4491
3033 1 -12.1733 3.54831 5.67773 2.185 0.625939 7.01984
3034 1 -9.7197 -7.18577 -16.8404 2.87599 -1.35891 1.05278
3035 1 21.2693 15.1342 6.2917 4.40588 1.33491 2.05737
3036 1 13.4403 17.4987 21.6183 2.05192 4.20547 6.51428
3037 1 -2.70701 -9.57239 6.86346 3.43444 0.759707 4.03369
3038 1 -18.0573 -24.1017 -17.6853 3.09712 0.564913 -3.10593
3039 1 16.0021 -22.7627 16.7909 1.56746 2.87025 -2.00493
3040 1 5.8563 -18.9905 13.275 2.91489 1.39961 0.217293
3041 1 -22.0069 20.7494 -1.4475 -3.30521 -2.06551 5.09726
3042 1 -8.53777 19.2322 14.1403 -2.81516 -4.20885 0.485587
3043 1 3.97236 -11.7201 -17.5915 -0.111381 -0.878403 4.41902
3044 1 -5.78621 15.9215 -5.28 -1.14422 1.56267 -0.733797
3045 1 -3.91553 -3.58451 6.56736 3.79137 -1.37181 5.2375
3046 1 15.6564 -11.1386 -16.9895 -3.10381 -6.15725 2.85871
3047 1 7.83554 18.5851 7.58183 4.05828 2.08604 -4.97229
3048 1 6.18132 -11.7222 19.2605 -1.29913 0.679162 1.58421
3049 1 -11.2183 -22.0853 -14.2298 -0.686656 -1.04674 -2.63656
3050 1 2.40988 -24.5007 17.4105 -2.30183 1.4674 4.89663
3051 1 -17.9698 -0.656635 -11.4045 -3.04078 5.51167 -0.875163
3052 1 -20.7502 14.0868 -13.4796 4.87243 0.934841 -0.575021
3053 1 21.3825 -21.9607 0.0309463 3.79665 -0.598753 3.19901
3054 1 21.2501 -4.66808 22.6301 -0.729915 -4.12267 1.48153
3055 1 19.1197 4.2618 2.84063 -0.736173 -1.95214 -0.825817
3056 1 -23.5602 13.5331 15.9836 0.486811 0.157172 1.2472
3057 1 17.2808 6.22088 -23.594 0.383937 -0.860469 5.05406
3058 1 11.8869 -7.66132 7.41203 -4.70186 -6.44284 4.99981
3059 1 -11.468 -24.1485 -4.62312 -1.15818 0.855619 -2.11314
3060 1 -20.3208 24.6372 -4.98654 1.06091 0.420844 -3.13145
3061 1 -9.09399 21.5054 -16.5337 -0.108092 3.76642 0.611222
3062 1 -10.2646 15.3635 -17.1641 3.65072 -0.0470598 5.78728
3063 1 8.48852 25.3638 -13.7465 -4.54898 -2.27698 -0.880049
3064 1 -4.56179 11.8017 -20.2996 1.03078 -1.45008 -0.920536
3065 1 6.99702 -12.2604 -12.5506 -1.69321 -1.2828 -0.963161
3066 1 22.0759 -2.10121 0.236703 2.26595 -1.26458 -5.53726
3067 1 15.0123 17.1828 -11.9794 -6.72088 4.24334 -6.06829
3068 1 20.8345 18.0613 -2.4136 -2.15071 4.45839 0.738588
3069 1 7.28921 -8.01351 -4.31358 2.52707 2.77386 2.37581
3070 1 23.6121 -8.53226 -0.577914 -0.495052 -6.20138 2.87494
3071 1 -3.80119 -4.4426 -6.40173 3.90105 0.342415 -1.63112
3072 1 1.30989 9.11398 21.8731 -4.98163 3.37081 -7.65799
3073 1 3.11976 22.367 -0.845444 1.22987 -2.75074 1.51837
3074 1 -9.33269 -10.635 6.04813 -0.975321 -0.994842 -2.24612
3075 1 19.0703 7.25543 22.9357 0.757252 1.35779 1.19306
3076 1 -11.9938 18.4016 11.3582 0.701471 1.52563 -2.52236
3077 1 -13.154 -24.4108 -6.86894 2.85664 -0.997066 1.95984
3078 1 -20.1612 6.71564 -15.0687 0.931266 -1.84166 -3.97442
3079 1 12.1817 -3.65415 -5.33079 -0.947424 2.02254 1.35292
3080 1 -20.3548 11.7316 -7.39524 -0.730213 -3.22497 -2.00073
3081 1 -20.1031 9.19317 8.22074 1.3066 2.57025 -0.398435
3082 1 -2.43353 1.08349 -23.6468 3.38254 0.170062 -1.98408
3083 1 7.68495 -13.8922 -6.63905 -1.35394 0.695769 3.93544
3084 1 -17.0863 -22.1501 7.91174 6.32188 4.37843 -2.41301
3085 1 -17.0856 -2.77973 -4.95188 0.454456 -1.49346 0.14556
3086 1 15.9273 20.7078 3.54812 -0.629316 7.31778 -0.357939
3087 1 -9.3877 -21.9156 10.8408 -0.41782 0.0790841 2.41009
3088 1 9.94481 4.90078 16.8394 0.936157 -0.994563 3.51659
3089 1 8.56698 -19.4219 13.0234 5.12196 -5.87234 2.22548
3090 1 16.8855 -3.05603 -5.227 3.71465 -0.0436467 3.20989
3091 1 -1.77135 -1.31213 23.6296 0.400946 3.02431 -3.66401
3092 1 -6.69023 -7.05735 19.2995 5.3817 -2.6218 -0.545225
3093 1 -15.0786 5.73036 -21.6837 -0.209803 -1.56959 -3.51196
3094 1 13.7978 7.08861 20.1336 5.42944 -0.303114 -1.99285
3095 1 -16.4782 -15.1752 -3.76368 -3.42156 -0.240192 -1.62926
3096 1 4.66913 8.52272 -21.9036 -3.34504 -3.11044 4.42481
3097 1 -8.00264 -11.2714 -20.1938 -0.353278 2.37385 -1.73394
3098 1 -10.7453 -18.5113 4.84422 -0.738866 2.38939 0.612586
3099 1 -20.3287 8.06556 23.5943 1.32636 0.98057 -3.51111
3100 1 18.4478 -9.49543 -21.0595 0.558323 2.28121 0.91684
3101 1 -23.8078 -15.0552 -18.3209 -2.5748 -4.42379 0.645354
3102 1 2.80507 3.61289 23.4266 4.39493 0.831507 1.58502
3103 1 -6.31187 -13.7729 23.1736 -3.23461 1.67756 0.825731
3104 1 -23.814 -5.97811 5.80046 1.52164 -0.285497 -2.40985
3105 1 -23.7392 -4.98688 20.6926 -6.91075 0.963509 3.73316
3106 1 2.35205 -9.93729 -4.45816 0.890385 -1.32308 -1.397
3107 1 20.8685 -13.7989 22.1945 2.20425 -0.0754014 0.790022
3108 1 8.76473 -15.6778 -4.64365 2.56082 -0.672969 0.430886
3109 1 2.86712 -0.221139 1.49347 3.48727 -2.43459 -3.91146
3110 1 7.07282 6.72396 0.505864 0.357393 -3.02567 -1.02978
3111 1 9.67068 -18.5399 -16.3856 -0.2027 -1.76737 1.5599
3112 1 0.959577 -13.5394 -22.2469 3.43498 -3.70363 -1.30936
3113 1 6.71837 -11.4612 -17.1262 -5.34509 0.70291 3.51668
3114 1 4.30162 4.38904 -14.7884 2.38788 3.2958 -0.462426
3115 1 -20.462 17.1496 -16.2486 -7.66392 0.453547 -5.68642
3116 1 -12.9257 14.8429 -0.758948 0.400842 1.55172 -1.76537
3117 1 16.5581 -11.808 -3.27911 -8.50821 1.32537 -2.20514
3118 1 3.47251 5.5478 5.69643 -0.46871 0.896596 1.08563
3119 1 -9.9354 -9.80045 3.16306 -0.00931377 -1.9151 -5.97494
3120 1 -10.9112 -3.06385 -18.8374 1.64172 2.95175 -0.0950114
3121 1 -3.28995 -22.8431 14.6037 -2.72233 3.06285 -0.290466
3122 1 -13.2235 24.33 22.2121 -0.37037 6.28925 0.397567
3123 1 14.5306 16.4639 14.1455 -2.68327 -1.68935 -3.41267
3124 1 -13.1723 12.701 -8.1457 -2.64264 -0.819288 0.416999
3125 1 -1.86182 -14.3815 -2.25637 0.430925 -2.54529 -0.20544
3126 1 1.316 7.8016 -8.81488 4.33053 -2.09342 -0.854257
3127 1 15.6645 4.85453 3.34325 5.8217 5.28525 -2.50386
3128 1 2.21718 9.6607 -16.8567 -0.867368 -1.33983 -1.19936
3129 1 -3.75874 -9.69065 9.54277 1.00038 -3.16763 1.33615
3130 1 23.6047 -9.85222 11.0333 0.247789 -0.960828 1.78273
3131 1 -9.52593 14.5303 0.732874 -2.93114 -3.04057 -3.26684
3132 1 3.11202 7.50641 3.81718 3.41471 1.75647 -2.96282
3133 1 -1.62693 15.901 -11.763 1.74818 -2.12057 -1.43116
3134 1 22.0538 7.44132 -1.31745 -0.152306 4.07609 1.21712
3135 1 -21.5016 -14.1664 -5.65039 -1.89654 -0.848136 -6.75921
3136 1 -18.847 -20.7434 6.17811 -0.907772 -2.43914 1.55641
3137 1 7.42989 -5.88099 -17.9409 0.0130178 0.838078 0.599207
3138 1 17.6908 -3.4068 23.2499 3.91339 -3.43368 0.398617
3139 1 6.01022 11.0693 -13.2756 -4.37909 -2.77664 0.675723
3140 1 0.61634 16.7602 -17.5229 0.759563 -1.35784 -0.304837
3141 1 11.9819 -1.17287 -9.19374 -3.68401 -2.1255 -0.271486
3142 1 2.09142 21.9274 -21.5113 -3.58342 -1.37058 1.84552
3143 1 21.7097 24.4694 -20.4482 0.334603 -4.59238 2.19667
3144 1 -0.180083 15.9742 1.35378 -0.618052 0.0113507 0.897955
3145 1 19.5278 -18.8658 7.47858 0.440717 -1.57957 -1.35098
3146 1 -2.27923 8.39511 -10.6684 -0.862624 -1.9242 -2.50119
3147 1 -3.16522 -19.331 0.0680043 -0.159853 5.59915 0.701335
3148 1 6.89816 -5.99643 4.73392 -2.09727 1.05413 -3.57382
3149 1 11.0107 9.27942 -14.6816 -1.49568 0.616757 1.66836
3150 1 -23.3776 14.0851 3.85328 -2.79313 0.858269 -2.22958
3151 1 -11.1237 -24.746 -16.9975 1.89136 -4.47152 3.76589
3152 1 -13.7069 15.9801 -21.3026 -2.66204 -5.0434 3.26663
3153 1 14.5255 6.73763 -20.0011 -1.45629 1.17316 -4.21815
3154 1 6.46776 20.7533 3.48016 -3.84964 -3.84864 6.31033
3155 1 -5.79046 -11.249 4.49066 -4.76229 -0.0925317 2.67698
3156 1 20.7917 -3.53126 7.43729 -0.617395 0.861891 0.0949802
3157 1 10.4652 3.69292 4.99056 -0.100501 3.90909 -3.79997
3158 1 19.199 -21.8757 -6.76118 3.65289 3.90271 -1.04935
3159 1 18.334 5.46907 -5.92681 1.98093 4.71595 -2.10562
3160 1 -11.5893 -23.5786 22.7173 -3.67276 -0.518529 -1.8209
3161 1 -10.0794 -20.2002 -2.90007 -0.260629 0.139406 -2.91096
3162 1 -16.2628 -15.5877 -16.3504 2.19464 -3.13777 1.81497
3163 1 20.7214 2.89638 13.9396 1.35666 -0.505652 0.693947
3164 1 -19.214 3.23258 21.2244 5.23166 -0.343272 3.3057
3165 1 -6.5837 19.1257 -13.7773 -3.35236 2.38305 -3.71593
3166 1 15.7141 -9.0823 13.2227 3.04158 1.71894 3.02098
3167 1 21.8696 -15.9479 -19.3631 0.654988 -2.34657 -3.472
3168 1 -19.7056 -17.5352 18.0022 -5.90367 -2.87376 1.44017
3169 1 11.1946 -19.7966 -19.839 -2.14974 0.841666 -1.08664
3170 1 4.70977 20.8843 22.7473 3.66807 1.21292 1.03955
3171 1 -6.6679 13.8807 -21.3141 0.247576 0.749805 4.60821
3172 1 -6.66056 2.88773 3.38169 -2.8352 -2.5446 4.26395
3173 1 13.1161 17.413 9.99356 -1.94388 2.73373 3.7114
3174 1 22.4622 13.5061 -11.6358 0.181269 6.79138 0.874145
3175 1 19.2088 3.4522 -2.72352 2.25441 -6.35105 2.41443
3176 1 17.8977 2.96212 15.8111 -3.27463 4.4429 -2.20436
3177 1 0.151544 -11.6556 24.0511 0.871365 -0.91767 0.941335
3178 1 16.3271 19.1149 17.2623 0.839365 -0.294151 -2.94207
3179 1 0.00108597 0.0361249 21.5479 4.69302 0.395029 -0.676513
3180 1 2.67691 13.6294 3.9293 -2.69508 3.83004 -2.23643
3181 1 -21.467 -15.9089 -22.8774 1.12916 0.868154 -2.44032
3182 1 -17.9138 -22.7447 20.0022 -0.367237 -3.77344 1.04843
3183 1 21.7669 17.8527 -5.54211 2.49013 -0.44019 1.40463
3184 1 14.9356 -4.5938 3.71758 0.297541 -1.58682 -1.58742
3185 1 -16.2598 19.7684 -21.3341 2.13161 -1.93809 0.514568
3186 1 -4.2941 19.5614 6.1458 -5.7901 -3.6545 -2.44131
3187 1 -21.2925 -14.7687 2.61727 2.14029 -1.19721 0.930416
3188 1 -20.7607 12.0185 -11.5389 1.87519 1.74121 -1.44183
3189 1 14.7907 10.3131 8.42131 2.74916 -1.07194 2.82057
3190 1 -21.706 21.1918 -17.0923 0.72304 1.58355 0.845874
3191 1 8.18191 -5.97126 -8.03399 1.82892 0.875051 2.24832
3192 1 22.0337 11.5359 1.76043 -0.308938 5.64483 -3.4457
3193 1 -17.693 21.676 0.751469 5.80711 -2.80923 -3.57536
3194 1 -16.6065 -7.23503 1.33029 5.06509 3.53736 0.716215
3195 1 -16.7537 -0.224159 4.0054 -3.26077 0.472657 -6.72036
3196 1 -0.646307 -1.82389 -1.10761 1.3699 3.46481 -1.75182
3197 1 -1.58661 10.6835 3.61677 -2.9751 -0.699269 0.228482
3198 1 11.0901 3.51453 -15.3588 -3.69025 0.225585 2.67886
3199 1 13.4624 -22.9958 7.81804 5.55659 -1.86008 -4.29953
3200 1 -24.3078 -4.45138 -5.18119 -0.660392 2.38873 -2.40252
3201 1 -15.7879 -2.68529 17.595 -0.455923 -6.43594 -4.18787
3202 1 -16.2963 -10.6907 -9.41454 5.74384 1.31282 0.390075
3203 1 16.1397 8.99098 21.7987 4.33861 -1.89118 3.71604
3204 1 -15.2383 -7.91027 9.89269 -0.860949 0.950579 -1.85148
3205 1 -14.03 5.19764 -5.13053 -2.64959 0.187215 -1.8714
3206 1 14.9653 11.6541 -3.38869 6.52898 2.27478 3.48673
3207 1 -0.13638 -6.30964 -19.0414 1.73574 0.855318 1.26336
3208 1 4.67696 -7.64447 4.10075 -2.51239 -0.114684 1.48089
3209 1 12.5842 -14.9454 22.0754 2.63094 1.02573 0.825836
3210 1 -13.9886 10.0167 -2.40754 -0.909006 -3.0276 2.19074
3211 1 -1.35541 17.6637 11.6244 0.200364 3.95914 -1.58464
3212 1 -13.2379 5.56484 -17.6177 7.21843 3.19337 4.9512
3213 1 -0.0988845 2.31657 -14.8944 1.53127 -1.02355 0.91364
3214 1 -1.45436 14.6829 15.2913 -6.02414 -2.48237 -0.527852
3215 1 10.447 1.59247 11.0392 2.47808 -1.51497 -0.379822
3216 1 20.4735 -0.476964 10.7279 3.51089 -3.56946 5.62887
3217 1 11.959 2.13821 8.37702 -0.611183 4.02107 1.56552
3218 1 -4.9682 21.5871 -6.98422 -4.64628 -3.22249 1.92347
3219 1 -7.33229 -19.8746 -15.6799 -0.741169 0.794131 3.50336
3220 1 -3.50552 -9.69282 15.1887 -0.510523 -2.23965 -3.25323
3221 1 -6.29104 -10.3389 -1.61066 2.6924 1.07673 -1.93399
3222 1 -15.5384 -19.2966 1.67184 4.40538 -2.30442 -2.8367
3223 1 -24.8319 7.55216 18.6321 -3.92784 -1.4734 0.50285
3224 1 -5.65166 -9.00003 2.72688 5.13167 -1.17442 3.09881
3225 1 -8.00479 -6.61781 14.7012 0.667327 3.14101 0.60835
3226 1 -21.9308 22.8508 -12.6794 -2.17352 -1.42981 -1.2886
3227 1 5.44111 22.6027 -5.67773 5.96574 -4.37004 0.65631
3228 1 -12.1964 11.8215 -10.6727 -0.725704 0.427856 1.76341
3229 1 -9.2862 0.988506 -5.75751 -0.589589 -0.0839232 -2.06241
3230 1 23.0815 12.9944 -23.1789 2.70103 2.32232 1.32545
3231 1 -18.1865 -16.7335 -0.241876 0.705379 4.308 -2.38152
3232 1 -23.9968 15.4267 6.74682 4.26541 -1.71266 -0.136922
3233 1 -1.46691 16.2163 7.64312 -0.271931 -0.446427 0.549477
3234 1 9.89781 -5.30264 -12.4785 -1.43292 1.63463 -2.00344
3235 1 -7.1172 11.4575 -11.7359 1.16004 2.59932 -0.0770963
3236 1 15.521 18.8836 8.5285 -4.66367 -1.03729 -0.035742
3237 1 -3.82288 -13.3218 21.2719 0.126014 -0.217277 1.35928
3238 1 22.4796 21.1215 -4.53815 -0.200885 -2.19513 2.86097
3239 1 -13.6095 -16.635 7.5824 2.52427 4.33404 -0.0209062
3240 1 -12.5263 -22.6499 -18.2204 -5.47971 -3.12679 -7.20385
3241 1 0.711572 -20.5931 15.7392 1.05813 4.68072 6.77068
3242 1 22.4792 -10.2509 -17.9201 -1.00497 0.132199 3.9389
3243 1 8.46217 16.433 23.294 0.116203 0.960304 3.0599
3244 1 19.1001 15.005 -13.7592 5.99971 -4.64166 0.681723
3245 1 -7.88045 19.3224 8.35594 2.42682 -5.35005 -1.88737
3246 1 18.0588 4.926 5.40718 -2.49972 -0.301049 -0.0568959
3247 1 -5.12247 8.41843 -10.7942 -1.10531 2.09212 -3.79323
3248 1 8.91363 -1.39485 -0.513377 -0.578219 0.0578568 -0.874656
3249 1 9.50307 -3.05226 12.8754 4.36144 5.59796 -0.317992
3250 1 12.4963 6.16532 -17.7501 -5.46983 0.641811 1.90823
3251 1 2.0247 15.7756 10.8859 -2.50411 0.00887575 2.04755
3252 1 19.2419 -22.0384 13.3388 4.53303 -1.12977 -1.78788
3253 1 9.58968 16.2586 3.94884 5.73468 1.2806 3.89291
3254 1 19.4411 4.09181 -7.9461 -4.90695 -4.75607 0.350814
3255 1 -18.835 12.165 -19.8505 1.40755 6.96002 4.53768
3256 1 -7.8381 18.4729 -9.86919 -3.60272 1.45075 -1.5499
3257 1 -12.8896 4.3367 20.1724 -2.71341 0.619793 5.59868
3258 1 -17.3077 -6.91289 19.8628 -2.31376 3.1571 0.241397
3259 1 18.6211 19.8661 4.51068 2.76099 0.518123 -1.47097
3260 1 17.7108 46.5913 -6.09851 3.49092 2.39911 -2.53379
3261 1 -14.2804 -2.8429 -16.4306 1.07779 2.96498 -1.60544
3262 1 9.41707 6.51912 12.2708 -1.07038 1.13487 -1.40259
3263 1 21.9689 4.70306 20.9388 -1.48185 2.00417 2.63886
3264 1 9.17897 10.3288 -23.1402 -1.06221 1.48861 -5.06356
3265 1 6.76085 -6.51439 -15.2434 4.20438 -2.60939 0.401646
3266 1 8.65645 -0.264657 19.4353 0.484187 -3.53149 1.777
3267 1 -17.8504 8.93131 1.14035 -1.51202 -1.8888 1.92656
3268 1 6.53561 -21.7643 10.3886 -4.79684 -2.44597 -2.97797
3269 1 8.51559 18.271 -2.89094 2.40418 -0.673582 -0.692063
3270 1 19.0841 -16.5349 14.917 1.59821 -0.263337 1.22675
3271 1 6.01095 -9.18197 20.7083 -3.29783 -2.25848 -1.67651
3272 1 2.29278 11.4832 -8.60842 1.96594 1.08843 -1.04623
3273 1 -18.0399 9.91451 -15.2564 -0.237072 2.75315 -2.33029
3274 1 14.1798 -17.7223 5.19372 -4.02499 0.0226805 -1.96759
3275 1 22.1522 8.56643 10.5191 2.6884 -0.93347 0.539501
3276 1 9.64991 3.06712 13.3634 -7.50054 6.14073 3.14712
3277 1 -3.3469 -18.3502 2.76461 0.891255 -1.58324 -2.79879
3278 1 0.902073 -5.84913 -21.7078 -0.690268 2.71398 0.028279
3279 1 6.43492 -0.201439 16.2949 -0.305251 -1.3609 -0.736743
3280 1 11.271 15.7018 11.629 -2.88654 -1.91962 -4.26699
3281 1 -6.62385 -12.6484 11.1955 6.62401 -0.108687 -3.07586
3282 1 5.98966 0.198956 -14.768 -4.5546 -3.1112 -1.72057
3283 1 -3.96419 0.820715 14.0273 5.01645 -3.412 -2.54637
3284 1 14.3778 24.5726 -18.6937 -1.08554 3.38617 -3.24472
3285 1 -0.637706 20.8383 -14.5697 -2.5172 -5.69038 -0.775933
3286 1 -15.9468 19.5777 5.28058 -6.53521 -3.40973 -1.79478
3287 1 -4.21675 -16.0202 16.1885 -0.593726 -0.114863 5.58496
3288 1 0.600749 7.91041 -18.4184 -2.97147 4.09231 -0.981671
3289 1 -17.5008 -20.8395 10.1722 -2.37985 1.5672 0.163227
3290 1 -14.4136 19.6493 18.1931 -5.85386 -1.44325 1.26791
3291 1 21.4429 23.2641 -11.9601 -2.55147 0.455945 4.28564
3292 1 -21.4102 22.4534 2.59044 0.570145 0.972534 -1.6721
3293 1 -10.1288 11.8698 23.2625 -1.39011 -2.98196 -0.48989
3294 1 -20.3106 1.41198 -16.2227 0.666858 3.78455 -1.47296
3295 1 5.4243 -24.6036 -1.1634 2.66626 -1.22305 -2.5192
3296 1 -17.0131 -14.0465 15.1895 3.2035 0.181346 -2.48328
3297 1 -17.6978 21.5203 23.8476 -6.33909 -1.01989 0.981438
3298 1 8.23225 -8.79223 -17.7335 0.0634877 -0.593087 0.850668
3299 1 -16.0998 22.2243 -6.70689 -0.219845 -2.92302 4.9315
3300 1 -2.74741 4.52024 -9.32739 -0.606136 -1.42762 4.41629
3301 1 -23.6581 7.65777 -8.63285 3.63686 1.64101 2.32106
3302 1 -18.4747 -10.5687 19.7596 1.48829 1.55231 -2.09054
3303 1 23.0272 -24.3991 -12.9296 -0.375936 -2.17562 -2.32667
3304 1 3.07921 14.5964 13.3857 -3.75495 -1.61984 3.22731
3305 1 1.37041 7.03494 -5.96434 -0.744286 -6.47341 -0.565098
3306 1 -8.6521 10.3408 -22.8515 2.02278 0.684561 -0.621144
3307 1 -17.0065 12.959 20.8439 -0.479203 -0.336301 -2.72166
3308 1 -17.1286 18.1551 -5.4322 -3.82991 0.362335 -1.98783
3309 1 3.80393 0.230345 10.5159 2.60391 -2.62346 2.91538
3310 1 16.9609 23.3492 6.72149 -1.49119 -2.73115 3.1989
3311 1 7.59515 3.11318 -10.5508 -2.07406 -4.0184 -0.663452
3312 1 -23.7807 7.02951 13.7537 1.72053 1.01445 -1.58492
3313 1 14.3164 11.4222 13.5222 -2.00985 -0.676479 -2.71336
3314 1 -0.369234 -3.79965 10.2811 -2.46744 -1.19231 0.873854
3315 1 22.342 -11.3181 -21.8914 -2.08074 2.47346 -1.79337
3316 1 3.34971 -5.54875 -7.11222 2.88762 -2.48965 -2.03706
3317 1 5.30497 1.01414 6.00082 0.845109 -0.891463 -3.08458
3318 1 -12.4139 0.498251 17.4972 4.67554 -2.29961 -3.57157
3319 1 2.45722 2.9682 -16.5241 -0.339238 -7.73126 -0.704224
3320 1 1.82247 4.68 -12.033 0.201603 3.10768 -4.57245
3321 1 -9.78716 -18.9096 16.3885 0.257208 3.36042 -3.33745
3322 1 14.4171 -11.578 23.216 0.108132 3.57559 3.42921
3323 1 -1.53371 17.5779 14.6789 -2.56425 1.07672 -0.737506
3324 1 13.5973 -17.7757 -9.654 2.94689 1.52402 -3.36551
3325 1 -10.6433 13.2997 3.46331 0.0116732 1.12751 -1.67609
3326 1 22.4948 6.20499 -21.8759 0.562384 4.53814 -2.16793
3327 1 7.7752 -23.0853 -9.22215 -0.278759 -1.68927 0.256132
3328 1 2.37478 -17.7421 -8.58401 1.02214 -0.503903 0.681398
3329 1 11.7403 6.20766 -14.7871 -5.55965 2.19218 -0.355532
3330 1 -9.09996 18.0445 -13.9993 5.94976 -5.96356 -0.978738
3331 1 -17.839 -5.81884 -1.02183 4.27432 -1.18131 1.39381
3332 1 -4.13478 6.70996 -24.0742 3.22389 1.84543 -0.881295
3333 1 10.0723 -5.84057 22.621 1.76931 2.81995 -4.39103
3334 1 -22.3399 20.4131 17.6276 -4.61932 0.753121 0.416917
3335 1 23.1603 -0.0375125 -3.7354 -2.14373 -3.36074 5.41615
3336 1 13.8016 -15.4747 3.40656 1.93086 3.07954 -3.3367
3337 1 -13.2561 10.7353 8.92677 0.572153 1.19535 -2.64541
3338 1 11.525 22.2416 18.1235 0.423934 -1.88758 0.72563
3339 1 10.3706 19.029 -19.334 1.40399 -1.29452 0.659977
3340 1 17.2027 -0.0512219 -21.4091 3.33916 0.661979 1.14188
3341 1 20.7228 20.5633 -13.2225 2.19242 0.597323 3.10103
3342 1 -1.65081 1.02092 2.87621 3.86103 3.85685 2.7102
3343 1 -22.8727 -3.99079 -16.0832 0.0830121 -1.31497 2.03377
3344 1 16.9917 -20.1279 16.4971 2.928 -1.00113 2.99188
3345 1 13.2457 22.8874 -22.3892 -1.26029 6.73245 3.82926
3346 1 10.8926 -24.4669 0.518199 1.56707 -0.753782 -0.174706
3347 1 -22.6312 12.9068 -15.0641 -1.70608 3.83504 2.09333
3348 1 -11.5777 -19.8755 2.40443 0.711322 -1.60507 1.26495
3349 1 13.494 20.898 -13.0741 -0.682631 -2.23425 6.30276
3350 1 -4.35874 -5.31968 13.2045 0.340859 -0.43263 2.31726
3351 1 -20.7391 -9.35404 16.6882 1.74371 1.48051 -5.14448
3352 1 6.44356 16.0382 3.94229 -4.26559 2.12709 -4.17146
3353 1 -24.4114 4.64603 18.7483 -3.25781 -1.29152 4.26791
3354 1 -15.2279 7.81398 -0.9096 -1.366 -3.35676 -1.1182
3355 1 -14.9485 -21.8847 -4.47978 -0.598395 2.05896 0.533317
3356 1 -9.57991 20.7839 4.55394 0.155752 4.91749 1.72681
3357 1 8.13171 -7.80064 22.2085 -1.32643 -0.291173 -2.11533
3358 1 -0.944404 20.4947 14.1661 0.484926 1.35899 4.01359
3359 1 -2.95434 20.1964 10.6656 -2.82721 -1.73708 4.254
3360 1 -9.79874 -16.1378 15.4042 1.50221 -0.63669 8.20799
3361 1 -4.61348 22.2905 10.0552 -2.38201 0.261255 -0.563763
3362 1 -6.08797 5.75174 -11.6598 -3.53367 -0.0152828 -4.2182
3363 1 12.4863 -5.65492 -14.1665 -2.8255 -0.918768 3.04532
3364 1 -20.2445 -8.69092 -1.15317 0.98581 -2.5443 -6.79959
3365 1 1.3216 -8.67948 11.4497 -1.62565 -1.58677 0.310567
3366 1 -21.5582 -22.6117 -20.853 -0.657786 -2.72128 -0.650775
3367 1 1.1109 -19.5672 -18.1077 -4.70623 0.319075 1.49079
3368 1 21.2272 -21.5046 16.0205 -3.78449 -3.66584 -5.90852
3369 1 -3.56752 -3.50322 -10.7139 -0.591915 -8.02468 -0.884322
3370 1 -17.1935 -16.846 -13.8537 -2.18336 -3.93617 1.53222
3371 1 -7.05785 2.31036 10.3609 2.76409 2.93389 -0.596658
3372 1 7.17404 -3.12945 -8.73277 2.13646 -2.07656 -6.69838
3373 1 13.5971 -5.79373 19.145 -0.293113 -0.751893 -0.998164
3374 1 22.7374 -13.7025 -23.5486 -1.79389 1.49183 -5.26141
3375 1 20.7911 -11.8216 -0.198579 7.52294 5.68408 2.86239
3376 1 -16.2051 10.9489 13.8132 -2.07143 1.5252 -2.21635
3377 1 6.11274 -12.3387 12.6102 -7.61292 -5.67328 -0.94448
3378 1 -5.99471 -20.3414 -0.371166 -1.34345 -0.484497 -1.86914
3379 1 8.5441 -5.0667 8.29585 0.905657 -1.41788 -1.28252
3380 1 -1.038 14.0564 22.9698 0.0325179 1.47098 -2.5212
3381 1 -4.87956 -16.7461 -23.3824 -3.18209 2.45567 -0.0799337
3382 1 -18.3963 13.6186 15.9838 1.81178 -2.71019 2.02413
3383 1 -20.2969 25.0716 -17.2478 2.85391 -4.30232 2.17318
3384 1 18.9094 -20.0665 -11.6206 -0.287996 2.33112 -2.74678
3385 1 -4.53522 -20.3555 -7.92662 -2.54404 2.0504 2.29305
3386 1 11.8951 -10.8506 -22.0179 2.37838 0.401049 -0.292621
3387 1 -19.7303 -3.33305 3.46345 -0.362807 0.880626 3.13076
3388 1 -19.9583 -2.20255 15.569 0.136184 0.815501 2.91895
3389 1 -10.3229 -11.3377 -13.7746 2.62085 -0.326965 5.69836
3390 1 23.049 -19.8879 15.0182 -2.34786 5.15623 -3.09912
3391 1 -8.85508 -14.9275 2.54728 -4.95054 -1.40441 2.57043
3392 1 -7.70198 2.47372 -16.4022 -0.704335 -3.41778 1.403
3393 1 -12.9617 15.3616 -18.6373 0.0905131 -1.21122 -2.73006
3394 1 -12.0098 -1.39905 13.1006 0.13257 2.27452 -1.06968
3395 1 13.1194 -14.0204 10.894 0.838166 2.53465 2.88622
3396 1 -21.4583 5.94711 -3.85967 2.24471 2.49928 1.80552
3397 1 -3.26352 -1.14925 18.5318 -2.9015 -1.6174 0.54729
3398 1 -8.00205 -19.2413 -5.06356 -0.585274 -0.182888 1.20721
3399 1 -1.06896 -2.86696 6.46856 -1.63676 -2.77067 3.41569
3400 1 16.1278 -21.828 -21.9999 3.93996 2.03677 -5.06423
3401 1 -19.5565 -24.4781 -12.6015 -1.05767 1.81497 -0.279473
3402 1 14.8508 -16.9062 -17.6358 -0.710428 -1.16158 -0.822262
3403 1 -14.7572 -23.915 1.43592 1.52045 -6.40882 2.81616
3404 1 -16.3131 -10.1361 -0.0777353 2.59454 -0.213474 0.541407
3405 1 15.45 6.00375 13.2236 3.9105 -3.34942 -0.114614
3406 1 2.14669 -2.86569 4.47188 0.187745 -1.96315 3.00895
3407 1 11.9323 -0.0912921 -12.491 -3.72246 -0.927622 -2.44164
3408 1 -18.4856 13.6124 -23.9422 -2.49867 -2.33144 -5.42917
3409 1 -1.81629 -19.4448 16.6715 0.510506 -1.95302 -4.18271
3410 1 -18.9454 -11.2293 14.037 -0.685986 -1.34954 -1.44929
3411 1 -4.45107 -5.50511 20.3243 4.99908 2.22505 -4.84048
3412 1 6.46887 -2.27456 -11.7972 1.06024 -1.94495 1.35907
3413 1 -3.34249 -15.5583 -16.7474 2.3903 -0.211621 0.436345
3414 1 -18.3293 4.24532 -6.5474 -3.11385 -0.691786 0.457928
3415 1 -16.6243 -0.242188 -15.2135 1.81761 6.37163 -2.1602
3416 1 20.062 -22.1175 -3.99863 0.66489 -1.05634 0.510024
3417 1 -21.6981 -11.1621 8.86571 1.95408 -2.04668 -3.19583
3418 1 20.4978 19.3994 15.7048 1.55637 0.0251241 -5.52143
3419 1 -11.6404 -12.8574 0.240797 -0.0432734 -0.507076 1.13778
3420 1 -19.2075 11.6896 9.61382 0.886558 2.96341 2.3227
3421 1 10.1359 17.6649 -12.8067 0.861746 2.15686 2.19605
3422 1 3.90525 -14.4879 -2.49026 -0.696946 2.81956 -6.13668
3423 1 -13.9759 2.80872 2.49131 0.518031 6.04982 2.5195
3424 1 -0.342272 -12.225 1.22717 0.113958 2.27011 2.76551
3425 1 23.4186 -9.12224 16.7686 -0.999194 1.22112 0.873923
3426 1 -20.024 -6.98105 4.23174 -0.283615 -3.1719 -0.856544
3427 1 22.8532 12.1478 -16.8954 -0.477996 -0.279063 -2.79703
3428 1 -5.30884 11.7332 13.3527 2.91629 -1.83893 -0.336224
3429 1 3.03679 -17.7125 17.1499 -1.97694 -4.09894 -0.0166272
3430 1 -11.087 -13.8601 20.4877 4.6998 -2.33949 -1.093
3431 1 -8.56003 -5.39938 -1.15322 -2.34829 1.98063 2.55302
3432 1 -3.23145 9.12545 7.96959 -0.453883 -1.98074 2.71532
3433 1 -6.79412 -3.39658 -20.723 -0.0548435 1.03014 -1.69506
3434 1 13.2164 15.7858 -10.1741 4.95695 2.16074 -5.43779
3435 1 -5.51597 23.7435 -14.2183 -0.551698 3.00873 -0.158908
3436 1 -5.59205 8.86784 16.8793 0.634512 -1.20255 -3.9911
3437 1 12.7998 18.3285 -5.29789 -1.47184 2.60469 -6.8926
3438 1 -19.5301 8.49695 3.62327 -1.01095 -2.67008 2.05301
3439 1 1.14781 -13.6674 13.0643 -1.75254 -4.16309 -0.236573
3440 1 2.21285 20.8513 -10.271 9.35006 1.86669 3.06608
3441 1 4.83311 -13.9801 -5.2932 -2.8264 -0.647333 -0.129792
3442 1 -8.7905 0.709245 4.09993 5.88802 2.6042 -2.42533
3443 1 22.4318 2.36083 0.00828787 2.62024 0.967505 0.850986
3444 1 -20.1946 11.458 3.27202 -0.37056 -2.51051 0.129793
3445 1 -11.5953 1.64897 -11.6566 2.91946 0.945908 -0.742085
3446 1 -2.88933 -20.6545 -16.4871 -4.53521 1.04942 0.957992
3447 1 -5.45675 3.42339 -9.88427 0.894958 -0.0258266 -0.659109
3448 1 -20.7931 4.36956 15.1105 0.59593 -0.823935 2.68496
3449 1 6.639 26.0605 -17.6174 -2.71515 -1.13291 -2.6586
3450 1 -1.48632 -13.3602 -13.6947 -1.27532 1.47241 -0.230759
3451 1 2.78733 -12.3572 -19.9783 -1.3377 -4.36612 -1.10658
3452 1 -9.24801 1.08502 -12.8989 -1.48973 -4.52479 1.93155
3453 1 13.2986 10.7203 -21.3299 -2.96978 1.82759 -5.58175
3454 1 -21.5957 18.0948 9.02174 3.77829 0.288181 -1.67571
3455 1 -18.3913 15.2349 20.097 6.61057 1.39788 -3.01354
3456 1 9.52873 26.4433 -16.985 -6.14202 -0.0414874 1.00036
3457 1 21.0074 15.4788 22.3145 0.525028 -6.62066 -3.13246
3458 1 11.9434 6.95971 -22.1989 -0.1161 -3.46176 -7.24017
3459 1 -1.32715 19.4267 17.1081 -1.79669 -5.50307 -0.775407
3460 1 1.25227 20.9344 17.1941 -1.54299 -1.32767 -3.89898
3461 1 -13.1948 -22.9432 17.922 0.0239669 -0.604754 0.426366
3462 1 -12.0072 22.3777 -8.73846 1.48191 2.18771 2.61557
3463 1 20.4469 7.16593 -20.1124 0.906685 -6.11548 2.31175
3464 1 -17.8735 -20.2054 13.857 0.821552 2.60488 -0.611671
3465 1 0.925972 -4.38692 12.792 5.61853 -1.12115 -1.11537
3466 1 -8.36446 3.55705 -5.92313 -3.97524 -1.66652 1.30556
3467 1 13.9227 12.9074 16.02 2.02302 1.05037 -1.40892
3468 1 -7.70013 -9.13351 21.1204 1.9844 0.704054 2.1521
3469 1 -1.80781 -10.0236 2.27391 4.67432 2.99651 0.593099
3470 1 -16.2752 -21.8834 -7.84787 -4.21633 3.85679 -5.24116
3471 1 -16.2802 -20.3299 -17.8583 -1.29384 -1.82326 0.442917
3472 1 -15.1691 9.69644 -14.8206 -6.17844 0.839912 0.536291
3473 1 23.5055 24.3995 -18.006 2.44462 -0.222972 -5.37998
3474 1 15.7675 -2.6428 13.3311 -5.63433 -2.32743 0.0729327
3475 1 22.1781 -10.8407 19.0639 4.9603 2.9543 -2.64976
3476 1 3.75238 13.9787 17.2256 3.62186 1.75324 -2.10103
3477 1 -19.5268 -1.15992 -14.904 -1.21626 4.94208 3.81717
3478 1 9.85624 -13.4259 2.52421 -0.77743 -0.880344 0.220293
3479 1 18.2404 -6.84339 8.4242 1.79154 -4.12507 -2.6189
3480 1 -22.917 24.2219 -6.09335 0.178202 -6.06628 -2.41695
3481 1 1.81057 -20.5426 -23.1924 -4.98633 -1.70577 -0.928901
3482 1 20.0111 19.9821 1.82961 4.51846 -0.86558 -1.18287
3483 1 11.214 22.1211 -0.970245 -0.785931 3.14601 -2.14675
3484 1 3.95789 10.2072 7.4189 0.108648 -5.59828 4.88348
3485 1 2.55148 7.60233 -3.15915 -5.38765 2.16495 1.51792
3486 1 16.3708 25.6877 17.5005 -0.549592 2.80483 3.98898
3487 1 11.1003 -10.3461 -12.9108 -1.48392 0.225909 3.17521
3488 1 16.2268 15.0116 -13.2187 -1.87244 4.85149 0.414775
3489 1 19.4956 1.26627 -7.56364 3.40756 -1.69571 -0.602577
3490 1 -18.5374 3.99878 6.76216 5.75882 2.47713 1.97099
3491 1 -11.4255 8.46701 -20.6075 3.49703 0.202597 -3.84717
3492 1 17.8761 -1.13298 4.04766 1.88349 1.80292 0.422745
3493 1 3.76536 9.77056 18.6491 -0.0391878 6.67604 -0.381719
3494 1 -16.8954 3.55758 22.6942 -2.16146 1.15083 -0.903303
3495 1 20.8843 -4.10362 16.3289 2.20177 4.1439 -3.57019
3496 1 -9.60832 7.97371 -15.6658 1.15176 1.54938 1.16343
3497 1 -17.6027 12.0443 18.028 -2.37177 -2.7399 -0.710921
3498 1 -18.8195 12.4328 5.71609 -1.71596 -7.15901 -0.337757
3499 1 -21.1198 21.1404 -20.6952 4.51569 0.17241 0.00821305
3500 1 18.0058 17.7543 -5.48667 1.62944 1.21996 -0.315914
3501 1 -15.6735 15.3018 -7.68977 -2.18659 1.29271 -0.606083
3502 1 -6.62486 23.1668 -3.92456 -2.9143 0.712117 -3.0471
3503 1 17.3483 -21.5296 5.44474 -5.86398 0.727232 -0.902269
3504 1 17.6548 -2.64286 -0.27946 2.15767 -2.8699 3.41417
3505 1 -1.66602 -14.3706 2.92599 -0.25449 1.31782 -1.71201
3506 1 -22.3878 18.4657 -4.51001 -5.7731 1.30518 2.29181
3507 1 9.08628 9.61168 -11.0024 0.608359 3.62098 2.24562
3508 1 -2.33028 -13.0125 -22.6869 -4.34268 -3.21673 -5.26875
3509 1 -22.4315 -18.5939 -23.0674 5.28382 2.74878 0.560407
3510 1 -11.6566 5.71769 15.8499 -2.68935 0.814865 -6.02128
3511 1 15.6983 10.0894 -0.997682 -2.03259 -1.08878 2.06041
3512 1 -18.6276 2.6443 2.66382 0.83449 -0.0388398 0.469031
3513 1 -20.569 -22.8006 -16.8451 -0.841017 1.0945 -2.85863
3514 1 -4.37495 17.5905 -8.9635 -5.06009 6.07242 4.28391
3515 1 12.9842 -16.5402 9.67508 0.749842 -1.64139 1.88053
3516 1 -20.6149 4.31127 -16.6687 -2.69903 2.88251 -1.48777
3517 1 -5.05827 18.5175 16.9436 -1.68063 -0.0366748 -1.93459
3518 1 -1.61871 0.766883 -0.338219 -2.28101 4.60172 -1.56002
3519 1 -4.3268 4.7836 15.7374 -3.20318 0.736579 -0.0940464
3520 1 -4.14145 -14.9093 18.9305 -1.28817 2.96955 3.12126
3521 1 1.90266 14.987 -14.2814 0.874828 1.19298 -1.04141
3522 1 21.7931 15.6827 -23.1393 4.03261 1.20157 1.07785
3523 1 -10.6591 -20.4147 8.57429 -0.323626 -1.16314 -0.354525
3524 1 0.344048 23.2297 2.15676 -1.01277 -2.46533 -3.75218
3525 1 -17.039 13.0497 -21.7459 3.09668 -2.0331 3.10592
3526 1 10.3186 18.9372 -6.48938 -5.04762 -2.49446 7.50762
3527 1 -0.983982 9.124 6.16287 2.22408 1.96135 -1.57156
3528 1 24.0655 -22.9046 0.664398 0.946529 0.17003 1.02984
3529 1 -22.5374 9.01436 21.7074 -6.42915 -0.362474 0.557028
3530 1 -12.464 7.34513 7.617 -3.5441 -3.54155 7.79036
3531 1 2.99746 6.74328 22.8189 -2.39552 -2.42462 6.03259
3532 1 -8.62364 13.0669 -7.93947 -2.21823 1.0579 -2.83631
3533 1 16.3864 9.99547 6.00984 3.68702 0.076045 -2.34041
3534 1 7.1898 -4.05981 20.3627 -4.35842 1.45921 -0.674209
3535 1 12.3451 -18.3111 -17.9202 1.9502 -3.66346 -9.10938
3536 1 20.3282 -16.0963 10.0815 -4.67825 -2.07504 -2.31143
3537 1 22.994 23.0327 17.7041 3.90727 -5.76657 2.37786
3538 1 4.241 -8.55584 16.1577 -2.0708 -0.34889 -4.5274
3539 1 11.7843 23.4784 -12.5859 -0.762414 3.23928 -0.197354
3540 1 -0.994202 11.9408 -5.57281 -1.06928 0.285002 2.96534
3541 1 11.9629 -0.230116 -23.7863 1.65409 1.45488 1.47005
3542 1 21.1435 1.22493 3.21579 -0.396261 -2.29244 -2.41946
3543 1 -15.6198 11.0243 -7.92378 -5.81947 2.08734 0.856128
3544 1 -9.40253 20.7572 -3.31067 1.80663 4.50551 -1.07823
3545 1 3.90144 20.1296 12.5576 -1.61536 -2.78546 1.4787
3546 1 19.8856 14.1048 -7.83176 -1.39504 0.267698 -3.72886
3547 1 8.37391 -18.6658 -8.42403 3.0068 -0.803418 2.15792
3548 1 8.18665 -12.2299 -19.7372 6.6087 -5.16936 -7.02891
3549 1 -11.3252 8.13344 4.89897 3.43256 -2.64092 -1.17623
3550 1 -15.4491 16.6682 8.39778 -2.98138 0.175262 -1.88525
3551 1 13.6636 3.2834 -18.9042 2.68595 -4.91075 0.859382
3552 1 14.8435 16.0735 7.67552 0.398592 -7.35385 -4.72322
3553 1 -10.5402 15.3828 -4.28632 2.76652 1.70585 1.97906
3554 1 12.5321 14.6062 -12.7781 -3.89861 0.864215 1.25047
3555 1 -23.758 -20.464 -0.419648 -6.69317 -1.29122 2.69994
3556 1 -6.67369 -14.0719 18.3723 -0.955524 -4.8322 2.45344
3557 1 7.21562 11.497 -18.6956 -0.548282 -3.16666 -2.08003
3558 1 -21.7401 -16.1628 -2.0204 2.45049 4.99146 0.483803
3559 1 9.78621 -4.92644 10.6048 1.37634 -3.2207 -1.12415
3560 1 -19.6447 14.1682 -17.8369 1.91865 -2.85743 -0.0989769
3561 1 -18.9637 21.1642 3.32569 -2.33842 2.05041 -3.36728
3562 1 19.1798 11.4126 2.00066 -1.5062 -4.67966 -3.4596
3563 1 3.28114 -22.3589 -6.71228 -3.84231 0.455094 1.97093
3564 1 21.1802 11.0634 -13.7777 2.03188 2.92404 5.60152
3565 1 16.5367 -18.8646 -6.36548 -4.82636 4.32178 -0.974706
3566 1 -10.9807 -15.6821 4.23025 0.0839315 3.57403 -6.45313
3567 1 1.21415 -5.83044 4.85802 -3.87388 -1.07606 0.189237
3568 1 16.2959 0.719048 15.8695 1.00341 -2.59292 1.09159
3569 1 -4.33122 2.44701 -12.3051 1.30624 -6.19936 0.320366
3570 1 12.6486 24.4161 23.6474 -0.553107 2.81215 3.56421
3571 1 3.13241 22.5487 9.32411 2.83284 4.43219 0.510214
3572 1 -15.0085 -17.0765 -20.0222 1.60111 1.95359 2.09268
3573 1 17.4663 -5.06586 -1.80268 -1.232 -1.67663 0.685703
3574 1 -15.6015 -4.0252 -11.2548 -3.89056 4.18338 4.451
3575 1 -11.0729 -11.4356 -10.1964 3.02204 -1.76087 -2.99502
3576 1 14.5316 3.81161 17.2171 3.05716 -0.758122 -4.11345
3577 1 -7.10358 9.20154 -5.02741 2.23145 -0.10497 3.72306
3578 1 21.0946 7.35562 20.0874 -1.4869 -4.43568 0.607004
3579 1 -17.3176 -12.333 -7.16831 1.21789 -1.42807 -2.06251
3580 1 0.768089 -10.7293 6.55009 1.77731 2.7698 2.20803
3581 1 -15.4083 9.16192 2.66852 0.890091 3.21017 -2.90566
3582 1 -15.9334 -22.6409 13.0669 -0.593009 0.511885 -3.54169
3583 1 -18.1719 15.9877 8.30625 -4.95558 -0.726521 -0.665867
3584 1 7.88551 6.90759 22.1841 0.96801 -6.26848 -0.211093
3585 1 11.8089 -2.80662 9.92622 2.17168 1.73519 0.742195
3586 1 15.4457 -0.682253 -8.01892 -2.86481 2.42463 -1.91197
3587 1 -24.3203 -12.4623 -16.7239 -1.24188 1.26944 1.70477
3588 1 -20.6615 -9.70148 -12.0148 -2.52192 -3.1837 -0.467091
3589 1 -11.4817 2.21327 -6.98094 0.658408 -1.5869 -2.36781
3590 1 10.6132 1.45612 -5.61989 -3.36629 -1.21724 0.163685
3591 1 -6.98097 -11.3874 -23.4843 -0.523027 -7.167 -1.6881
3592 1 -6.3842 -17.1943 -6.32582 2.57099 3.40176 1.99186
3593 1 15.4254 -10.8156 -14.1112 -0.656789 2.60862 -0.935459
3594 1 14.3544 -0.26295 4.98291 4.81103 3.59892 4.90057
3595 1 -2.42447 -16.2415 6.22218 -1.30638 3.94195 -0.927192
3596 1 -8.03066 -10.7115 -8.48761 1.02832 5.32629 -3.26661
3597 1 -3.00128 13.252 3.91682 -2.05859 0.67183 3.1359
3598 1 -13.0449 -11.1978 -5.85132 3.06278 2.91701 0.0161109
3599 1 13.3252 15.3075 -5.37948 -3.45056 4.3564 -3.25661
3600 1 -18.5774 23.3315 -9.34842 -1.27047 -2.45291 -0.130128
3601 1 -24.3857 -13.7402 -6.2441 -1.62222 0.846532 2.32537
3602 1 0.346632 21.6898 21.0817 2.52095 -4.26005 4.17745
3603 1 -4.57941 -1.70741 11.0066 3.8309 1.02005 4.55079
3604 1 8.72213 13.3798 -22.6984 -6.3635 -4.76058 -0.887025
3605 1 18.5472 20.9113 16.8803 -0.888212 2.9624 -2.86652
3606 1 3.93112 9.45467 -12.3935 -1.89652 0.456564 -0.665286
3607 1 -18.4708 6.9128 18.4748 0.0729155 -7.20361 7.20281
3608 1 19.3105 21.5372 -15.5499 -1.90649 -1.27414 0.070276
3609 1 9.52626 -12.2846 6.52881 1.77821 7.82481 0.658374
3610 1 13.6133 9.98939 22.761 0.946449 3.2521 3.09178
3611 1 -18.2971 20.8678 -16.0553 0.419383 -3.29743 -1.03947
3612 1 -2.92233 15.8414 -5.23709 1.96506 0.17479 3.5802
3613 1 2.57987 22.6121 12.0935 0.841246 0.798057 -2.42439
3614 1 -1.28034 -6.31704 -3.92766 0.652032 1.7996 4.3607
3615 1 3.67169 20.0908 2.85279 2.03736 0.984818 1.96947
3616 1 -10.8072 -12.5686 23.9701 4.19245 1.00894 2.97008
3617 1 14.3804 1.30312 -21.4732 1.78748 4.13202 1.53826
3618 1 0.324183 -8.18218 -7.06831 1.79706 -1.93663 -2.68501
3619 1 2.10125 19.7801 8.45659 6.26432 -0.705473 -3.73984
3620 1 -4.59422 12.9029 -11.3389 6.38011 1.638 2.2163
3621 1 -8.96329 12.7821 11.6596 1.16433 -7.03156 2.29959
3622 1 6.62903 -10.9145 10.379 -3.49742 3.98568 5.23377
3623 1 10.3215 -0.252562 16.9955 2.87864 -0.518954 -4.59425
3624 1 22.5704 -7.62676 3.82546 1.02379 6.54688 0.325311
3625 1 7.89004 -15.31 21.4774 0.526262 1.73494 -2.58062
3626 1 -15.6423 4.6449 -7.7445 -0.177228 -0.473683 -2.42141
3627 1 -4.04628 16.8451 8.33813 0.41006 1.72902 -2.36392
3628 1 10.8979 -0.845696 7.99574 1.33207 1.47751 -1.46649
3629 1 -5.5819 -0.159812 1.71248 -1.85681 -0.113951 -3.37676
3630 1 5.84359 -9.96537 -0.931099 0.635189 -1.6396 -0.889803
3631 1 9.12814 10.5153 20.7871 0.804366 5.76424 -0.33673
3632 1 -14.4121 -14.4503 14.3254 -1.21599 -1.55604 4.26221
3633 1 10.588 8.05716 -3.86375 -0.0707657 0.819477 -2.0022
3634 1 -1.98083 3.40225 8.03138 -0.17774 1.50968 -4.1875
3635 1 -0.4259 -16.0417 -22.7605 -1.43466 -0.356135 2.65384
3636 1 3.76019 -17.3307 -11.0583 5.67908 -1.32231 2.92109
3637 1 -6.41922 11.2095 22.0919 2.38278 1.80472 5.22688
3638 1 22.562 -6.90159 20.8866 4.4683 -6.20043 -1.89499
3639 1 6.65563 -16.514 4.4551 -0.319936 -0.156506 1.23154
3640 1 18.8563 -22.222 -14.0835 1.16854 0.149619 1.81193
3641 1 5.17442 11.9966 21.4636 -1.00447 -3.9753 -3.27178
3642 1 -4.75163 -16.2599 4.46398 2.2245 0.471697 -0.353792
3643 1 0.999965 2.52363 7.74329 -0.781653 -5.25813 0.592333
3644 1 20.2297 22.3826 -1.50329 3.07536 -6.82268 -5.35526
3645 1 -19.9673 -13.081 -7.79661 3.61185 -1.23491 2.33535
3646 1 16.7634 2.96962 -16.4229 -1.33093 0.126599 0.776713
3647 1 20.2344 -20.3913 5.22518 -0.442396 -0.490052 -1.93825
3648 1 -23.2041 -20.8956 -3.29857 5.11829 4.17903 -0.227056
3649 1 -16.3402 -1.36458 -17.9507 -0.0694537 -3.63219 -1.81117
3650 1 10.7654 -8.08327 -16.4686 -4.837 -3.26713 -0.222216
3651 1 -9.78565 6.1012 10.3022 -0.82268 2.25543 0.283894
3652 1 21.2075 -10.6593 15.0166 2.42597 1.85007 -3.70854
3653 1 0.123687 16.2398 -1.60944 3.24021 0.683854 -2.57998
3654 1 -18.5864 23.234 12.2324 -5.41201 -1.08109 -2.75892
3655 1 -8.36797 21.1661 -12.447 0.849392 1.10909 2.04101
3656 1 -12.3102 -19.2467 19.3995 4.77573 -1.93194 -2.92368
3657 1 -24.3422 22.6168 -11.0216 -0.267768 -3.83618 -1.70299
3658 1 22.1179 12.8056 15.5284 5.41637 3.12633 -2.27772
3659 1 18.1031 5.82923 -19.5274 -1.25335 3.90878 -1.78838
3660 1 14.0812 8.18931 11.6068 -0.151685 -3.66109 -1.71419
3661 1 20.3719 10.5649 -16.6128 5.4953 -0.0333999 1.18396
3662 1 0.391775 1.22553 -22.1553 2.94868 0.866554 -1.40497
3663 1 -18.3843 -15.3132 -11.8375 -0.27265 2.00494 -2.24381
3664 1 8.98016 16.6819 13.3853 -3.25926 2.51655 2.82251
3665 1 11.88 -10.236 -18.339 -3.00854 2.81083 0.702452
3666 1 1.01859 -17.1623 21.8944 1.54691 3.33149 -5.56168
3667 1 12.7861 16.1166 -16.6206 0.347877 0.378631 1.12652
3668 1 -14.8903 -1.61428 20.0603 -1.68038 -0.741403 -2.08154
3669 1 1.07546 21.3402 4.24429 0.625676 -0.547865 3.65526
3670 1 12.8975 6.27191 -9.65364 0.494816 3.48945 -1.59756
3671 1 -3.16832 11.4707 -13.4137 -0.574891 2.27245 -0.365148
3672 1 -13.7761 11.6602 12.5692 2.84527 4.03344 4.85192
3673 1 -4.30675 -22.2844 21.8199 2.65719 6.62181 0.10762
3674 1 -2.38107 0.0136845 -6.18858 -1.18034 5.78646 -0.409643
3675 1 -14.4084 19.5517 -9.11005 -1.22743 0.86042 0.442142
3676 1 17.5272 13.3094 -9.68659 6.57139 -1.85822 -4.24721
3677 1 -5.34514 14.4365 14.1628 -2.28594 2.84328 -0.940056
3678 1 -19.1747 6.92279 15.0339 -0.110031 -1.32558 -2.43377
3679 1 8.66801 -18.6178 -4.22364 2.3647 3.3428 2.96173
3680 1 9.64532 5.78569 -23.8914 1.5262 1.5962 2.56349
3681 1 -7.61773 -0.221555 13.855 -1.20259 -0.828341 -3.08264
3682 1 23.0389 -22.2616 18.281 -1.69243 -1.0926 -4.80031
3683 1 5.21723 9.23748 5.02543 -1.31921 0.509066 1.31909
3684 1 14.5316 16.882 -22.4449 1.10042 -1.69287 2.85534
3685 1 5.90223 -2.14018 0.0609812 1.53621 -0.204533 4.01781
3686 1 -21.9269 9.59514 -0.82194 -2.61424 1.29007 0.272272
3687 1 7.71719 -13.4874 8.83194 1.27924 -1.03162 -0.108222
3688 1 -10.8713 -23.5549 0.213321 -1.71752 3.79102 -1.70305
3689 1 22.1161 16.4901 -15.9572 -1.73703 4.54511 2.2852
3690 1 -9.28937 7.27659 -5.77945 -2.61705 0.0102573 1.23638
3691 1 19.8083 -24.4858 -7.81707 -1.53627 1.17863 0.557272
3692 1 6.91505 1.24031 -18.7699 -0.0668825 0.157253 1.25102
3693 1 6.86785 23.5546 -2.00841 1.29074 5.21359 2.98801
3694 1 -22.1288 2.52091 -5.15497 3.28911 -5.42467 -3.4169
3695 1 -7.42332 -7.33468 1.14067 -1.70944 -4.04487 1.53014
3696 1 8.50217 1.63628 -15.0478 2.50941 -3.02711 -2.90142
3697 1 9.90521 6.55388 5.58184 1.36868 0.199237 2.29641
3698 1 -23.3047 1.38229 16.3037 -3.48716 0.766474 1.1809
3699 1 -9.62356 -4.89598 13.2229 0.21383 -0.324634 -1.94476
3700 1 -4.92882 -18.4199 -16.5081 -1.26428 1.97217 -1.33618
3701 1 13.7212 -4.0578 11.8249 4.16548 5.19767 -0.819199
3702 1 -6.52906 1.44514 -13.894 -3.97436 2.98838 4.5228
3703 1 19.2953 13.8554 -22.0802 -3.04409 3.09809 -1.8624
3704 1 17.8665 -3.15328 11.3576 -0.230954 -1.11777 -2.33221
3705 1 5.17647 -0.872124 2.50295 -4.83656 -1.63828 3.1584
3706 1 -15.9426 5.96155 -16.0437 2.50911 3.77027 1.24875
3707 1 19.119 6.40928 -14.8108 4.59145 1.599 -4.74907
3708 1 7.14948 2.52346 7.96695 -1.34846 5.06764 -1.57372
3709 1 -21.2383 15.4261 8.15987 -1.68698 0.29612 3.27021
3710 1 -4.85722 -8.68152 17.4473 -1.98979 0.414758 -1.7061
3711 1 -12.2748 11.5439 15.3265 1.17387 3.07893 3.0164
3712 1 17.5716 23.2808 -5.29297 4.15405 -0.498434 0.675301
3713 1 3.37314 20.1869 5.77806 -3.85626 -0.482769 -0.194291
3714 1 -10.4457 0.429471 21.2952 -0.0560733 -1.16214 -2.00392
3715 1 20.1378 19.7823 19.2846 2.85888 -5.56468 0.449103
3716 1 6.37627 3.51477 0.0848484 1.87671 3.83082 -3.04678
3717 1 -2.99787 15.4594 -17.9376 -1.08657 -2.0772 -0.310393
3718 1 -20.4096 6.26176 2.11833 7.04589 3.64706 -2.21006
3719 1 0.110404 13.328 -7.77472 3.58058 -0.601737 -3.73778
3720 1 17.647 16.5901 17.7868 0.850381 -0.51796 0.578001
3721 1 -1.92772 19.0219 -9.47641 -2.45105 -3.81414 -0.789165
3722 1 20.0031 -7.85501 5.16321 1.57913 1.04649 1.82361
3723 1 9.16135 5.92821 -15.796 2.64091 3.08467 -3.95753
3724 1 -5.79949 0.395519 -3.27776 -1.71353 1.58994 4.08469
3725 1 -13.128 20.8245 -3.75679 1.60578 -1.86641 -0.758542
3726 1 -8.17668 -13.7004 -13.5267 0.51709 -1.94435 2.53997
3727 1 6.57193 -12.3585 -22.1482 -5.10161 -3.95301 3.4074
3728 1 16.224 -9.68143 -23.8227 -0.0729266 -0.102995 0.90479
3729 1 -19.0032 -11.7391 -12.8399 -0.192947 1.34262 3.16621
3730 1 11.7902 -3.70201 14.4091 -0.139987 -2.77947 3.45637
3731 1 2.59792 -17.4937 -19.2717 -3.15798 0.358683 1.93662
3732 1 17.7425 18.3821 6.76777 -1.93347 0.222119 -1.39086
3733 1 3.93995 -14.2891 0.298983 -1.27866 0.278509 -3.98964
3734 1 14.896 15.1475 -7.74151 0.283992 -4.64425 -3.64566
3735 1 -8.04745 19.2534 -1.25044 4.09842 1.18815 0.543435
3736 1 -23.1643 13.531 -10.7396 1.05099 0.635789 1.01434
3737 1 -0.572128 6.71758 0.0360485 5.03546 0.377248 -1.95681
3738 1 -5.13651 -6.60766 15.5816 -1.59723 -2.26537 -0.980011
3739 1 0.554913 -4.79713 7.63111 4.96951 -5.29905 1.26238
3740 1 7.8875 0.420271 -21.7464 -1.0876 3.48385 -5.26902
3741 1 -18.0603 11.1402 -4.05643 1.02028 -4.20855 -3.2385
3742 1 -1.52145 -16.693 -14.4985 1.57616 1.1809 -3.19953
3743 1 5.11702 -13.7357 15.1613 -2.46481 -3.2979 -2.98353
3744 1 -16.1379 15.1541 3.49455 -1.81796 2.80528 0.00473176
3745 1 4.08767 -8.04636 11.5603 0.624377 -4.7408 1.99008
3746 1 5.98688 -18.8569 -6.04168 -6.19911 3.52657 -0.685466
3747 1 -17.9919 23.5469 -17.1886 0.227076 1.95227 4.95885
3748 1 -13.9992 -0.835309 -19.9856 -1.66087 -1.48139 5.04242
3749 1 -24.4807 -2.25833 12.9359 -1.74062 -1.26636 -3.59654
3750 1 10.7443 24.5299 -14.8785 -2.43611 2.2414 -0.595131
3751 1 -4.50735 -2.15312 0.123918 -2.44651 1.09444 -1.66562
3752 1 -19.518 12.2582 -15.6497 -2.90336 0.748008 -4.4999
3753 1 7.78616 -2.67118 -21.3871 2.36757 -8.88111 1.14034
3754 1 -10.8813 4.79824 8.00892 -3.72362 -4.37459 -2.5587
3755 1 17.6539 7.42748 -10.7994 -2.28107 -0.31201 -2.81347
3756 1 -10.6264 -22.069 -20.4513 7.18354 -0.281176 2.30002
3757 1 1.68677 21.0521 1.08779 0.302057 -3.89007 1.70822
3758 1 -22.8681 -7.94938 -13.2963 1.95104 6.27691 -0.109796
3759 1 -13.9837 7.59161 -19.6281 1.26996 1.65011 1.59071
3760 1 16.7892 24.6819 4.19597 1.96492 1.18645 -2.27587
3761 1 18.6764 -11.0506 -17.2985 0.161868 -2.46555 1.20294
3762 1 10.1123 -9.82792 8.38842 0.917207 0.189697 -2.13834
3763 1 11.917 10.0705 8.0367 5.76486 1.53004 -0.926174
3764 1 15.5504 -9.65708 18.8815 4.18411 -3.75305 1.12935
3765 1 23.5899 -24.2148 -1.86879 2.16599 -1.10855 2.2249
3766 1 -12.7983 19.2487 14.1789 2.10047 7.71087 1.39437
3767 1 -12.3082 -22.6577 2.44326 -1.5659 0.332952 0.306822
3768 1 -1.63031 4.88105 -15.6317 -3.81564 -2.41907 0.941926
3769 1 -21.81 -18.1076 8.24326 -3.30429 -5.69566 2.50355
3770 1 -7.95243 -5.70547 5.20604 1.41781 1.27359 -1.44333
3771 1 -15.8797 18.8065 20.432 -3.9802 4.14498 1.83689
3772 1 15.5498 -14.5094 -2.62931 -3.23378 -3.64475 -5.14361
3773 1 1.40513 -2.67801 15.1134 4.87292 4.53952 0.823699
3774 1 -5.88913 12.5541 4.71286 -3.94764 3.38292 1.20798
3775 1 3.68328 -3.01409 -11.6194 2.58639 1.95074 -2.79039
3776 1 9.0243 -5.24786 18.3673 2.29441 -2.26435 -5.86024
3777 1 10.2616 -7.62868 -1.90018 -2.77892 -2.95719 -0.923534
3778 1 5.28628 15.8334 -10.0423 2.6143 1.51601 2.70902
3779 1 -8.55185 0.133894 7.04277 -0.762476 -2.72266 -4.30817
3780 1 20.4196 18.905 -16.811 0.522663 -0.870628 -0.862993
3781 1 -6.85141 -4.13907 7.18766 0.285671 -3.0483 -1.2064
3782 1 0.406706 -14.69 -17.7741 -2.51903 -2.66872 2.46867
3783 1 21.3764 18.6904 4.21097 0.625497 -1.27881 -3.43924
3784 1 13.9116 -0.655686 2.05885 0.963311 5.58466 -2.50323
3785 1 -2.35671 -24.1048 23.4319 2.89912 -1.60904 2.34875
3786 1 20.4308 6.8244 17.2054 -5.47859 0.475975 -1.55464
3787 1 9.51567 23.8845 -18.1616 -2.69724 5.65698 -0.559381
3788 1 7.96225 15.7469 7.32944 6.45119 4.04522 -6.70245
3789 1 18.3984 24.0692 -13.9617 2.0251 -5.59614 0.730414
3790 1 5.00994 -19.1054 0.154285 -1.25027 6.0591 0.9553
3791 1 -9.32976 16.456 -11.3264 -1.78454 5.78954 -0.410647
3792 1 -9.5593 -8.08461 11.3137 -0.614377 -4.03723 0.731042
3793 1 -14.7639 21.0171 3.10569 -1.14959 2.62093 2.35663
3794 1 -2.48129 -21.334 -9.51582 0.462622 -0.940365 -0.116655
3795 1 14.68 23.9724 21.6289 0.994937 0.459242 -0.516786
3796 1 -13.0972 -13.4758 -10.3745 0.467522 3.23928 4.47492
3797 1 -15.4413 -14.3814 7.26265 4.53495 -4.74571 0.975649
3798 1 4.7388 2.24317 -1.64473 0.702939 -0.916803 -1.68206
3799 1 21.2377 20.8515 -8.71523 2.70001 4.02763 0.653695
3800 1 14.3943 2.57478 -2.72971 7.90616 -0.160008 3.00407
3801 1 3.52009 16.7933 -8.13572 4.5737 -0.808666 4.7582
3802 1 6.5742 0.582444 23.7939 2.41597 -3.77048 -0.0290227
3803 1 -18.2616 -5.41254 -24.3033 -0.669076 -1.23955 -5.25064
3804 1 15.2523 16.0249 11.2119 -1.15228 4.05412 5.19608
3805 1 -5.77747 16.4403 -17.0526 7.29861 2.43229 -1.14682
3806 1 0.362652 1.63365 -3.86589 5.05493 1.2888 0.916114
3807 1 -7.8348 20.7872 -19.0204 -0.851229 0.232918 0.343842
3808 1 9.94777 -12.8204 -22.227 7.76631 1.12845 0.811403
3809 1 3.73398 -21.6658 -19.4119 0.26509 -1.14021 6.24517
3810 1 -18.2981 -3.5928 13.9654 5.9778 0.0308216 -0.450503
3811 1 13.9502 -15.5323 -23.8961 1.55399 2.55333 -1.78871
3812 1 -3.64085 -15.2413 -0.0318828 -2.78072 0.164758 1.3714
3813 1 16.665 5.56144 -2.12949 -2.62726 2.26794 1.2607
3814 1 3.50563 8.5604 11.546 1.41016 -1.49149 3.12541
3815 1 -0.415113 18.603 23.1753 -2.74567 1.23246 -0.167925
3816 1 -14.0471 -8.02924 4.28772 -3.68523 -2.71527 -0.423186
3817 1 10.9586 8.88613 -1.06046 2.61939 3.21948 -2.45166
3818 1 12.2622 17.6337 -24.175 1.79801 2.56132 -5.29724
3819 1 4.00982 22.9982 14.8567 -6.79391 -0.473156 2.10453
3820 1 22.5795 13.1928 -6.44917 4.63543 0.0173651 -0.508623
3821 1 9.18606 -12.1767 13.0774 -3.56729 -3.83392 1.00043
3822 1 9.84623 5.88146 9.59491 2.73465 2.07956 0.814157
3823 1 -4.80796 -17.4231 -11.9573 -6.41993 -2.40424 0.729051
3824 1 -7.71897 -23.9137 -6.79751 -2.05393 -0.198658 2.10956
3825 1 21.3184 -11.5817 10.4475 -0.797348 0.294507 -2.96729
3826 1 -0.488354 17.7964 -14.839 -0.989383 -6.56537 -4.21835
3827 1 -1.33151 7.54514 18.6649 1.44128 2.94038 0.911205
3828 1 -19.2326 17.2724 -18.9344 2.80611 1.58106 -0.796316
3829 1 -12.4713 -18.3626 -6.07346 1.85323 0.284877 -0.555533
3830 1 17.3653 -12.722 -13.2158 2.3672 -0.444759 -4.8314
3831 1 -2.39761 22.2242 0.750511 3.38288 -2.08381 3.73907
3832 1 22.6287 -1.16117 2.83719 -6.49015 2.13513 -3.70861
3833 1 19.886 -0.580533 -11.2603 3.47939 -0.641392 -0.296333
3834 1 6.77576 5.51394 3.38021 5.47229 1.08968 -0.769968
3835 1 20.5746 -24.1783 -1.64191 3.46696 -0.0878236 -0.0950109
3836 1 22.5436 14.5207 -0.771757 1.37873 -3.41863 2.72493
3837 1 12.3439 14.1594 5.03056 -0.807245 1.47759 2.39303
3838 1 -6.82923 4.4826 -3.31818 1.26171 0.863102 2.78445
3839 1 17.3112 5.46841 0.863903 -0.610767 0.466312 -1.09984
3840 1 -11.4377 -20.9551 12.8546 -2.36999 -2.69318 3.25939
3841 1 22.1129 4.00407 10.4165 4.38838 4.59307 0.243288
3842 1 22.3239 0.718516 20.2533 -2.2406 3.97249 3.24991
3843 1 -0.142892 -16.3061 13.8666 2.52009 0.872399 -0.980849
3844 1 -21.9141 -13.4468 7.08649 -3.31437 -1.1682 2.90376
3845 1 -5.22838 4.2404 -22.6227 -2.49656 0.34619 1.91915
3846 1 -21.9388 23.5051 20.2641 1.23775 -2.39839 -2.01735
3847 1 -17.0411 -19.4834 -12.7534 -3.06557 2.64817 -3.76976
3848 1 5.79115 -13.7716 6.75173 -1.28709 -5.2318 -2.88927
3849 1 16.8023 13.3136 -20.4603 2.11078 3.63096 0.779892
3850 1 20.2412 -21.7705 21.4784 1.34553 -2.02263 1.69687
3851 1 -2.8682 6.09109 -3.17317 -1.77103 0.0611394 2.16097
3852 1 -5.4341 19.0911 14.2183 -0.0630919 0.438442 0.480767
3853 1 20.7907 -12.6461 2.53305 0.275433 -0.206833 5.26865
3854 1 16.709 13.8684 -2.94517 -1.55124 -3.57197 -1.49838
3855 1 -2.34861 -5.12241 23.2938 -4.10619 0.0601175 -4.01645
3856 1 12.5007 -18.9656 -3.33686 3.77008 8.8137 3.33961
3857 1 -12.3613 46.8297 -11.6928 2.72329 -2.64831 -0.454229
3858 1 16.3186 6.93398 7.11344 1.0899 0.256736 1.9447
3859 1 22.6063 19.1189 10.5437 -1.0843 0.259996 -3.83207
3860 1 14.74 -15.5438 -15.3128 5.18396 0.81792 -1.60421
3861 1 -18.3574 -13.2735 20.2636 0.939706 -1.56949 -1.41626
3862 1 -3.15751 0.84578 -17.7303 0.169826 -3.06948 0.831575
3863 1 -14.0029 -3.34413 13.7845 -0.877409 3.5224 5.94343
3864 1 -3.32318 -3.68177 -15.0082 -4.17038 -2.19648 -2.71858
3865 1 1.73851 -23.0855 15.0786 -2.24324 5.70141 4.20998
3866 1 11.5287 -12.1106 4.40999 -3.51887 2.57801 3.92165
3867 1 -23.5143 1.27837 1.3135 -1.05242 -4.65457 2.1969
3868 1 7.35826 5.47722 -2.05171 4.01388 -0.233559 -4.3229
3869 1 -8.19941 4.85063 6.82042 -0.474281 0.0189419 2.59701
3870 1 14.9517 -21.9368 -8.85622 0.194637 1.94931 0.460066
3871 1 17.8036 1.80243 19.589 0.0859821 4.21198 3.57028
3872 1 22.4557 -23.5329 -9.28113 0.615019 -1.55806 0.0141001
3873 1 -4.5374 5.99086 13.3379 -3.33959 1.83326 1.85631
3874 1 -18.4125 -23.1313 -14.7822 -5.10095 -0.431595 1.57896
3875 1 22.0134 2.30794 5.86098 -0.069964 -2.14587 -3.60467
3876 1 -22.5954 -11.8538 20.0238 -2.86704 -0.610269 -1.02465
3877 1 -23.0741 1.87533 -2.5412 -4.03066 -1.81677 -4.14546
3878 1 8.35067 -16.9827 6.85754 -3.36513 0.819926 2.03861
3879 1 16.2122 -18.7692 22.2114 0.536092 4.62622 3.34552
3880 1 -8.71969 18.8995 -23.1112 -4.63811 5.34954 1.61745
3881 1 -14.4385 0.00909858 -13.3051 1.56914 1.21875 4.17609
3882 1 23.5054 18.6777 -3.34545 -5.26805 1.8177 4.96796
3883 1 19.5843 12.9185 -11.9058 3.76805 -2.88499 3.01195
3884 1 11.022 -19.2608 -5.86491 -3.20642 2.51066 1.06355
3885 1 12.3597 24.3399 15.2511 1.58676 -0.182915 -0.283195
3886 1 -13.2412 -14.9029 -6.63453 2.26814 -6.2396 -0.384493
3887 1 -0.172883 -12.2382 -19.6913 -7.03806 5.91993 -1.40922
3888 1 -8.48228 6.9104 -18.0793 -0.178122 3.38672 -0.971768
3889 1 -16.5637 16.5817 18.7633 -1.4246 -3.24597 2.7493
3890 1 1.3019 18.0987 14.4048 -4.02318 6.50874 2.6993
3891 1 5.17978 -15.3865 17.3243 1.10257 0.990264 2.5054
3892 1 -11.4789 22.3007 6.31805 3.92414 1.23364 0.00651549
3893 1 -7.25969 10.794 10.2909 -5.35275 4.26209 -1.54138
3894 1 10.5042 12.6714 -12.4184 -3.35955 0.652198 3.44607
3895 1 12.6591 -6.38174 -0.904586 4.86327 0.342863 0.292212
3896 1 -8.30753 -8.52528 -1.37924 0.709021 -0.495536 2.1129
3897 1 6.14279 14.8393 23.0519 0.876275 1.86267 -2.2451
3898 1 17.8731 -1.64674 14.9163 0.580038 -1.74986 1.12879
3899 1 5.60183 9.89872 16.4537 0.110099 1.05738 3.0223
3900 1 12.2453 -18.0537 -12.3218 0.276205 -5.62558 -0.983521
3901 1 -15.3835 14.7414 -12.3967 4.38195 -1.71483 2.33564
3902 1 11.8614 12.17 -6.44616 3.84294 1.1252 -2.3089
3903 1 -18.6758 -15.7079 4.4622 2.00797 3.85098 1.99104
3904 1 12.3169 -7.23361 -8.32317 1.83073 0.016457 0.260101
3905 1 2.20021 -8.67245 5.05315 0.00945519 1.67042 1.16414
3906 1 -16.8938 7.16642 -8.0309 -2.96757 1.11804 0.178339
3907 1 -21.7618 -0.898571 9.47047 -0.116775 5.04142 0.651115
3908 1 22.6497 -13.1192 15.2617 2.80638 -0.718553 -2.00641
3909 1 1.88156 -10.3204 19.4904 -1.62894 5.98253 0.924307
3910 1 -8.06386 17.3376 -6.9963 2.26775 -0.726891 -2.81484
3911 1 21.9292 18.4951 0.135844 -2.98794 -3.38776 -6.02505
3912 1 -9.77094 -10.5494 0.251299 2.82267 0.891113 -4.8916
3913 1 -9.36567 5.8928 0.131248 -3.92624 3.56841 -2.21573
3914 1 11.7807 -10.1682 -5.26706 0.685949 7.27831 -1.15872
3915 1 7.12352 -1.05863 7.08371 -1.49431 -2.12301 -0.441663
3916 1 22.6211 -11.3724 21.9145 -7.52925 2.59182 -4.1561
3917 1 2.09999 -7.3378 -9.19775 -3.47312 2.13298 -1.22973
3918 1 11.6408 10.9953 -17.0351 3.62427 -1.17841 3.50529
3919 1 7.54708 -14.3885 18.0049 4.85936 -4.29819 -3.095
3920 1 -10.8423 10.7625 17.7467 2.48023 -1.35389 2.75206
3921 1 17.4731 6.87617 -17.0864 0.970057 1.70792 0.317698
3922 1 -16.8056 -14.8986 -19.35 -2.51245 -0.555468 -8.24054
3923 1 -21.5028 5.25465 -13.0312 -2.34976 -0.199433 3.04238
3924 1 -11.9305 -5.10711 9.13936 -4.95206 1.28811 0.463976
3925 1 -22.3015 3.94718 2.35934 -1.71691 -1.58205 -2.03039
3926 1 8.68131 -3.17011 22.6427 -3.34514 4.8257 -0.854218
3927 1 12.4453 14.8309 -1.55836 -0.459409 -4.80336 -1.00754
3928 1 -18.2221 16.2681 24.0672 -5.15202 1.99938 6.47746
3929 1 -1.0753 11.6964 -9.97235 -2.88897 -3.11045 3.08594
3930 1 14.9541 19.8568 0.757138 1.33097 4.17318 1.11142
3931 1 -1.9527 11.5976 0.740791 0.222413 2.74899 -0.10736
3932 1 22.599 6.16582 11.9666 2.61263 -0.632887 4.85829
3933 1 -4.32161 -9.05941 22.3665 1.57646 -0.994645 2.21055
3934 1 21.7716 2.35939 -13.1043 2.76942 4.15429 -0.724233
3935 1 12.0035 -14.3727 -20.7391 2.09247 -2.55739 2.27397
3936 1 0.214887 47.3665 22.5038 0.242899 6.61344 3.5205
3937 1 14.8669 -14.9147 -19.592 4.14028 1.18541 -3.06949
3938 1 18.7411 11.9647 18.4104 7.07935 3.89444 -0.574407
3939 1 21.9903 -1.8229 14.9942 -3.0134 -0.212556 1.96186
3940 1 -2.51066 23.0061 -6.79502 1.52511 -2.09245 -3.52379
3941 1 -17.9466 1.94525 -23.1517 -1.33497 1.69521 -0.533
3942 1 10.5576 -23.0124 15.94 -3.84634 -2.26228 4.48624
3943 1 -20.582 -23.1325 0.735351 6.70874 3.23041 2.13551
3944 1 -13.0688 -8.67348 -14.4126 -1.98406 0.583655 2.21214
3945 1 -19.1685 -15.0555 -16.7797 -2.23994 -4.01876 -3.82225
3946 1 -5.75902 14.7857 9.55047 -4.18659 0.955916 -1.55204
3947 1 23.2099 9.13579 -22.0007 1.19244 -2.64304 -3.14662
3948 1 10.2523 17.6923 -16.7529 -0.32036 -4.44622 -6.345
3949 1 4.22919 -12.8216 -12.3187 2.57311 -1.49964 0.56756
3950 1 -5.21192 1.38696 -19.8791 2.55538 -5.4353 -0.416806
3951 1 5.39732 2.35055 -12.7373 -1.68082 -1.47224 -1.53423
3952 1 -5.62276 -4.32271 -17.0002 1.58477 -0.13793 3.17798
3953 1 21.629 -17.7463 14.1245 -4.77224 -0.524125 -0.447356
3954 1 4.89385 4.16635 -17.5343 -3.4042 -0.60839 -1.22363
3955 1 -7.7682 19.3772 11.3668 -1.86424 1.75546 0.772856
3956 1 -13.5831 12.4186 -5.35551 3.42091 1.63746 -0.695715
3957 1 17.6734 -21.6044 -16.8712 -2.59642 1.46679 1.02581
3958 1 -1.4662 7.04628 -8.38744 1.7476 0.832036 -3.81889
3959 1 -19.6326 -5.42783 -20.4459 -2.86258 0.669482 -1.41036
3960 1 20.7401 -15.8826 -10.7612 0.66445 -1.36569 -1.20092
3961 1 -1.24823 -19.2159 -3.44346 -0.551588 1.95187 -4.78775
3962 1 -0.0834063 -14.6633 5.36875 0.864591 -3.3135 3.59714
3963 1 -15.25 -18.5077 -2.8068 3.6526 -2.76939 -0.732905
3964 1 8.008 11.982 16.56 -1.08654 0.58777 -3.1596
3965 1 -5.45533 2.60002 0.768496 -0.185099 7.16539 2.03531
3966 1 -19.4267 20.1874 8.3432 -3.23394 -3.5741 3.58877
3967 1 1.5004 -6.88164 -4.85096 -2.1362 3.44618 3.63113
3968 1 -1.99755 2.80694 -5.67023 2.78683 -4.02168 -0.53657
3969 1 16.2581 -22.3236 19.9754 1.31801 3.36333 -0.0262341
3970 1 -6.28658 20.8725 20.8997 -4.55306 0.899792 -3.78382
3971 1 -3.28901 -2.13019 21.1253 -2.94113 1.52006 3.22901
3972 1 -4.74088 -9.27919 -11.4771 2.21132 4.23298 0.486376
3973 1 -9.68476 -22.2392 -5.97023 0.123697 -1.4136 -4.19219
3974 1 6.63763 23.32 14.2961 -3.70592 1.92468 0.531681
3975 1 5.61767 -0.565548 -17.2868 -0.212278 2.24754 -3.58738
3976 1 -2.91034 14.9518 1.81277 -1.03838 2.15251 1.35119
3977 1 -8.34807 -17.3059 -18.8278 0.362256 -3.90895 -2.46035
3978 1 -2.58385 20.5791 -12.0213 -4.36098 1.23581 1.29782
3979 1 -10.3141 -23.7107 3.96993 1.24976 -5.3571 3.19458
3980 1 -22.6676 -18.5263 -14.4062 1.66649 -1.59146 -0.210229
3981 1 12.3648 -7.88572 4.50257 3.63196 -1.06306 2.75919
3982 1 7.16541 -4.06721 -3.83737 0.561331 -1.32296 -1.99981
3983 1 -23.8009 8.86653 9.33124 -1.04188 -2.11756 2.60697
3984 1 -5.66394 13.7769 -18.238 -2.77534 4.47452 1.72737
3985 1 -12.2216 19.4571 6.9916 -1.52384 -3.07566 -2.24291
3986 1 15.6436 20.9115 -15.1927 0.0602822 1.09478 5.73306
3987 1 14.1302 15.221 18.8371 0.669069 0.977039 0.82888
3988 1 -23.9152 19.1846 19.7812 -1.58867 -1.99601 -2.63538
3989 1 -15.065 -10.7591 -13.7455 -3.44116 3.48961 2.95204
3990 1 8.01954 4.7425 -21.7037 -3.12244 -1.54151 4.90334
3991 1 -18.9697 10.1213 -23.2309 0.8012 0.298067 -1.08024
3992 1 21.987 9.07892 -3.65266 -2.99217 4.19047 -7.08156
3993 1 -6.34373 -13.0493 -5.32437 0.147026 1.68225 -1.33512
3994 1 -15.4999 -22.3617 -20.6916 1.3601 0.0310248 -0.0596901
3995 1 4.9605 -23.3358 2.20384 -0.34555 -0.0666331 2.39065
3996 1 4.08991 -12.9875 4.21154 -3.36635 -3.43246 -2.83327
3997 1 16.7738 -23.6738 -12.2744 0.772348 1.88307 4.38431
3998 1 -10.6044 -3.22688 -0.422743 -0.67669 -0.235902 2.60676
3999 1 -7.57374 16.5076 11.2457 2.17769 0.424801 -3.87913
4000 1 -18.028 11.2399 22.8371 0.772051 -1.28974 2.48112
4001 1 -10.6222 24.7841 -4.43164 0.591113 -2.69366 2.49063
4002 1 -9.44605 27.3881 -4.67552 -1.64144 -1.08837 4.553
4003 1 -6.69997 27.6845 -3.84125 2.08529 1.53343 1.00105
4004 1 -5.83077 25.5333 -5.14495 1.77904 -1.72003 -3.62169
4005 1 -11.3599 25.8805 -9.20891 -6.44872 -1.30144 -0.220857
4006 1 -10.2453 27.9252 -7.4203 1.24902 -2.04469 1.43632
4007 1 -7.5847 27.547 -8.12521 -0.577144 1.00568 -0.118065
4008 1 -6.13634 25.0168 -8.05235 -0.679762 0.851371 -2.1475
4009 1 -9.34556 24.7024 3.58197 -0.222675 1.34735 -1.95888
4010 1 -8.2965 26.7838 2.42767 0.154504 -0.114201 1.43634
4011 1 -5.79649 27.4539 3.62128 2.96619 -0.289597 -3.00054
4012 1 -4.39249 25.3443 2.55443 1.68875 0.580775 4.2197
4013 1 -10.3044 24.9929 -1.56266 0.531804 4.75547 -4.39812
4014 1 -8.99321 27.1331 -0.402149 2.22955 -2.95311 -1.37895
4015 1 -6.3464 27.6226 -0.975645 0.195592 1.14592 -3.32589
4016 1 -4.51355 25.6003 -0.418592 -4.09264 6.07888 -1.34737
4017 1 -9.40564 24.2992 11.1145 -1.99977 -1.47101 -0.993843
4018 1 -8.15925 26.5159 9.93111 -0.0631326 7.2147 -6.04301
4019 1 -5.51133 27.2005 10.3293 4.28499 -1.49748 2.47044
4020 1 -3.77753 25.0041 9.51065 -3.35921 1.58787 3.17464
4021 1 -9.28052 24.286 6.36181 2.71551 -1.62959 -1.67958
4022 1 -8.50612 26.834 7.26205 -2.36089 -4.54085 5.27099
4023 1 -5.80223 27.4726 6.4526 0.302081 1.25048 2.29189
4024 1 -4.29796 25.0152 6.66407 -4.8215 -2.91091 -1.05656
4025 1 -10.5584 29.8852 -3.5552 2.88304 -2.27461 4.24059
4026 1 -9.82296 32.4286 -4.70923 3.15231 3.18974 -0.245384
4027 1 -6.98381 32.335 -3.89914 -1.94657 3.81755 5.89126
4028 1 -5.61829 30.104 -4.85402 -0.115674 0.870427 3.51529
4029 1 -11.2954 30.2856 -8.48044 4.1304 0.557528 2.09185
4030 1 -10.1892 32.6806 -7.61165 1.75557 2.0013 5.00963
4031 1 -7.43609 32.3098 -7.99916 -2.25324 2.36491 -2.43265
4032 1 -6.33631 29.7345 -7.50628 -1.92361 3.60832 -2.75561
4033 1 -9.47202 29.0624 3.44197 0.461486 0.403871 0.791776
4034 1 -8.50834 31.6249 2.79874 -0.939414 -5.07777 2.1976
4035 1 -5.8953 32.2343 3.47524 4.35339 -2.06969 2.83431
4036 1 -4.66152 29.9093 2.55195 -0.71506 -5.63923 3.00573
4037 1 -10.2983 29.6352 -0.818713 -0.381789 2.57727 -3.08677
4038 1 -8.96758 32.0305 0.0662687 0.663003 -0.40568 0.697312
4039 1 -6.49366 32.2752 -1.15275 -1.65686 1.01536 6.86862
4040 1 -5.0236 29.9667 -0.211875 -2.15211 2.47466 1.82239
4041 1 -9.22056 28.9002 10.961 -0.681649 -3.76905 1.71834
4042 1 -8.47924 31.7074 10.4144 3.70985 2.04081 4.21576
4043 1 -5.4894 31.6431 11.0531 -0.451973 4.28287 -0.912488
4044 1 -4.3872 29.6713 9.54697 -2.16208 0.134786 0.485368
4045 1 -9.47009 29.3028 6.26875 -0.388967 2.83145 0.372677
4046 1 -8.42967 31.6948 7.4585 -1.20303 0.2359 -0.713319
4047 1 -5.95015 31.9473 6.27389 -0.429258 -3.50052 2.62244
4048 1 -4.32623 29.8682 6.87246 1.37766 -1.91279 5.33444
4049 1 -11.1071 34.6936 -3.43973 -5.44607 -1.80187 -3.2413
4050 1 -9.581 36.8236 -4.58242 3.04852 -1.42285 0.348542
4051 1 -7.10919 37.0983 -3.7514 0.685547 -1.55243 2.81381
4052 1 -5.98149 34.9205 -4.88189 1.01559 -2.19526 1.33471
4053 1 -11.93 34.7293 -7.84408 1.02292 -2.51144 0.2564
4054 1 -10.392 36.9945 -7.23831 2.18917 -4.76731 -3.4842
4055 1 -7.9699 36.8471 -8.50005 3.46957 3.46153 -1.98727
4056 1 -6.08182 34.8864 -7.71861 -5.19203 -2.7266 2.78084
4057 1 -9.90444 33.9168 3.79922 0.487391 -2.59171 1.15609
4058 1 -8.98528 36.3548 2.95385 1.3877 -3.02996 -4.87149
4059 1 -6.30769 36.8715 3.75968 -0.930834 -0.166994 -5.87958
4060 1 -4.81714 34.5436 2.63549 -0.753749 0.451854 -0.207352
4061 1 -10.0244 34.4762 -0.982831 2.44311 -0.688714 3.9736
4062 1 -8.97805 36.6067 0.299325 -2.52695 2.96738 -0.95658
4063 1 -6.59488 36.8875 -1.01258 3.25997 1.36239 -1.81673
4064 1 -5.24594 34.7217 -0.256679 0.345924 2.89658 3.36167
4065 1 -9.78843 34.1376 10.5718 -1.28279 1.74178 3.98005
4066 1 -8.62676 36.6561 10.3527 2.93964 -1.87264 -1.11964
4067 1 -5.86431 36.4356 10.8644 -0.906402 1.36979 -0.567866
4068 1 -4.33801 34.1829 10.1858 -0.225049 -2.82061 3.87582
4069 1 -9.84902 33.8767 6.6255 1.29558 0.606923 1.5892
4070 1 -8.43489 36.185 7.37796 -0.166646 -1.17122 -1.36366
4071 1 -5.88124 36.3068 6.52335 1.93026 2.15323 1.24133
4072 1 -4.26394 33.9408 7.3837 -3.58416 -1.34499 4.49311
4073 1 -10.7407 38.8913 -3.28233 -2.11138 -1.03373 -2.9219
4074 1 -9.97561 41.3355 -4.36655 2.19301 -1.67058 -0.199592
4075 1 -7.46284 41.5774 -3.455 -4.21321 4.23354 0.865365
4076 1 -6.13508 39.4005 -4.68539 1.06877 -0.0179147 -0.687051
4077 1 -11.6354 39.4726 -7.93959 -4.27134 3.78826 2.10251
4078 1 -10.3607 41.6717 -7.08216 -1.20714 5.62912 1.51063
4079 1 -7.88083 41.5847 -8.05621 -1.74742 2.14375 0.293355
4080 1 -6.54091 39.2012 -7.54811 -1.44702 0.368627 -4.08053
4081 1 -9.81751 38.5891 4.42387 -0.98911 0.322768 -0.682753
4082 1 -9.25642 41.1756 3.31483 0.455313 -1.85755 -0.694825
4083 1 -6.50203 41.4474 3.81027 -2.18546 1.73272 -0.822539
4084 1 -5.07093 39.2677 2.76294 1.74926 -0.42705 1.98231
4085 1 -9.9866 38.9681 -0.643455 0.985522 -1.7812 -0.771695
4086 1 -9.29309 41.3923 0.289621 -1.27604 4.34553 -4.0857
4087 1 -6.76703 41.6521 -0.822383 -4.93749 -2.13451 -0.830406
4088 1 -5.45323 39.281 -0.0963274 4.65669 -2.87454 -1.44052
4089 1 -10.2487 39.1303 10.1785 -2.37574 0.108773 1.42894
4090 1 -8.71342 41.5248 10.1814 -1.48197 3.05959 0.454988
4091 1 -5.75919 41.1841 10.9486 -3.61605 -3.87544 -0.235414
4092 1 -4.44007 38.7667 10.2613 -3.43961 -2.64648 -1.58224
4093 1 -9.84911 38.7923 7.39484 -2.32964 -0.610668 -3.45193
4094 1 -8.40265 41.2097 7.37573 -1.06466 -1.8678 -2.65072
4095 1 -5.71979 41.3495 6.40928 5.88538 5.74209 -0.711332
4096 1 -4.62931 38.8489 7.558 0.911343 -0.282493 -3.37577
4097 1 -11.421 43.1744 -3.02096 4.8347 1.53262 -1.60541
4098 1 -10.0891 45.3643 -4.59939 -4.72269 -2.64306 1.65291
4099 1 -7.28865 45.7648 -3.75222 2.41514 -2.23452 -4.5754
4100 1 -6.23164 43.4852 -4.91577 3.89271 0.483468 4.32951
4101 1 -10.751 44.464 -7.52445 4.845 7.71876 0.430619
4102 1 -8.1795 45.845 -8.12512 -1.61136 -0.0364755 -3.22263
4103 1 -7.42329 46.4214 -10.8141 -1.21327 0.144982 0.848566
4104 1 -6.47301 43.8295 -7.59666 1.30996 -0.914939 3.12852
4105 1 -10.7195 43.5569 4.47566 -0.565437 -0.355362 -0.598213
4106 1 -9.3564 45.6815 3.48629 2.18969 -1.67464 0.475309
4107 1 -6.72314 45.7751 4.17479 -2.8099 -2.49881 -5.64253
4108 1 -5.21415 43.6397 2.65121 2.49945 1.80734 2.07665
4109 1 -11.0632 43.5325 -0.264763 1.02777 -3.10407 -1.87579
4110 1 -9.71444 45.827 0.701914 -0.618449 -4.6833 4.51815
4111 1 -7.3654 45.7602 -0.883598 -1.76886 -2.90144 2.17432
4112 1 -5.31412 43.9007 -0.0493197 1.47792 -4.16692 2.49303
4113 1 -8.27569 44.2461 10.6995 4.64759 -5.97788 -1.51354
4114 1 -5.80722 45.3044 10.7972 -1.69137 2.11856 -2.74225
4115 1 -4.74957 -24.442 11.5905 0.55218 -3.16043 4.69163
4116 1 -4.365 42.971 9.64227 0.171468 -1.5416 -1.37931
4117 1 -9.69103 43.498 6.96406 -0.786617 -1.11168 -3.18379
4118 1 -8.82815 45.7301 8.52508 -4.61497 2.63095 5.88911
4119 1 -6.56178 46.1322 6.92459 0.715899 0.364742 -1.09066
4120 1 -4.69869 43.8104 7.12216 0.199247 -1.29902 -1.69518
4121 1 -3.08906 25.1326 -4.64126 0.0315732 -2.43121 1.39288
4122 1 -1.72657 27.6162 -5.60696 0.829392 3.16264 -2.34291
4123 1 0.82122 27.5164 -4.7165 1.24125 -2.016 -2.24591
4124 1 1.70969 24.8448 -5.93721 -3.49036 0.745848 1.0949
4125 1 -3.49237 24.8936 -9.11726 1.17384 -4.07035 -1.93481
4126 1 -2.20123 27.2639 -8.42027 1.03529 1.54399 -2.83412
4127 1 0.503908 27.7011 -9.27078 4.44577 2.64227 2.54341
4128 1 1.67939 25.321 -8.95046 -0.680665 -0.0325642 -0.393608
4129 1 -1.55022 25.4593 3.2994 -3.78195 -6.97426 -3.71499
4130 1 -0.424752 28.0417 1.94128 -1.68741 1.67946 0.663126
4131 1 2.23411 27.5933 2.37478 -2.45233 -0.759672 -1.35831
4132 1 2.97945 25.014 1.50384 1.34978 -0.449122 5.61703
4133 1 -2.14549 25.8449 -1.86126 4.38168 4.9894 2.16414
4134 1 -0.964256 28.1417 -0.632242 1.72352 0.221765 -3.87971
4135 1 1.49131 27.756 -1.96745 -2.85952 0.427296 3.68213
4136 1 2.59794 25.2808 -1.18817 1.41707 -1.39407 0.143111
4137 1 -0.994018 24.8806 9.18506 -1.2063 0.211026 -0.99415
4138 1 -0.577091 27.6801 9.43596 -0.154433 -6.70776 -3.64139
4139 1 2.21347 27.6358 9.71003 0.191015 -1.19032 6.16702
4140 1 3.72168 25.3512 8.63013 4.42635 -3.59212 1.06249
4141 1 -1.58735 25.2083 6.22517 -8.52994 1.93876 3.80258
4142 1 -0.201274 27.7924 6.60772 3.15443 -1.31662 -0.557816
4143 1 2.18103 27.6948 5.1902 -1.43896 1.23824 -1.80444
4144 1 3.5514 25.3446 5.74409 0.472813 -3.52615 0.105596
4145 1 -2.84225 29.8124 -4.22443 2.84744 -3.60006 2.86283
4146 1 -1.89195 32.181 -5.12215 2.81069 -0.990116 1.01298
4147 1 0.941156 32.3977 -4.9135 2.38086 -2.1254 0.540614
4148 1 2.16489 29.813 -5.63045 -3.36273 -0.478058 -2.83374
4149 1 -3.64249 29.6397 -8.33363 1.81708 3.52078 7.21223
4150 1 -2.25925 31.9381 -7.84577 1.30257 -5.39222 1.02011
4151 1 0.255037 32.4255 -9.05516 1.45636 -2.08186 1.80235
4152 1 1.87685 29.9543 -8.4153 -2.33382 1.32524 -5.75713
4153 1 -1.81609 29.9127 3.29131 -3.07748 2.36926 -3.23929
4154 1 -0.708012 32.4341 2.23092 1.01151 -0.433894 -2.26609
4155 1 2.2292 32.4363 2.62777 0.68897 2.12808 0.200655
4156 1 3.09893 30.2897 1.45865 -3.4464 -1.52204 3.06656
4157 1 -2.39089 30.4122 -1.43985 1.22319 0.0116291 -3.59488
4158 1 -0.947844 32.6379 -0.459913 7.36765 -2.50826 1.43335
4159 1 1.33384 32.5331 -2.19885 -2.39583 0.509549 -2.86685
4160 1 2.65537 30.173 -1.36241 3.02229 -2.27357 1.54511
4161 1 -1.75727 29.9378 10.2659 0.758386 2.63414 1.98541
4162 1 -0.118964 32.1092 9.60498 -2.72075 2.23001 3.60174
4163 1 2.59772 32.2734 10.0046 -1.85367 1.03958 2.52373
4164 1 3.82734 30.005 8.80597 -1.66093 3.20553 -4.15453
4165 1 -1.64769 29.9417 5.91837 7.84084 -5.04994 -0.878132
4166 1 -0.249442 31.9871 6.65524 -0.325857 -3.41498 5.70262
4167 1 2.05701 32.3746 5.38066 3.26508 0.502461 -6.1259
4168 1 3.87615 30.2438 6.1094 -2.90782 0.922897 -3.64643
4169 1 -3.27594 34.5448 -4.48079 4.58602 1.50054 2.11034
4170 1 -1.97555 36.893 -5.07266 4.15932 3.5364 0.662554
4171 1 0.818734 36.973 -4.69347 -0.956519 -3.15087 0.761448
4172 1 2.11903 34.7311 -6.01718 -0.50396 2.67148 2.46996
4173 1 -3.49414 34.3334 -8.48715 -5.31132 0.0777751 -1.54443
4174 1 -1.98238 36.7543 -7.99785 4.37321 0.212148 -1.67956
4175 1 0.393875 36.8509 -9.44562 -1.78746 -1.39758 -3.67368
4176 1 1.70205 34.6131 -8.72388 3.6965 3.99776 -0.625044
4177 1 -2.22878 34.2545 3.60744 3.80706 3.58411 -1.50882
4178 1 -1.26119 36.5411 2.41808 0.557149 -2.70891 -0.729079
4179 1 1.659 36.9979 2.7141 2.83633 1.70337 -3.12833
4180 1 3.1087 34.7752 1.53331 -4.19422 2.10298 -1.16773
4181 1 -2.71186 34.4113 -1.74684 0.242764 0.00798287 -3.8641
4182 1 -1.2782 36.8113 -0.446473 3.94359 4.5402 2.39166
4183 1 1.03247 36.8572 -2.09718 2.06532 -0.451115 1.66234
4184 1 2.57555 34.7169 -1.24337 -0.920609 -0.856446 0.555061
4185 1 -1.50818 34.3615 10.5918 1.89832 0.961945 -1.96228
4186 1 -0.153448 36.7745 10.0369 3.25136 1.50137 1.31577
4187 1 2.54428 36.8335 9.82863 -0.221571 -1.16554 -0.90716
4188 1 3.66668 34.5294 8.85643 4.47835 -0.806363 -2.9771
4189 1 -1.8872 34.4404 6.29008 -3.37122 -0.00442265 -6.11649
4190 1 -0.38275 36.6463 7.15083 1.39128 6.9772 6.65723
4191 1 1.89239 36.9609 5.57832 0.965671 1.05118 4.56444
4192 1 3.56955 34.8339 6.04554 -0.464932 1.12154 2.4687
4193 1 -3.27893 39.0423 -4.00705 4.75167 1.24863 2.00663
4194 1 -2.17081 41.3461 -5.28147 4.52609 4.03561 -1.29853
4195 1 0.541279 41.3453 -4.83754 -2.48639 -2.3189 0.0108982
4196 1 2.12221 39.1973 -5.64776 -2.39612 -4.00871 -0.549145
4197 1 -3.75236 38.9988 -8.33272 -3.04024 -1.85078 1.20466
4198 1 -2.43853 41.2779 -8.18684 -1.24614 1.63737 2.27956
4199 1 0.337039 41.6904 -8.88792 -0.398938 -2.7236 -4.48898
4200 1 1.76191 39.2812 -8.78097 -4.14769 6.91863 -2.88682
4201 1 -2.58433 38.9885 3.72556 -0.604306 1.24513 1.95793
4202 1 -1.44086 41.149 2.15473 -2.89906 4.01434 2.76316
4203 1 1.46654 41.6199 2.57384 -6.34566 5.43439 3.9079
4204 1 2.39341 39.3758 1.2054 -3.34 3.76971 3.19535
4205 1 -3.05554 38.9772 -1.30726 1.75651 -5.24389 5.63735
4206 1 -1.6599 41.4682 -0.671781 4.75895 -2.16427 1.48305
4207 1 0.705807 41.4494 -2.02295 -1.96223 0.155329 -0.900737
4208 1 2.43205 39.257 -1.72363 1.94513 -4.06327 0.0884574
4209 1 -1.75166 38.9766 10.5988 1.10329 -4.12513 -0.930492
4210 1 -0.248985 40.9908 9.77105 -3.05733 1.03169 -2.17522
4211 1 2.5613 41.2748 9.63516 0.67362 0.999313 5.50374
4212 1 3.62439 38.9868 8.95126 2.93362 3.5161 -3.29431
4213 1 -2.09453 38.725 6.34147 -1.41393 -0.443269 -0.961543
4214 1 -0.652991 41.2319 6.8536 2.12772 1.12756 -1.08135
4215 1 1.75852 41.5163 5.33493 0.275556 1.95236 -1.19257
4216 1 3.26503 39.1333 6.21337 -3.66311 -3.66266 0.00223027
4217 1 -3.4817 43.5551 -4.03822 -2.22189 1.89041 0.934676
4218 1 -2.3098 45.4475 -6.10525 -6.79947 2.93188 -1.98079
4219 1 0.386907 45.8167 -5.1663 0.439991 -2.88523 4.57951
4220 1 1.7282 43.567 -5.81566 0.171408 5.15409 -7.22879
4221 1 -3.4621 44.0057 -8.28629 -0.716413 -7.83552 1.70632
4222 1 -2.57568 46.0256 -9.86155 0.518262 -2.94595 0.229515
4223 1 0.354627 46.5232 -9.96099 -1.39454 -2.55152 0.795483
4224 1 1.62435 44.2285 -8.73444 -0.930043 -1.22947 -0.949823
4225 1 -2.42448 43.4724 3.3817 -2.50154 -5.30737 4.75722
4226 1 -1.19971 45.7026 1.81675 0.381685 -1.04984 0.947652
4227 1 1.46142 45.8311 2.32311 2.60648 2.2747 -0.893034
4228 1 2.67823 43.5838 1.13923 8.79953 3.67383 -1.15253
4229 1 -3.00906 43.8841 -1.4664 0.199092 0.684761 -2.63452
4230 1 -0.941316 45.7559 -1.11002 -0.0190499 -0.655305 0.35371
4231 1 1.56892 45.9936 -2.58611 1.52021 -2.61763 1.49847
4232 1 2.53657 43.5763 -1.58177 0.206471 3.65528 3.24627
4233 1 -1.55296 43.4708 10.0377 -1.65436 4.7147 0.210054
4234 1 0.0473408 45.8518 9.8047 3.19487 -3.0499 2.67058
4235 1 2.78212 46.3266 9.96232 -3.21675 -0.160644 0.461753
4236 1 3.73104 43.9199 9.08375 0.301761 3.79315 -7.03202
4237 1 -1.96879 43.6149 6.1832 5.50183 -0.814537 3.43451
4238 1 -0.346911 45.8108 6.99458 -0.175044 0.460058 2.50251
4239 1 1.78202 45.934 5.26049 1.16431 1.61708 0.396559
4240 1 3.2461 43.8821 6.3417 -6.59063 1.4409 6.55891
4241 1 4.60292 25.5496 -5.83569 2.69761 0.923828 -0.730901
4242 1 6.09151 27.812 -6.54317 -0.180909 1.90877 2.7127
4243 1 8.60507 27.701 -5.75789 -0.0654269 -1.3944 1.94343
4244 1 10.3269 25.6757 -6.26008 -0.148928 -2.62754 -4.18061
4245 1 4.35064 25.7162 -9.87787 -2.32205 -2.25028 -1.47606
4246 1 6.05949 27.8049 -9.32246 0.971688 -1.03065 4.92118
4247 1 8.72466 27.5925 -10.1703 -0.291816 -0.523219 -0.799561
4248 1 9.74301 25.0991 -9.12064 -2.73627 3.30138 1.79857
4249 1 6.02166 25.2577 2.21549 0.309167 1.70741 7.49918
4250 1 7.58712 27.6727 1.12356 -2.76239 -1.30183 3.42846
4251 1 10.2334 27.8619 1.85463 1.65428 -3.47012 -0.171433
4252 1 12.2635 26.4942 0.208347 1.36892 0.343668 1.24524
4253 1 4.96958 25.6704 -2.64032 1.74218 2.65583 -3.05256
4254 1 6.62148 27.7167 -1.66791 -0.638464 -0.386102 0.361999
4255 1 9.12632 28.0501 -2.96948 3.70751 3.5202 -5.65798
4256 1 10.8294 25.9193 -2.34766 4.19469 -0.482584 1.25696
4257 1 6.14305 25.4191 9.52424 -1.30261 -9.25697 6.73968
4258 1 7.70572 27.5772 8.47237 -1.06572 -5.41935 0.266319
4259 1 10.3757 27.5113 9.33716 -4.7258 3.37715 -4.31424
4260 1 12.0031 25.2398 8.57188 -0.38658 0.685015 -0.785409
4261 1 6.28655 25.4868 4.87128 -0.475562 1.45821 -2.19296
4262 1 7.82694 27.9573 5.70396 -3.14694 -0.133543 3.74591
4263 1 10.5083 27.7595 4.54371 7.09801 -1.54071 2.44429
4264 1 11.867 25.5863 5.70703 1.55044 -0.783917 -1.98219
4265 1 5.09397 30.1633 -5.24497 -1.67651 1.93497 -0.813469
4266 1 6.17876 32.2928 -6.30211 -2.69641 2.55301 2.38105
4267 1 8.92306 32.3835 -5.70221 -2.67505 0.414203 3.02473
4268 1 10.0979 30.2068 -6.70417 1.40364 -3.19854 2.60509
4269 1 4.34619 29.9549 -9.78715 -1.98668 -4.04428 -2.14956
4270 1 5.64484 32.3173 -9.06696 3.62563 0.818046 -2.27109
4271 1 8.39936 32.298 -9.44188 -0.363103 -1.30738 -0.747774
4272 1 10.0617 29.7227 -9.39585 -0.718407 1.71823 -4.73859
4273 1 6.01768 29.9538 2.06696 2.57827 3.21261 0.399511
4274 1 6.96737 32.4421 1.16539 0.803911 1.23811 -1.51103
4275 1 9.89382 32.4683 1.54986 -0.126276 1.50836 3.08231
4276 1 10.779 30.2338 0.44513 0.934098 2.65008 2.25986
4277 1 5.1408 30.144 -2.53899 -10.6485 4.69801 -0.816768
4278 1 6.42269 32.4286 -1.75505 -0.948139 -0.783501 0.379467
4279 1 9.00797 32.5001 -2.99705 2.81346 1.15078 0.325655
4280 1 10.4325 30.2711 -2.32913 1.58766 -1.54157 0.852818
4281 1 6.50491 29.9722 9.47037 0.893069 4.76912 2.20875
4282 1 7.71733 32.508 8.67522 2.40376 0.909858 1.95579
4283 1 10.5991 32.4825 9.57596 3.70615 -0.893181 3.81244
4284 1 11.5694 29.8927 8.29159 1.45355 -3.88548 -3.54955
4285 1 6.42467 30.2632 4.7533 -4.09903 2.86534 3.95725
4286 1 7.90688 32.6003 5.83992 2.62434 -1.5779 2.07665
4287 1 10.3073 32.3222 4.25176 6.1033 -0.613075 -3.3148
4288 1 11.6853 30.0274 5.35381 0.42331 4.4677 1.36744
4289 1 5.0189 34.5316 -5.25605 -2.56463 -5.81115 -3.10034
4290 1 5.9335 36.9288 -6.51222 0.456227 -1.25876 -0.230844
4291 1 8.89163 36.8772 -5.70183 -2.8374 -0.292324 -0.596047
4292 1 9.98173 34.6103 -6.92568 2.51491 -2.22731 1.26333
4293 1 4.2634 34.799 -9.66284 4.79916 5.83124 -2.25274
4294 1 5.70739 36.9335 -9.36896 -3.08791 -5.24201 -0.828018
4295 1 8.29936 36.629 -10.5712 -4.1338 -2.20571 7.47863
4296 1 9.90644 34.4768 -9.64437 4.21191 1.08431 -4.68184
4297 1 5.97577 34.6091 2.28885 2.54877 -0.111243 -0.681587
4298 1 6.92753 37.1078 1.17703 3.00316 1.77245 -2.99824
4299 1 9.72043 37.351 1.92059 -4.32228 -6.11945 -2.51622
4300 1 10.8193 35.0379 0.731278 -0.876166 -3.1405 1.99829
4301 1 5.05609 34.8093 -2.60273 0.961602 0.393988 1.9028
4302 1 6.70985 36.8473 -1.63986 1.04247 1.13222 0.123706
4303 1 9.30039 36.9529 -3.00463 -1.6593 2.25955 2.43861
4304 1 10.3741 34.7044 -2.02805 -1.49889 0.72927 -2.70526
4305 1 6.42225 34.7433 9.60991 1.72306 2.85711 -0.114955
4306 1 7.73669 36.9263 8.81347 -1.39652 1.71726 1.65062
4307 1 10.5116 37.2096 9.4995 -3.30816 -2.02117 -0.3992
4308 1 11.2231 34.7249 8.06508 0.0719571 1.60473 -2.14471
4309 1 6.2939 34.9116 5.07957 0.647525 1.26722 -2.29064
4310 1 7.17984 37.1841 6.10538 -0.806019 -6.88609 4.51071
4311 1 9.57643 37.3789 4.73576 2.69226 -1.28065 -0.72171
4312 1 10.9249 34.8449 5.45711 0.83675 -1.48687 1.89445
4313 1 4.76905 39.1261 -5.14537 -1.64181 -2.23649 -0.907144
4314 1 5.93009 41.4927 -5.94406 2.69778 6.55972 1.01995
4315 1 8.7234 41.8374 -5.97037 -3.83556 -7.08226 -0.120686
4316 1 9.33562 39.2697 -7.00458 0.471693 -6.04184 0.477574
4317 1 4.25769 39.144 -9.67593 -1.07691 6.8272 -0.253484
4318 1 5.44466 41.4912 -8.82534 -0.175349 -1.59834 -2.72581
4319 1 7.93799 41.6573 -10.1029 1.83602 -3.21669 0.174089
4320 1 9.18359 39.0534 -9.74631 4.88974 -1.78255 -2.41298
4321 1 5.36969 39.161 2.21658 -1.39391 4.3461 -1.8722
4322 1 6.50813 41.4984 1.29371 -1.37769 0.0833049 0.885969
4323 1 9.16203 41.5617 1.98278 0.0651575 0.53958 1.67192
4324 1 10.5953 39.814 0.546515 -2.41747 -3.29988 -0.324309
4325 1 5.20133 39.1871 -2.51812 -5.61653 2.20825 -0.053346
4326 1 6.5403 41.373 -1.48989 -1.24881 -1.14983 -1.05646
4327 1 8.94233 41.6334 -3.16033 -0.727207 -1.67674 -1.94797
4328 1 10.5399 39.4103 -2.17822 3.12023 -0.362071 0.313056
4329 1 6.26556 39.1347 9.6218 -1.3293 -2.80217 -3.64758
4330 1 7.11295 41.5997 8.80227 1.01803 -0.454357 0.36191
4331 1 9.87173 41.7382 9.56895 1.35643 -5.05863 1.65479
4332 1 11.33 39.6853 8.51893 -5.25851 3.17423 2.58935
4333 1 5.78146 39.2982 4.88735 4.6064 0.759522 -4.40275
4334 1 7.34849 41.544 5.83164 -1.55014 0.855176 -3.76308
4335 1 9.84042 41.857 4.60688 0.714892 -2.6792 2.45727
4336 1 10.989 39.6134 5.42579 -6.10006 -6.07464 1.1825
4337 1 4.56366 43.8159 -5.64371 0.0856563 1.82273 -0.602458
4338 1 6.0095 46.379 -5.65733 -0.854191 4.55687 1.00406
4339 1 8.99346 46.38 -5.72754 -4.08232 -0.479353 -2.14509
4340 1 9.83005 44.2274 -7.12195 3.91845 0.637656 7.77118
4341 1 4.18238 43.5825 -10.0191 -0.62049 -0.896646 1.8323
4342 1 5.67799 45.63 -11.4028 2.17979 2.32535 5.09204
4343 1 8.44729 45.7176 -11.7023 4.24194 0.639922 -1.13495
4344 1 9.63361 43.9161 -9.79954 6.15444 0.677777 1.49557
4345 1 5.10673 43.5962 2.24108 -4.19746 -4.42564 1.17247
4346 1 6.15545 46.2334 1.24099 -2.89672 0.774402 -4.96779
4347 1 8.93506 45.9407 1.55367 -0.510521 -3.27023 -5.60167
4348 1 9.7135 43.7115 0.319098 1.98641 -1.425 -3.75103
4349 1 5.19885 43.4756 -2.75968 -0.103938 -1.10793 0.904692
4350 1 6.49997 45.8355 -3.0535 0.664023 -0.643418 -3.80183
4351 1 9.26897 46.0338 -2.81767 -0.429426 1.862 5.07139
4352 1 10.5522 43.7359 -2.26169 -2.55209 2.16101 -2.16405
4353 1 6.5417 44.1123 9.80649 2.11197 0.514697 -2.82789
4354 1 7.18077 46.6444 8.26509 -1.21117 0.174021 3.39044
4355 1 9.71766 45.9246 9.63503 4.32583 -4.79246 -2.22374
4356 1 11.249 43.8679 8.40968 -0.953173 -0.393069 0.872154
4357 1 5.66083 43.6072 5.07367 3.27991 -1.93116 1.16366
4358 1 6.90044 45.9207 5.63548 1.31976 2.06703 0.448631
4359 1 9.4461 45.9908 4.37379 3.6545 0.557379 -4.29253
4360 1 11.2954 44.1469 5.46703 -2.30369 0.668077 -5.59945
