ITEM: TIMESTEP
4500
ITEM: NUMBER OF ATOMS
4360
ITEM: BOX BOUNDS pp pp pp
-2.4451314957090602e+01 2.3642150857122282e+01
-2.4566506592991260e+01 4.7082942192991254e+01
-2.4050832768920209e+01 2.4042631168951552e+01
ITEM: ATOMS id type x y z vx vy vz
1 1 -24.2961 -20.8058 11.935 0.269386 2.02428 2.48641
2 1 -5.30716 15.2609 1.98119 -0.601568 1.99602 1.33113
3 1 5.63965 -5.66857 -22.7131 1.98423 1.66686 -2.40101
4 1 3.1712 -0.595349 -7.26019 -1.62079 1.35804 -3.27623
5 1 -17.6899 -21.0315 21.5958 1.48186 -4.30831 0.484756
6 1 0.66359 17.509 18.447 4.42993 3.34553 3.02134
7 1 6.82632 20.4447 7.2813 2.4423 3.4368 -2.40701
8 1 -23.2956 -12.4052 -14.5824 -0.261002 0.329285 -3.05388
9 1 -11.9242 5.59735 4.59531 -1.19936 2.54758 -1.30761
10 1 -0.551928 -7.82143 12.7966 -4.37865 0.915051 -0.595144
11 1 8.48554 -11.2217 17.6419 4.14803 5.2277 -5.30295
12 1 20.6288 -6.78409 -21.8046 -0.274526 -1.61546 -2.84964
13 1 -21.3224 -13.6019 13.1101 -3.01141 0.866335 2.82826
14 1 7.90205 1.73754 -7.19087 2.76867 -0.0229289 0.968861
15 1 -5.34443 -1.82486 -13.8962 8.21203 -0.224831 -2.40004
16 1 -18.2101 0.972138 6.50299 6.89204 6.55909 3.20731
17 1 19.0558 -7.33166 17.0615 -0.137003 -5.30589 2.01346
18 1 21.6819 24.0843 3.06188 2.87624 -1.92944 2.59317
19 1 -15.3888 25.566 19.4208 -4.4897 2.48037 0.813585
20 1 21.1816 2.60171 19.6578 -5.76886 3.84031 -4.08624
21 1 -21.6914 1.2488 10.8639 0.757456 -2.88306 -2.29737
22 1 -13.3952 0.278681 -15.0022 3.90737 1.42043 1.4109
23 1 -8.54301 -23.2971 22.1602 6.03198 -0.783321 -2.45661
24 1 9.49952 19.0134 -4.81713 -3.50156 0.347352 5.39717
25 1 6.90234 25.5163 16.9602 2.99684 2.84847 3.92297
26 1 0.813974 16.2681 9.87224 -1.81242 -5.29486 2.80779
27 1 -17.7582 9.79892 -1.46809 2.90234 -5.31497 -1.95657
28 1 -19.5789 10.1776 3.21575 2.22547 3.37786 -2.03269
29 1 -10.0118 -10.1725 -8.94494 1.67923 0.454926 -2.40208
30 1 21.6211 -2.16243 -21.2597 -2.53432 -0.619329 -3.65226
31 1 1.52391 -16.5491 -23.0241 -0.86482 -0.899408 0.646808
32 1 -9.44086 12.8397 -20.6443 -6.28903 -3.0893 -2.11045
33 1 5.91699 0.688092 -13.9877 5.40355 5.31806 3.59652
34 1 -19.5389 -23.9219 15.4523 5.39086 -3.86691 0.198047
35 1 18.3774 3.92442 12.6903 3.00904 -1.40669 8.37181
36 1 -14.6069 19.622 -15.7584 -0.357867 -3.05514 2.16986
37 1 -10.2658 -5.40757 -1.35951 3.00023 0.287306 -2.62006
38 1 19.6135 10.5372 7.92257 1.41907 -1.74716 1.08277
39 1 -0.673887 9.59114 23.9747 0.735812 -0.833392 -4.2181
40 1 -2.3843 1.34489 -17.5414 -2.19634 -0.811243 0.85323
41 1 4.13422 -5.64489 -10.0866 3.62899 2.54227 -4.9589
42 1 -16.8428 -17.152 1.25869 3.58141 -4.09847 -0.11145
43 1 -14.2639 -4.60949 4.84083 -2.56501 3.54557 2.18047
44 1 -2.33275 -16.9826 -7.42859 -0.1676 -0.402757 -1.68901
45 1 -10.3541 13.8607 -2.31344 1.89359 -2.74743 1.44509
46 1 -20.5594 -21.3996 17.9232 2.11712 2.18308 -4.77471
47 1 -7.91987 6.64852 21.0029 1.81939 -3.15929 -4.79976
48 1 8.07692 4.05671 -5.80586 1.38988 -1.85958 2.04898
49 1 22.1216 12.582 6.3754 0.311578 -2.81832 2.41477
50 1 16.5505 -21.202 12.6492 1.01742 -0.938884 0.18364
51 1 -8.00164 -0.55403 20.2431 -0.868217 -2.09714 1.56189
52 1 14.7468 2.35131 -14.5733 0.604535 -1.65823 -0.143471
53 1 -3.75549 21.823 9.17862 2.46119 -2.00316 5.08907
54 1 -20.3304 -7.92621 -8.97234 0.616698 -1.42797 -5.83573
55 1 -6.6514 -2.00032 -16.5202 -3.30787 -2.36536 -5.96619
56 1 -12.7653 6.09113 1.86289 -1.81145 0.874971 -2.03819
57 1 -14.2228 -9.10715 -3.81676 0.871392 -3.57646 -1.22211
58 1 3.68152 -22.2137 -3.77679 -1.98018 -1.02907 2.21531
59 1 -23.6551 12.9907 17.9011 -2.02112 0.31679 -1.11295
60 1 0.95225 15.9783 -21.2717 -2.03313 1.4876 1.98862
61 1 -13.8284 0.463023 1.84111 -5.32079 3.59536 -1.74987
62 1 -2.44133 -10.5368 17.9131 2.41926 1.98545 -4.4936
63 1 0.382137 12.1282 -18.2445 2.16581 1.77423 -2.58899
64 1 -10.9451 0.0722749 2.22696 -3.75517 0.0284406 -1.2379
65 1 17.7059 -1.77663 9.17904 4.04794 0.40077 1.20935
66 1 -11.6688 -16.2902 -12.1542 -3.00572 -0.45516 1.49966
67 1 -14.51 23.3084 -10.3768 -2.43484 3.94014 0.849371
68 1 -3.6783 15.4625 -17.8383 2.44581 -2.74712 0.379485
69 1 -6.576 13.5108 9.40648 -5.44439 -5.25735 -7.02347
70 1 -17.6918 16.0202 -14.7343 -0.0155796 -1.16962 -1.32295
71 1 -9.89181 5.40682 0.75547 -3.21866 2.83185 4.88267
72 1 22.312 15.1035 18.6671 -5.2179 0.365194 -1.78042
73 1 -12.219 -18.6129 13.9148 -0.256175 2.70781 4.51614
74 1 -0.775447 11.8045 -14.5358 -6.2682 4.39768 -0.363061
75 1 -19.0959 2.16601 -12.3069 4.07034 -0.92494 -2.23698
76 1 -23.5134 -5.22581 1.65057 -3.30172 -0.669982 2.25134
77 1 14.0247 -21.2254 -2.33448 1.90222 -1.60509 -6.1414
78 1 -18.0279 12.9866 -7.41344 -1.66299 0.512879 3.33505
79 1 23.0335 -2.5852 -13.7088 2.90826 -0.646493 1.29229
80 1 -15.204 14.5165 -11.8346 -3.00487 -3.22721 3.27054
81 1 -0.173868 -13.373 -15.3183 -1.02602 -1.67071 3.23234
82 1 3.88899 -22.5182 4.40519 1.04744 -1.71579 7.0049
83 1 -20.9625 13.0231 -0.165838 4.26786 -0.0556986 -0.36696
84 1 19.2212 22.7289 20.919 0.167953 4.5456 -0.224114
85 1 5.89018 13.4339 -2.88032 -0.913046 -2.55227 -5.70543
86 1 12.5602 7.53218 14.541 -2.57397 4.17357 -7.39864
87 1 -3.47284 18.4457 -4.24829 0.154067 -0.444391 -3.5292
88 1 -10.7983 22.9546 -18.4492 -0.455661 -2.08842 -4.13051
89 1 -10.3166 -4.23294 23.1201 -0.984608 -0.403656 -0.48343
90 1 8.64818 -5.21527 5.0614 -1.46725 -0.155364 -2.79227
91 1 15.7982 19.8648 -19.2783 -5.09066 0.595601 2.95991
92 1 18.0981 46.9538 0.400361 0.402311 -1.52519 -0.12436
93 1 -18.3769 -23.3831 17.9565 -1.55577 -2.0134 -1.07322
94 1 22.1577 2.42436 -12.4944 0.925122 0.678135 -0.847932
95 1 0.802253 -4.11646 -12.4323 -2.16182 2.44554 -0.878967
96 1 -23.3899 -16.1227 21.0802 4.80376 -6.62731 -1.20405
97 1 -7.1129 -14.7178 -21.2915 1.00171 -1.30647 -0.197632
98 1 -1.82437 17.4165 10.8566 0.549742 0.295628 5.09186
99 1 16.6296 -22.3286 -5.74583 1.55868 2.85722 0.0423347
100 1 -23.7361 -14.5577 -23.6376 0.959145 -4.21261 -3.30938
101 1 -0.486628 -22.3299 -11.8065 -1.44964 -2.46279 -3.48975
102 1 3.52501 2.57525 6.04543 -0.938799 -0.294759 -1.20428
103 1 17.4528 22.9045 18.614 -1.79583 -2.96831 -4.22092
104 1 -14.8152 46.1569 -10.2448 -0.22404 -0.675579 -2.55893
105 1 4.66545 17.3695 -19.0514 0.882688 -4.28892 0.122864
106 1 14.6932 3.12341 9.35307 -6.21549 2.44378 1.33349
107 1 20.5957 -3.63177 15.5328 1.01084 0.170029 -0.519671
108 1 -10.2637 2.19493 23.4734 1.57331 -0.214336 2.34177
109 1 -14.8698 15.9556 -15.0948 0.509646 -1.26485 -5.10401
110 1 9.44531 -13.0126 -8.45654 3.82252 1.62602 -1.22547
111 1 20.8429 -4.71274 -13.6919 3.8311 0.456072 4.02843
112 1 -18.5687 2.01522 -21.9334 -5.04573 2.98766 2.81652
113 1 -4.64336 -6.35274 19.2629 -1.41078 -2.5007 -5.24647
114 1 -22.4333 -18.2261 17.3491 4.78471 -0.699475 6.19669
115 1 8.64744 9.95324 5.03035 -1.40704 4.15498 -3.1806
116 1 3.13284 -14.769 -19.4586 -1.78664 3.23762 -1.79097
117 1 19.5307 17.2662 -18.957 -3.51438 5.06256 4.54211
118 1 5.51178 -17.9418 -7.61274 2.9844 -1.45628 -0.8593
119 1 14.9481 10.2206 -9.09718 -0.267026 0.175522 3.48139
120 1 1.74755 -5.51386 16.3972 2.11918 0.647328 1.23062
121 1 -7.10626 -19.4583 22.0612 1.27263 3.50293 -3.64819
122 1 -10.7856 6.96623 23.8181 0.231754 -0.817225 0.627697
123 1 11.7345 15.9171 4.58668 -1.48237 -1.07912 5.18986
124 1 22.7817 -21.846 -15.6485 -3.01379 -5.01233 -2.35263
125 1 15.4479 9.2088 0.600964 1.38708 2.82371 1.08216
126 1 -9.25909 2.52375 -7.14307 -5.59491 -3.72421 0.0431858
127 1 10.9014 -2.73325 13.5766 1.94147 -3.35636 -0.937064
128 1 -20.8414 -1.27938 -9.55538 -1.86042 -4.93463 -1.16883
129 1 16.1515 -10.7176 5.19112 -0.710171 2.46694 -0.345667
130 1 -11.5145 16.2371 -19.4945 -3.41312 4.13442 -3.6196
131 1 2.54905 -10.2506 -21.1175 -3.97916 0.434455 -6.47422
132 1 -7.74301 -2.34483 -22.3358 -2.64698 0.583558 -4.36623
133 1 -14.5089 2.51937 17.4737 3.66666 -3.62767 -0.743229
134 1 18.7736 -8.7662 23.6321 -3.62571 2.33937 2.59694
135 1 -15.2654 -6.18037 -19.4763 -5.23641 -3.30813 3.06851
136 1 -0.0287982 5.8989 -4.51011 -2.72137 1.95783 -1.10872
137 1 -12.0546 5.70529 -14.6419 1.48411 1.19178 -2.77978
138 1 13.1108 17.9626 7.07422 1.08916 -1.54875 -0.698041
139 1 -20.2839 -20.571 -15.0415 -0.0043132 -2.62954 -3.61417
140 1 3.93771 -6.33041 19.8359 2.48997 -3.54142 2.07811
141 1 12.125 -18.5056 2.78617 1.32862 1.13897 4.51018
142 1 14.8129 2.00163 23.4299 1.07063 3.12177 2.01745
143 1 -5.5777 -1.24347 -4.14591 -0.418699 2.76539 -4.02522
144 1 -23.7853 -9.61375 -15.6082 1.10284 -2.87908 -0.682284
145 1 16.3911 7.34985 19.9513 0.568613 -5.27731 4.38539
146 1 -10.2153 -9.06788 13.6431 -4.61361 0.270923 2.49056
147 1 9.77022 20.1194 5.23972 -0.0863784 4.46056 3.14057
148 1 -19.2822 13.8097 11.3622 -3.05607 4.61894 -0.280081
149 1 -18.0876 46.948 -20.8518 4.90798 -0.560987 2.43519
150 1 20.1958 8.20295 20.8313 8.3182 4.21199 3.59458
151 1 18.6389 1.19377 22.4402 1.07416 1.28816 -3.28247
152 1 -5.5808 -2.30681 17.7712 -0.135457 2.76659 2.19307
153 1 10.1525 -14.8507 -4.28693 2.26957 -2.7128 -1.49907
154 1 -8.19649 21.3913 -8.04413 0.315323 1.64164 3.37172
155 1 23.3657 -21.3831 -19.8787 -5.05013 -5.46399 -3.80075
156 1 15.3588 11.1069 16.5473 2.95739 -0.386463 -1.37031
157 1 13.1949 -12.4151 -14.8847 3.12272 1.82772 1.27261
158 1 10.1676 5.71108 3.9337 -4.02721 1.49465 -2.32699
159 1 -22.7953 -11.3684 11.6749 1.06395 -3.65738 3.17733
160 1 -5.87193 -16.0358 -3.54048 0.963997 3.45885 1.59428
161 1 18.6143 2.92081 -15.25 -2.44539 0.524274 -2.91785
162 1 -14.7425 -10.0859 19.4708 -1.95456 -0.380942 1.77645
163 1 1.92325 0.36672 19.3585 1.95365 0.940573 0.718463
164 1 17.0541 7.90481 14.3254 0.0215 0.915536 1.35216
165 1 -19.4285 12.4508 17.6785 -0.106402 4.91202 4.35949
166 1 7.89618 22.941 -22.6034 -3.17151 3.9836 3.14845
167 1 -11.7126 0.709557 -3.75741 0.675444 -1.80544 0.303511
168 1 20.285 24.1329 -3.53131 3.36708 -2.7211 -4.45318
169 1 4.24809 23.1914 -13.3481 -0.0993403 2.76441 -2.12514
170 1 -4.08627 -19.4368 -12.577 -0.732765 8.09238 2.1179
171 1 -16.5913 4.12407 16.3654 -2.4398 6.71833 -1.38297
172 1 -19.3811 20.648 -20.6815 -0.781286 -2.19601 -0.893468
173 1 -20.9154 1.59133 23.1969 1.70963 -1.33988 4.23815
174 1 -19.621 6.15132 -22.7073 1.11513 6.16034 -0.925387
175 1 10.3208 17.7597 6.51872 -2.05073 -3.27634 3.28528
176 1 -4.62558 23.0641 -2.14323 0.947056 2.68488 0.949339
177 1 -3.85322 -20.9501 12.6197 -2.02811 -2.21707 -2.62907
178 1 -15.7372 10.7436 6.27548 4.09006 1.12467 -1.13291
179 1 -5.20319 -8.31667 -12.8269 1.13698 4.11687 0.057719
180 1 22.8456 20.2773 10.6026 -3.64904 1.87065 -1.36463
181 1 -5.24728 -4.40027 -19.9686 -0.000593352 -2.4408 -0.249988
182 1 -21.286 -1.69763 18.0907 -2.11744 -4.50834 1.72683
183 1 22.4162 13.2415 -3.11286 -6.45232 0.740126 -0.44686
184 1 5.89508 -23.2414 23.4588 2.62719 4.04311 6.47417
185 1 20.9004 23.0215 14.0974 -1.40652 5.81966 4.36842
186 1 12.9457 23.8102 -9.95205 -0.874347 2.64888 2.18663
187 1 -11.981 8.15526 -7.58646 1.86732 -2.79161 -3.3785
188 1 7.54578 -23.1528 -5.2913 1.08492 -5.21175 -3.42884
189 1 -3.62707 -4.7307 1.56872 1.03787 -4.13797 1.88564
190 1 -15.2116 11.3691 -13.7897 5.02222 -5.41723 3.2177
191 1 5.58031 -3.48696 23.2749 -1.80515 0.9819 2.36329
192 1 9.68342 5.83043 -3.19168 -0.353044 1.37789 0.782184
193 1 10.9304 -2.92136 2.35663 1.2817 0.815784 -3.03827
194 1 0.557169 25.0625 -20.6369 0.7996 6.11733 -4.40548
195 1 5.06438 0.236787 -9.72951 -3.65962 3.76105 -5.10449
196 1 -18.0348 22.9666 7.25312 -0.608675 -3.04274 -2.21697
197 1 -23.8888 -2.94108 23.9601 0.085276 -1.07389 4.98996
198 1 -8.85828 -21.8013 -17.4689 -1.33821 2.41509 -0.1233
199 1 22.8923 -4.46506 -11.5203 5.53993 2.75589 -3.20334
200 1 14.5931 8.73972 -15.7044 0.299341 -0.685453 -0.713194
201 1 6.81611 3.32269 23.5221 6.63255 -3.87478 -0.127774
202 1 11.2045 15.2058 11.0067 1.79088 0.398518 4.8211
203 1 -23.9129 20.4429 8.05669 0.750532 3.70514 0.682575
204 1 -8.543 -15.5373 -9.10696 1.82448 1.27897 -5.89265
205 1 17.7097 -6.56969 9.69455 2.1627 -0.104564 -1.58754
206 1 -4.41819 -12.8819 -17.3506 -0.870581 -1.5466 -2.69935
207 1 -5.95269 7.11693 23.3011 -1.32447 1.30522 2.80989
208 1 1.5082 -8.21385 14.9616 0.256128 2.87226 -3.19534
209 1 -6.1171 15.3565 -16.1598 -0.767642 5.84098 1.03158
210 1 -18.1022 12.7486 -0.665456 -0.557303 -1.21822 -1.4427
211 1 15.3584 0.81701 7.11389 1.53502 -0.827958 -2.03966
212 1 -16.0529 24.4843 -4.08957 0.840734 3.77557 -3.25349
213 1 -20.9058 -21.8571 -3.92052 -3.14234 -5.75838 3.52694
214 1 16.5736 -3.99121 -22.2558 -1.60302 -0.0399675 0.18923
215 1 8.02039 23.1227 16.7288 5.47799 -2.03586 -5.59285
216 1 -16.8839 -24.4185 9.49525 -0.754955 -0.571463 -0.180277
217 1 2.92214 21.0951 6.38883 -0.776505 2.1297 -2.27326
218 1 13.7742 3.26802 -2.55805 4.92512 -2.62393 -0.170977
219 1 -5.51104 25.1758 21.6909 2.25294 -1.20074 1.20562
220 1 4.66986 21.6893 14.985 0.408948 2.9201 1.1994
221 1 -15.4121 2.96703 -2.56893 -0.332462 1.73156 1.49566
222 1 -11.0419 -7.32086 0.683555 0.932368 -0.578096 -4.52591
223 1 -21.8904 -5.41322 -0.667595 -6.01144 -1.1951 -4.90229
224 1 -12.7947 -3.91283 -23.2031 4.43604 0.624396 -1.81141
225 1 2.8342 -13.9707 -5.91305 -0.848064 4.7911 -3.41708
226 1 22.0611 18.3251 -12.6525 4.3316 -1.01939 5.163
227 1 15.6611 16.6534 1.61863 -3.53916 1.45323 1.07451
228 1 -10.8503 19.9641 0.0187771 -0.456773 -6.49367 -5.4444
229 1 11.3778 10.7044 -9.72667 -0.777095 1.29052 -0.832589
230 1 -7.98262 14.4244 21.4619 -1.25133 -6.68835 4.54272
231 1 -23.8295 -3.58669 -21.3255 -1.13836 0.704784 2.21085
232 1 -1.37725 -14.4755 10.8173 -2.49765 -2.77726 1.23549
233 1 -9.79336 16.1393 12.2754 -0.657585 -2.88536 1.07188
234 1 -6.24619 18.3098 9.39929 -0.429923 0.861464 -3.02512
235 1 22.8958 -1.74924 -9.82791 4.3638 0.764461 0.667796
236 1 16.0973 -10.9632 9.61744 5.79507 -4.43481 0.86611
237 1 -17.4965 19.579 0.770568 -2.4559 -2.19713 -3.32035
238 1 16.928 -2.20515 23.4303 -1.20547 -0.314844 1.85999
239 1 -20.3028 19.5113 16.3362 -0.0147408 1.43689 -1.07717
240 1 11.6737 2.17993 15.2671 -3.68366 -3.6961 4.74356
241 1 -23.2314 -15.4176 10.0897 -2.33251 -5.01939 2.02452
242 1 -9.70793 -4.42245 -12.5081 -0.727723 4.35681 -1.50575
243 1 -6.61665 -9.84111 11.248 -0.46065 -1.76776 -2.36507
244 1 -19.7115 12.9126 -24.2253 2.9526 3.38521 -1.82208
245 1 -10.3333 24.3424 -11.2467 1.85994 0.222244 -1.50727
246 1 11.9721 2.86781 21.3063 -0.28082 -0.475406 0.832343
247 1 -23.5838 -6.94694 13.2694 -5.36409 1.11211 -4.75277
248 1 -17.2665 7.13473 -13.2218 -1.37367 -1.49513 -3.54446
249 1 -2.02863 -18.848 10.349 -1.35823 -0.880345 0.0792884
250 1 0.925076 -2.73328 8.0259 0.934663 5.79312 -1.3848
251 1 -21.8272 -1.48403 -21.083 -1.75383 0.364936 -1.39838
252 1 18.0642 18.294 -11.2716 -1.07873 -4.26254 -1.32009
253 1 -0.435201 -3.14103 22.9879 3.43791 -3.73784 -0.12054
254 1 4.17701 -10.9559 -9.50458 1.37086 -1.74785 -6.21851
255 1 -22.8992 -22.6775 10.1497 -0.349529 0.0416057 3.41975
256 1 -12.4139 -4.55879 -11.9178 -2.17301 1.32378 -1.04481
257 1 -2.162 5.06695 -20.6777 0.298696 -3.31467 9.66065
258 1 -7.26177 0.203923 -5.87798 2.64154 0.720962 -1.80768
259 1 15.4903 -18.7647 -20.725 2.04356 -3.54143 2.82469
260 1 14.1954 7.15415 -4.6825 0.201287 2.49964 -0.970976
261 1 -1.5843 -24.066 11.2594 2.64768 1.7266 1.83651
262 1 17.9744 20.5178 10.9647 2.04583 -0.156437 2.34946
263 1 -20.3035 8.28731 -11.7465 3.69398 3.82889 -2.06373
264 1 18.5047 0.303126 16.2588 -4.54946 0.309377 1.23639
265 1 15.1545 -18.0732 -7.36288 1.97325 0.6627 1.52317
266 1 22.9072 5.13458 -15.6149 -3.53226 2.55106 -1.88513
267 1 -10.3218 19.2322 -10.6419 1.03234 -1.90892 2.43678
268 1 -21.1772 20.0851 -11.6882 2.13145 -2.49368 -1.95588
269 1 -20.3917 -7.90529 -13.3256 -2.76356 2.64881 1.63776
270 1 -21.2871 -16.963 15.1622 6.39275 -1.49786 -3.09206
271 1 1.54195 22.1291 -13.774 5.52262 -1.46965 -0.780548
272 1 11.4411 -18.6403 10.5718 3.31977 -2.29365 -0.465205
273 1 -17.9069 -9.56682 12.9871 2.8316 -2.32239 3.35963
274 1 10.9089 -14.6579 8.15879 0.26646 0.208492 0.403126
275 1 12.7727 24.6761 -20.7546 -0.0236926 -0.251351 -4.7573
276 1 22.079 6.50002 -7.81969 0.801242 -0.854011 1.7947
277 1 11.1596 -12.3471 -17.0063 -2.29369 -1.62454 -5.34299
278 1 19.8318 11.1249 16.0858 1.73352 5.81058 -2.47412
279 1 23.0119 -2.80503 1.40647 -0.403158 -2.32053 0.129644
280 1 -1.42685 -20.3427 -13.7149 -2.74503 0.167954 -4.56658
281 1 14.0771 22.0503 11.1549 -0.477702 5.41947 -3.22334
282 1 12.1562 12.4418 11.7644 2.7003 -3.98439 -0.690054
283 1 -3.6594 -23.1275 -21.4836 -1.01256 0.799567 0.960014
284 1 3.18101 13.038 0.946361 -1.26737 -6.11008 2.35189
285 1 -13.8274 20.065 13.875 -3.27191 5.32314 -1.05758
286 1 -5.23802 18.4239 1.51173 -3.84732 -2.92354 -0.725705
287 1 1.64175 -8.38512 -8.13228 -1.92141 -2.52039 -2.48057
288 1 15.867 23.2843 3.74791 -2.78045 2.46268 6.35132
289 1 -7.11194 -21.5203 10.6616 0.197391 3.26236 -6.56064
290 1 -7.72421 -10.1389 -17.1296 -6.65962 -3.27132 5.05484
291 1 -12.4607 -16.6326 11.4822 -5.08176 0.365706 -1.11568
292 1 15.7207 6.58051 1.7646 3.8555 -1.62389 -6.71691
293 1 14.2736 2.98662 13.4412 -3.04038 -3.83329 0.336165
294 1 -7.76568 1.1036 0.550956 -2.68644 2.13673 -2.93617
295 1 -0.189038 7.90352 8.64617 -2.90658 2.96565 2.35941
296 1 1.91888 14.7709 -2.56025 0.871121 2.94899 -3.8256
297 1 16.614 -4.60113 -7.38033 3.44833 -3.36932 1.00434
298 1 17.2246 -17.958 -23.2277 -2.61718 -1.00564 0.988122
299 1 3.99855 -22.382 -14.4705 -2.17235 4.71415 -1.51302
300 1 20.7473 -6.48194 19.3302 -2.2601 -1.60425 -0.838829
301 1 -7.79196 21.7742 -21.3342 -2.56254 4.56413 3.81164
302 1 -0.819283 8.20083 -1.48092 -5.84852 -0.834554 -2.34497
303 1 -18.6824 -17.7849 -9.7941 -0.808004 2.43559 2.53654
304 1 -20.0092 -16.3111 12.6887 -0.656571 1.01439 1.35487
305 1 4.32849 -19.9963 19.5357 -0.218722 -2.54673 3.03556
306 1 14.8404 21.5153 -10.5617 -0.924724 2.84685 0.142431
307 1 12.681 12.8797 -21.8709 -0.637015 1.34001 2.82761
308 1 -16.2094 -21.3358 2.96137 6.36137 -2.11201 -1.86877
309 1 6.59765 -20.1391 17.4087 -4.26836 -0.106511 1.1531
310 1 1.53676 14.0933 13.3709 1.09305 -0.787891 -0.565952
311 1 13.3629 -10.678 0.657572 -1.92337 4.26793 -2.24899
312 1 -6.49879 2.26956 -9.61463 3.65701 1.30429 -1.21996
313 1 -15.8224 -15.7388 -9.01851 2.09617 -0.723095 1.49341
314 1 -16.076 6.67136 -8.7598 0.0437807 2.28182 0.963781
315 1 -14.5093 -23.4184 2.38195 -5.19249 1.21533 -3.82879
316 1 -23.9579 -6.72927 3.91911 1.29532 4.52036 -0.141958
317 1 -10.7013 -9.76326 23.6603 5.24776 -2.2905 5.93645
318 1 19.7783 -17.3934 19.4758 -3.16088 1.31774 1.88023
319 1 -14.4445 3.1254 13.1457 4.21668 0.542848 1.24639
320 1 -3.12689 0.135626 10.0224 -1.77622 1.93319 -1.64876
321 1 -17.9458 -11.3325 -11.7177 2.07805 -5.43019 -1.72983
322 1 -11.7935 13.3716 0.0248508 0.648245 2.77663 -0.809714
323 1 -13.4198 3.07258 4.19919 3.25332 -1.19273 -0.378884
324 1 22.6148 -0.0269292 4.83183 -0.227472 -0.72363 0.128046
325 1 0.181937 -19.5721 16.7242 4.4804 -4.2821 -0.641885
326 1 -17.2242 6.0777 2.13935 0.280498 -1.72537 2.27386
327 1 -7.64788 -8.42203 21.3439 1.28654 -0.757572 0.984258
328 1 11.2452 20.2595 14.2809 -2.49703 1.71286 -1.8559
329 1 -0.713598 1.73332 -10.2953 3.25237 0.995538 1.18178
330 1 -12.5069 -22.7209 23.9469 1.24582 2.5387 -2.82902
331 1 14.593 6.18177 4.42647 1.31937 -5.53067 -1.87255
332 1 7.60929 -2.03782 -9.18523 1.52371 1.42006 1.07005
333 1 7.14702 -10.6267 -14.8546 1.94707 2.0314 3.8697
334 1 5.918 -23.9799 -2.92816 0.994404 -1.7291 -2.89427
335 1 23.5386 -23.0699 4.79853 -2.42725 -3.85536 -4.81886
336 1 18.1788 16.4283 -22.1619 -1.23607 -2.4242 0.532152
337 1 -19.8414 20.3336 2.25566 -1.5287 -0.684872 -3.38743
338 1 6.71945 -7.59413 15.7351 -1.05851 0.458862 3.90431
339 1 -6.14603 -18.7029 -23.61 2.83317 -4.42271 0.164653
340 1 -15.9707 2.05365 -18.6868 -1.39768 -2.05812 2.83637
341 1 -11.9894 2.74898 -13.7816 0.890288 -1.27331 0.562745
342 1 -0.340206 -17.9644 -12.7395 5.02986 -1.59735 -0.00698395
343 1 -2.98215 -12.9752 -5.42662 2.79895 0.887266 3.74166
344 1 8.69643 -17.2256 -13.7495 -0.359217 -1.28354 -0.389548
345 1 -9.06648 -2.81709 18.5216 -2.87696 0.536084 -2.20517
346 1 17.0726 3.24528 6.24542 -5.06935 0.341095 0.462389
347 1 20.7632 -7.90051 7.46914 -2.46972 -0.821035 0.291462
348 1 -11.7895 -2.87188 11.6512 1.33428 0.826735 1.35982
349 1 -4.41742 11.0209 22.5625 -1.856 -0.857859 -3.16871
350 1 -23.1912 19.3796 21.6044 -4.54464 1.31037 5.84463
351 1 -15.8524 4.20095 8.96439 0.0363002 -4.00434 -0.798897
352 1 13.9213 4.14411 1.4576 1.6825 -3.9499 1.36645
353 1 18.7471 -23.4563 -16.0639 -2.12453 0.732736 -2.01909
354 1 7.21273 22.6949 -9.79309 -1.86626 0.990016 0.474052
355 1 -4.1561 -1.61942 8.02096 -1.65359 0.416744 -1.30964
356 1 -3.35519 -18.363 -23.434 7.62682 -4.19695 0.179438
357 1 -4.79522 -14.5696 0.928404 0.103086 -0.369078 -0.902165
358 1 18.0926 -14.4753 12.7358 1.17962 3.02989 -0.111189
359 1 -16.1875 -19.4449 -10.3889 2.4148 -0.0268825 0.828926
360 1 4.3681 15.0504 -1.0205 0.162072 -0.123545 0.329727
361 1 -22.3352 -21.7261 -6.42895 -0.581564 3.99626 -3.28687
362 1 -19.5379 13.1118 6.51892 -1.06523 0.319914 -1.96815
363 1 -17.8457 -19.6743 8.71963 -2.19572 1.42187 -0.135203
364 1 -10.1483 6.28595 -6.05463 3.15358 -0.802682 -1.58394
365 1 0.457235 -16.7002 17.1506 3.28364 0.494879 5.89777
366 1 -21.0245 1.62482 -10.103 0.106706 -1.10582 1.92573
367 1 6.48504 18.2225 -16.9107 -1.56757 5.3621 -1.19337
368 1 4.18998 -5.71878 11.8376 -2.44087 1.37421 -6.52323
369 1 14.2134 6.69278 -13.426 -4.07883 -0.00342114 0.28959
370 1 2.12606 -14.0218 -24.2523 6.82965 -1.13443 -1.42483
371 1 -10.6523 47.0056 17.7661 -0.213555 1.28597 0.848237
372 1 -8.38753 23.0475 9.6893 -1.24824 -1.31985 3.019
373 1 -15.2144 6.98641 22.6915 -2.83355 2.7444 -3.18389
374 1 -6.37619 19.212 -13.1661 -7.14527 0.301751 0.288254
375 1 -22.6163 -5.48869 23.4575 -2.96661 0.559778 0.644495
376 1 -6.04058 -11.4464 -15.6013 3.61702 2.43486 2.03123
377 1 14.7583 0.202862 10.2469 -3.8385 -2.74446 1.55032
378 1 18.1337 -13.4454 -3.32375 -7.2611 -2.02672 -0.219174
379 1 23.2266 24.349 0.466192 0.882137 -5.78579 3.31887
380 1 11.7619 17.7626 -18.3123 3.72926 -1.44391 0.690023
381 1 -21.3502 -14.2711 16.089 4.09847 4.69337 1.85038
382 1 14.656 16.1924 -4.94582 0.65144 0.900004 -1.88177
383 1 12.4136 -23.7104 6.93233 -10.9795 0.00147319 -0.999382
384 1 -10.2176 10.5213 -8.47126 -1.49954 0.379987 -0.882507
385 1 -6.60405 4.32094 19.7459 -7.21289 -0.000545347 1.08925
386 1 17.666 -2.99498 -19.4922 4.68857 -0.509447 -0.14449
387 1 4.4283 -21.3275 -0.0107415 -2.99664 -2.49615 3.44832
388 1 -19.3844 -22.9294 -22.9713 -1.41032 -0.406252 -5.25776
389 1 -13.7824 8.19255 9.51054 -2.82921 -1.5813 2.89144
390 1 12.5937 7.22479 8.03716 -1.12508 2.32463 -2.65916
391 1 16.6983 0.767041 18.8041 -1.27905 0.417326 -1.20593
392 1 21.0392 -11.8488 16.7904 -1.91989 0.467562 0.111866
393 1 -13.1762 -18.5918 -13.4916 -0.54386 1.24262 2.00456
394 1 -11.4702 12.4497 -6.71489 1.27154 3.07638 2.88723
395 1 -8.34971 46.9892 19.7101 -2.51098 -0.90821 -3.50332
396 1 10.6836 -21.5554 -1.00824 0.968457 -4.89256 1.9811
397 1 3.81924 -21.0731 16.697 3.84548 -3.61115 1.46047
398 1 -22.9627 -23.7285 -8.43079 -1.89387 6.01671 2.15004
399 1 12.0333 14.7074 0.822615 2.73728 -0.751946 -0.123332
400 1 -21.7544 -16.2806 -4.32482 2.53504 0.14776 -0.867406
401 1 22.6259 -16.8793 -6.82386 -1.34426 -5.28814 -0.219447
402 1 -1.71479 7.65474 22.0697 1.35502 2.21602 -0.440672
403 1 13.8207 -1.37718 22.9758 0.82334 -4.18364 3.14935
404 1 -15.7201 -0.665329 3.75271 1.98302 -0.424308 1.48411
405 1 5.98532 46.7788 -7.01126 1.56741 -0.178097 2.14644
406 1 -9.92089 -18.4595 -23.4793 2.56853 1.35618 0.347484
407 1 2.93951 -9.6356 17.1582 -1.66813 -4.6768 -0.178152
408 1 -2.94566 -1.53687 -18.4987 2.26157 -2.69339 -0.42592
409 1 0.658193 1.97411 -5.54286 -6.38606 -0.799192 -0.535754
410 1 -12.2504 10.8678 2.377 -1.95991 -0.145201 4.451
411 1 -2.12337 -1.77431 -8.17528 3.62221 -0.594584 3.69528
412 1 -17.4235 -5.29648 8.56104 1.7581 -2.40612 -1.95612
413 1 -23.8481 23.0399 -1.8383 -1.85009 -0.678961 -0.0692265
414 1 4.59549 19.0128 -12.8161 0.379612 2.92941 -1.37654
415 1 -18.869 7.93226 -8.94632 -0.852469 0.351766 3.23273
416 1 23.5265 0.126153 11.5611 -4.9932 1.19453 1.17422
417 1 -14.037 2.40246 10.3061 2.08013 -7.50928 1.37784
418 1 22.1757 21.142 6.31824 4.09486 -3.96987 0.583096
419 1 -23.2153 3.04491 -23.6596 -0.499628 2.0241 -2.49833
420 1 -2.65502 -3.1871 11.8116 -0.912079 -5.68434 -2.91234
421 1 -14.8673 46.687 -16.4596 -4.33059 -0.808687 -0.826164
422 1 -2.94989 17.7305 -22.6832 -2.81192 5.95832 -2.21732
423 1 -8.6595 1.59632 3.21725 -3.08871 0.619359 0.997844
424 1 5.7236 -7.20162 -0.83815 0.633383 -3.38262 1.27909
425 1 -22.6897 15.3736 16.5091 -1.1135 -1.10176 6.93105
426 1 -18.1021 -0.81291 -8.54427 -1.1942 0.0983672 0.945589
427 1 -13.96 -23.0234 21.5499 4.71108 -0.352125 1.37131
428 1 9.87615 12.2195 -7.87084 -8.41506 4.03868 -0.190263
429 1 -7.62098 8.61667 -15.1308 -2.22841 8.4313 1.24251
430 1 -21.4738 -1.14216 24.0375 -0.617383 2.73835 2.93039
431 1 9.06677 -6.69737 -14.766 1.92753 6.01677 -0.398466
432 1 5.66071 -3.33527 12.4508 -1.27379 -0.642269 0.184186
433 1 -21.2283 2.31769 -16.4937 2.76266 -1.80308 2.49404
434 1 -13.2017 -2.59575 -10.2521 1.21306 -0.181933 -7.32398
435 1 0.712729 23.1085 7.09706 -4.75219 -1.14015 6.56957
436 1 -15.8792 -9.1808 -8.85424 1.16741 3.68893 -4.00694
437 1 19.4685 19.3246 -8.32835 -2.02699 -3.81715 -0.582241
438 1 -16.7293 6.3949 -3.83708 -0.4029 -1.17821 2.08629
439 1 -3.58279 21.991 -4.51367 -0.888805 -3.94509 -4.46229
440 1 -9.57146 13.9465 -14.5142 2.19576 4.41712 -1.4901
441 1 17.9578 1.05548 -5.3459 4.94833 -0.317729 -4.7071
442 1 4.87884 3.57102 14.0367 -2.50601 3.36357 3.92214
443 1 19.3626 25.1291 13.2852 2.1196 -0.978029 -0.12469
444 1 -22.8162 7.29442 -18.9688 -1.95613 1.86126 -1.13726
445 1 17.0922 -8.9701 -10.9739 -0.193978 -5.32823 -2.14365
446 1 22.1204 -13.9494 -6.88285 0.617311 0.988866 1.42221
447 1 7.42364 21.7272 14.3337 1.24081 3.13717 1.46974
448 1 -13.6844 0.60107 13.787 -3.72655 -2.14676 -0.606921
449 1 13.1942 -6.50141 -0.802862 -1.19114 -1.50629 1.37503
450 1 16.1001 -22.4926 6.87766 -1.18114 1.27062 1.02084
451 1 23.2827 -12.1849 -19.588 -2.48662 -2.60947 -0.0646494
452 1 -24.2173 15.3699 1.96238 2.76516 -2.2677 3.35176
453 1 -17.2401 15.2333 9.98682 1.69728 -4.48539 1.86557
454 1 -5.36142 0.960904 -14.9747 -6.16248 1.72535 -0.99465
455 1 15.2908 -11.2021 17.0342 -2.977 5.26954 -3.75754
456 1 -4.56672 16.3232 23.3701 1.72387 -2.2812 -2.66552
457 1 7.02484 21.1197 18.3498 1.05292 -1.25288 2.66496
458 1 20.8023 20.6802 16.5455 -4.51471 0.00162908 -1.53011
459 1 0.425992 9.23598 -14.335 4.66489 -0.760861 -4.41083
460 1 3.48235 9.27994 -21.8686 2.17153 0.450186 4.36614
461 1 2.67521 0.737565 -19.2636 5.77069 3.83617 3.94545
462 1 -6.661 -17.017 20.2946 -1.12879 1.70821 -0.325717
463 1 8.31742 12.5379 12.1948 -2.96425 -3.03118 2.00374
464 1 -13.7938 -24.3366 4.85709 -1.64849 0.75363 0.994242
465 1 -1.05103 -12.9732 4.85025 -1.33293 -2.36165 -5.01287
466 1 14.0625 15.5498 -19.1342 -3.69396 3.62724 1.3739
467 1 -6.89035 -12.3576 12.6368 -5.32614 -3.76149 1.11507
468 1 21.2129 16.9793 -8.75549 -1.81377 -0.463918 2.64345
469 1 -24.2612 -14.0318 12.6347 -0.115811 7.49702 5.45533
470 1 -22.5038 6.63901 -13.4801 -0.222273 -1.43448 -1.5567
471 1 19.4114 -7.26885 -8.71993 5.68641 -0.393403 0.401615
472 1 -13.8782 -4.1112 17.943 -2.14359 3.30052 5.02543
473 1 5.7595 11.9605 11.2932 -6.17787 4.77522 -1.94658
474 1 1.38987 -6.61537 -10.5691 4.66879 3.77476 -0.0310578
475 1 21.3468 13.3099 -20.3891 1.47735 -0.65157 3.04331
476 1 -12.4882 -4.3723 -2.5225 -4.50789 -3.09435 0.590627
477 1 -12.9892 -9.13851 -14.6286 2.0814 0.176968 -2.54342
478 1 2.95228 -0.39134 -22.7508 -0.992102 -6.84306 -3.09719
479 1 13.8632 -18.1514 14.348 1.72808 2.63053 -4.69279
480 1 1.59838 -9.96152 10.4596 1.50932 -5.6842 4.22056
481 1 -2.90162 7.50813 -20.034 2.95422 -2.8843 1.28586
482 1 -22.5347 -2.21855 21.4509 -0.465106 -1.00205 -0.330427
483 1 6.86629 -17.6262 -0.691174 0.96958 -0.0610392 -3.31794
484 1 22.4201 -13.4487 -13.7145 1.38225 4.25355 4.82008
485 1 21.3866 -20.8189 -18.0281 -1.73636 1.89276 0.838805
486 1 16.0244 3.30685 -5.64031 3.23485 -0.0352134 5.03763
487 1 2.59678 24.3876 17.2452 -1.49171 -7.793 -2.99664
488 1 -1.42178 -14.343 21.2738 -5.64863 -2.18256 -2.30292
489 1 -12.421 23.3385 -12.5889 1.88805 -6.20675 -2.21988
490 1 16.3413 -16.8675 -13.181 -5.11563 -1.18843 0.534286
491 1 -21.1685 -13.1569 9.7654 4.56918 1.56781 -1.36525
492 1 -16.3193 -16.9161 -11.5561 0.0536933 1.95879 1.32554
493 1 12.7334 0.416728 -15.203 7.75876 2.08303 -0.355929
494 1 8.90911 0.529951 3.96151 -1.38363 -4.29827 -1.20161
495 1 -3.56447 -8.57009 -5.24186 -0.350487 0.0892799 4.98469
496 1 4.69981 6.85552 -11.1955 -0.214926 -3.83532 -3.04936
497 1 10.4568 17.2375 23.67 -0.452998 1.07474 -1.43823
498 1 21.8271 -0.295863 -23.3399 -4.79155 0.89392 0.698528
499 1 -23.9231 1.90898 -9.32531 -1.64102 -2.99654 -0.853965
500 1 -5.41496 -17.6866 9.41558 3.39137 -2.90881 -5.12116
501 1 -14.2044 -11.3468 -7.6338 2.61737 0.0103593 0.556492
502 1 12.0656 -15.0653 17.9634 -0.396824 6.10892 -7.95415
503 1 9.4394 0.743399 -11.2378 -0.866479 -0.130788 -1.36476
504 1 -1.09909 6.5342 5.29107 -1.99652 -0.43335 1.40508
505 1 -3.27207 10.7471 -23.0179 -2.65792 -0.202578 -4.51291
506 1 0.235579 -22.8914 -17.1016 -0.275537 -1.32895 -3.99018
507 1 13.7343 21.7421 -15.2693 4.93536 3.44773 3.93995
508 1 -3.14986 22.5788 -11.7106 1.49666 -2.51759 -3.39731
509 1 21.5677 13.4186 -16.4383 -1.33796 -5.88236 0.784206
510 1 9.21912 -15.9784 17.1933 1.52884 -2.04383 -0.710314
511 1 7.69247 -14.6525 3.13096 -0.756771 1.25578 0.211899
512 1 4.36881 -2.68274 19.1923 2.56548 3.35469 -1.76653
513 1 -18.3155 -14.6388 19.9882 -2.69089 -1.44287 0.375085
514 1 -14.9942 20.999 20.0149 -3.51035 -1.88652 -0.42678
515 1 -2.18738 7.75173 16.2786 -1.57962 -2.30029 -1.46138
516 1 9.86806 -24.0914 -3.69081 1.70556 -0.282304 1.4908
517 1 -16.2861 -1.84914 -20.9664 0.704939 0.20705 -3.13247
518 1 23.2719 -22.9742 1.96681 -1.0813 -1.76642 -0.786192
519 1 -19.6796 -12.8292 -7.77966 2.5648 1.37534 -0.0360478
520 1 -5.695 -23.4541 -14.3668 -0.927864 -1.9155 -1.22222
521 1 -9.95644 23.0595 -6.70236 -5.07736 2.00423 -2.3299
522 1 3.14372 -16.0014 6.51149 1.40206 -0.078208 -0.402248
523 1 -10.8483 -17.2563 -5.44328 3.68243 -1.98705 3.07417
524 1 -0.331094 -2.36554 18.2489 -4.08586 -2.66274 -3.87796
525 1 -8.08241 2.05493 -3.87714 -2.89267 -1.44885 0.607205
526 1 -19.2726 16.0686 -3.45705 -4.23589 4.44769 -2.52993
527 1 -2.54971 12.676 -7.24577 1.69216 0.706308 1.15647
528 1 -16.7925 17.02 -12.0918 -0.373339 2.63976 2.7822
529 1 -8.60345 -12.902 6.22311 -0.606326 0.957784 4.68306
530 1 -9.38895 1.8009 12.1168 -3.64708 -6.52896 0.873092
531 1 22.0241 -8.33891 13.6718 -5.73035 -1.52297 5.05629
532 1 -9.77827 -1.40723 -0.0584918 -2.45283 -0.733083 -0.980493
533 1 -8.55697 -19.6029 15.3753 -4.67649 -2.66108 -3.96605
534 1 19.543 8.63563 -10.4068 1.71521 -0.667834 2.3013
535 1 5.77561 9.95831 8.89115 -1.45385 0.95243 0.353804
536 1 -2.02347 -8.52245 3.06267 0.89364 2.71639 -1.85821
537 1 9.21526 -6.07353 1.45671 3.81046 0.34127 -2.91805
538 1 -21.1098 -3.79907 13.9123 6.24486 -0.795972 1.22672
539 1 18.4767 8.6942 -7.78526 2.32304 -5.18649 -0.104217
540 1 -14.4778 -9.96111 3.67232 3.93299 -1.85059 2.38862
541 1 -11.9302 4.01748 18.2543 -0.567135 -0.487894 -3.11398
542 1 -22.9882 6.66488 -6.82087 3.5739 2.60222 0.677763
543 1 19.1842 -17.8492 -15.4146 2.55353 -3.35473 -3.71046
544 1 -2.1663 -20.4179 -21.6264 -3.05761 -1.79794 2.10616
545 1 21.3472 -18.0455 13.9373 -1.97127 3.95833 2.85114
546 1 -6.0492 -16.1305 -14.7767 -2.28528 -2.159 -5.86183
547 1 16.8471 -16.1026 -20.8493 -1.29432 -2.30893 1.69783
548 1 9.99658 2.59321 17.5639 2.0625 6.0065 -4.55099
549 1 -20.4085 -4.97905 7.84171 -5.76196 0.548624 -1.13203
550 1 1.12747 -22.0096 -14.6021 -2.34286 0.965914 0.918274
551 1 8.25551 6.33463 -17.2093 4.5717 -1.78005 2.76081
552 1 0.916892 -15.589 -2.46412 2.19272 0.0595211 5.78088
553 1 -11.1266 7.90669 0.158973 -0.786874 -1.00525 -5.47153
554 1 4.32303 20.3935 -17.8299 1.3141 -2.94807 0.0475809
555 1 -14.8112 -13.7811 -0.653306 2.6978 4.12835 5.62469
556 1 -10.0104 18.2258 -2.26683 0.778718 -2.62843 -6.97582
557 1 11.2273 -23.0432 -11.2787 3.78037 0.467979 -1.94234
558 1 -5.87137 -11.6137 15.2238 1.71274 1.78655 7.29755
559 1 -8.48736 -19.6405 6.19354 -3.48604 -0.45384 3.52813
560 1 23.5353 -21.5994 -4.66589 0.0179905 2.19804 -0.533417
561 1 7.15809 46.0724 18.8067 -1.68169 -2.02205 2.36261
562 1 6.03962 8.56719 -22.8979 -4.43712 4.08748 1.86776
563 1 4.82798 -20.148 6.00959 2.18282 3.94737 -1.88581
564 1 -11.1638 -18.6507 9.86472 0.37907 -1.49346 -1.17634
565 1 13.5708 -20.0679 22.3412 0.820055 6.43001 3.41237
566 1 19.7511 14.9137 13.2264 -2.32838 -3.79125 1.89992
567 1 -20.8686 25.3504 -4.29543 4.32805 -0.337919 2.38383
568 1 4.45672 -8.11566 6.83543 -4.6904 -1.7407 -2.29215
569 1 -6.85578 23.0689 -15.8723 2.26344 -1.92028 2.78852
570 1 22.2376 12.497 15.7759 2.59519 -2.75794 -3.47521
571 1 -2.67269 -13.4171 18.8217 5.75099 -3.03601 -1.69152
572 1 10.3753 46.9093 3.18349 3.53668 3.61993 0.668293
573 1 18.7854 -5.77897 7.27049 1.05498 2.06511 -2.88274
574 1 13.9432 -21.9783 -6.82934 0.0609757 -0.591594 -1.1587
575 1 -14.1506 4.68794 -4.47043 -1.69556 -2.46833 2.14568
576 1 19.6097 -1.59673 18.3637 -1.92082 -2.84136 3.02913
577 1 -8.18834 20.8358 -0.115134 -4.35381 -0.185018 -1.50338
578 1 23.274 19.4931 -19.7414 -3.15957 -2.65885 3.66442
579 1 2.8442 -20.335 -11.0509 -0.532131 2.41403 -5.39376
580 1 -4.61687 2.1772 -20.2502 4.5153 -3.36803 0.961101
581 1 -16.4973 -9.04585 15.35 -2.26351 5.42642 1.66736
582 1 -1.59737 -11.9291 -18.1057 1.42369 -1.4418 -3.03717
583 1 -23.0819 23.6396 12.1998 3.31666 -2.78698 0.857378
584 1 15.9754 3.71474 -8.5287 -2.35928 2.74406 1.09287
585 1 -7.52735 11.974 16.0963 1.54964 -0.435566 0.157316
586 1 17.205 23.4222 -20.4402 2.96167 -4.32935 2.80898
587 1 -21.6104 46.7168 -12.2619 -3.79172 3.53538 4.83496
588 1 -20.6201 22.4957 5.89461 -2.54315 2.74099 -5.41673
589 1 -0.719814 2.53005 -1.01391 2.72314 -1.20379 1.22063
590 1 -5.07648 18.3582 19.7 0.697934 2.2821 1.49562
591 1 21.0878 -20.4663 12.1122 0.793985 1.07691 -3.57574
592 1 -16.3331 -13.6678 8.96377 5.98499 -1.34456 -4.08573
593 1 -13.4582 -20.0797 18.2011 5.63276 6.70502 -3.55837
594 1 -19.431 0.118839 2.27131 -2.871 1.07109 1.8091
595 1 9.65592 -17.0794 -22.8304 -2.78903 1.28048 1.84618
596 1 -11.3113 -20.0529 5.51495 2.81441 2.222 -1.20107
597 1 -24.1848 46.2136 -13.055 -3.75096 3.84117 -0.575851
598 1 14.4589 -15.2379 4.63014 -4.2929 0.693792 0.861758
599 1 11.2016 -13.7674 12.1497 -1.72374 -0.878092 -4.45132
600 1 -23.0829 22.5934 17.2208 2.47666 -2.62268 -4.74188
601 1 1.40519 -2.17277 20.5971 2.92355 2.76161 -1.43637
602 1 -10.2312 6.01037 19.6293 -1.50063 -3.73446 -1.66666
603 1 -4.92154 6.46939 -2.84182 5.14409 -3.80275 -4.38044
604 1 1.05961 25.6245 -23.6737 -5.68687 5.51874 1.41215
605 1 -17.125 -1.13706 17.1496 3.19563 -1.41442 2.29099
606 1 2.43464 -2.07133 -20.4975 9.68878 3.45104 0.716397
607 1 1.02303 -1.42896 16.0453 -6.14558 0.396249 1.88069
608 1 4.09784 7.1945 -8.59212 0.9296 3.04995 -1.66808
609 1 10.5159 -21.1942 23.0419 -0.305888 2.37287 3.19151
610 1 14.8561 -6.38885 16.7591 -6.49774 -0.271387 -3.35535
611 1 -2.66311 -5.77806 -4.96554 4.51598 1.3743 -2.24371
612 1 -6.31721 12.1895 -16.2515 3.47621 1.70765 -0.921997
613 1 13.0423 8.5564 -21.0524 -1.09597 -0.0229634 3.57806
614 1 -16.7697 -9.41946 -4.59218 -1.41864 0.0191169 5.72832
615 1 10.3971 -4.85866 20.7885 -0.311048 -1.83794 4.21698
616 1 15.8813 -3.7251 20.9379 2.31993 1.58663 1.56813
617 1 -12.8326 22.1515 -16.4664 -0.247835 6.19668 -2.60417
618 1 14.7246 6.89574 9.67231 0.191104 2.64252 -3.76196
619 1 16.4149 2.09483 11.6393 -3.71341 -5.62049 1.4893
620 1 19.212 -13.9556 -7.42886 1.738 3.3688 -4.69726
621 1 -8.16319 16.2621 -14.1988 -0.459742 -0.35151 -1.11687
622 1 -22.2176 -9.29318 1.58068 1.60262 -2.86972 1.30113
623 1 21.3656 -15.0866 4.96487 -1.20747 -4.14517 -1.85689
624 1 -7.12058 2.49172 -21.5185 -1.78685 2.24918 2.17484
625 1 -1.43826 -9.61447 -3.5837 -1.9548 6.25603 -0.0541518
626 1 -3.52729 4.09934 -18.2632 1.23937 3.50246 0.474172
627 1 21.6214 13.1874 11.8496 -0.800862 2.02424 -1.88365
628 1 -20.9506 -15.6268 -1.82405 -1.42446 3.07076 2.68453
629 1 -5.83186 11.5834 -4.22589 -2.64974 -0.991863 -1.45736
630 1 -24.3289 23.9475 9.42151 1.40968 6.00531 2.78788
631 1 -5.11401 -17.6423 17.9083 4.38397 -0.503638 5.32593
632 1 -13.8326 -19.6673 1.88887 4.48184 -0.591326 0.458139
633 1 9.07638 7.73037 22.9395 -1.55443 4.75398 3.76924
634 1 -7.14784 -0.636605 16.2322 4.26587 -0.995891 -0.357203
635 1 10.9119 13.3772 -5.46831 -3.05101 -1.74795 5.20691
636 1 -23.207 3.328 -14.791 -6.83201 0.602519 3.12329
637 1 -8.37513 -22.7004 -21.7154 0.825079 6.13145 1.38302
638 1 13.5972 19.0653 -5.88184 4.60901 1.88247 4.11004
639 1 -11.5551 -16.3744 -22.2094 -5.0291 -1.26885 -1.3269
640 1 0.499233 -0.352495 6.24896 0.256254 -4.49523 -2.83945
641 1 -14.6344 20.0088 6.02418 -2.20821 -6.94996 0.292317
642 1 -7.46278 -1.78877 6.35397 -1.91191 -3.75267 -1.91298
643 1 10.0167 -19.7823 5.95578 0.582684 -4.45604 -1.56168
644 1 -7.52605 12.7537 -2.32413 -2.52698 4.66202 -4.67372
645 1 -10.4873 -9.56907 -18.4382 -2.77727 -0.390098 -1.07165
646 1 14.8521 23.84 15.2734 -2.54732 -6.12838 -0.0701009
647 1 6.74535 2.83719 -3.38107 -1.99997 1.4244 -3.75477
648 1 21.6713 -15.7206 21.2194 6.5129 2.70513 4.94766
649 1 10.1802 -18.3038 18.695 0.988791 1.76894 -1.88247
650 1 -9.39061 3.00408 19.884 1.98624 -0.0967031 -3.05319
651 1 -22.2702 4.70144 -11.0808 -2.58163 -5.26204 0.0185192
652 1 -8.22542 -4.13387 -17.0212 2.42805 3.06804 0.626592
653 1 -22.9084 -19.9946 -15.925 -0.124632 -3.46834 5.29148
654 1 -11.9261 0.373323 -19.6918 -1.36644 -0.654583 -2.90318
655 1 -4.65762 -10.633 -11.2141 -1.67367 -1.16748 3.37636
656 1 -0.115914 21.0526 -8.33805 1.89092 1.08454 -3.19551
657 1 -2.13646 -3.5172 -11.5667 3.07421 5.4033 2.50437
658 1 18.2033 11.5263 12.4684 3.72673 3.12157 -2.93617
659 1 9.84845 1.07776 20.6177 -0.644381 -1.72301 0.461098
660 1 8.34285 2.93714 5.8679 0.770603 0.654865 1.12725
661 1 -18.6033 -7.16501 -16.9009 -1.28891 1.70547 -4.11254
662 1 5.02797 -6.15286 8.96356 -1.5978 2.75944 2.57901
663 1 -12.1935 -18.8711 -10.649 1.6547 1.28336 -1.78347
664 1 -15.8195 -20.059 10.6506 -4.38653 8.23571 4.73274
665 1 -1.85789 -5.36152 16.6752 -3.73918 0.624154 -1.0567
666 1 -8.84852 -6.63023 -10.8456 -0.0405079 0.932774 -5.38153
667 1 -21.4446 -20.1165 23.4283 1.42021 -1.03365 3.03716
668 1 -9.60159 14.7823 19.4412 -0.218451 -1.16198 -0.723626
669 1 9.63407 -15.0389 14.21 0.759151 0.215985 -2.27441
670 1 0.766518 -12.7184 -2.13371 -1.46092 1.33271 4.04367
671 1 20.9955 14.7201 3.67525 0.809267 0.592511 -1.14961
672 1 -24.364 6.45678 -11.095 0.897851 -3.11027 -4.46176
673 1 -2.00154 21.8554 23.8923 3.9701 2.48483 3.51839
674 1 -8.83779 0.442134 -22.5836 1.61195 0.56819 5.24302
675 1 -22.4206 -11.5709 -8.27038 -8.33376 -2.76498 -3.91832
676 1 5.94777 0.904691 16.9214 0.248262 -1.20761 -3.73504
677 1 -22.7284 -10.6971 -10.9289 -0.566955 1.14967 2.91189
678 1 -19.4006 -5.65634 0.781631 2.70126 -2.67563 -4.41414
679 1 -19.3406 3.54393 -8.28331 -0.258616 -1.26942 -0.656891
680 1 8.44524 20.3048 -8.6944 -1.28333 -3.7053 1.67263
681 1 -3.16477 0.937672 -7.73188 2.60931 -0.967215 -6.60848
682 1 -3.78976 20.1279 -7.54273 -4.67744 0.737081 -0.326584
683 1 2.07035 10.6594 -16.4422 0.198132 1.94061 2.89323
684 1 11.0547 -20.3666 -11.9155 0.453661 3.61753 -6.10537
685 1 21.0889 0.237347 7.21417 2.37585 4.25003 -2.21177
686 1 -12.8152 -0.54364 18.7088 4.61753 -1.59135 2.90545
687 1 -16.5646 7.32807 10.8724 -4.49183 -1.66546 -3.00375
688 1 -10.1826 -12.6466 -14.654 -4.67891 2.35293 -1.88194
689 1 -1.32165 -1.04734 -4.0667 -2.23464 -2.43957 3.01979
690 1 -1.56761 19.9023 -5.78164 2.19869 1.33146 -4.36492
691 1 -0.173821 7.57301 14.1968 4.35587 2.79006 -0.815884
692 1 -9.31828 -3.74958 4.92641 -3.79521 4.2674 5.71202
693 1 -9.66523 23.4264 2.84983 -1.6383 2.42389 2.17264
694 1 10.2426 -19.6068 0.965032 2.26539 -1.08444 3.77808
695 1 6.47805 -11.2042 -7.46234 -2.33039 1.70448 3.86194
696 1 -7.75152 -21.7767 7.89181 -5.04304 -0.65596 2.76548
697 1 -19.88 16.1137 -19.2036 0.544461 0.293826 1.94383
698 1 23.2764 -11.8922 -4.81767 3.14546 4.90945 -2.23532
699 1 -14.5825 -11.0685 15.3442 -1.95092 -1.02949 -1.80358
700 1 3.32489 6.25709 -21.5006 2.41174 -0.124978 -1.61312
701 1 15.0712 -2.16983 8.13042 2.83093 1.68789 -6.36063
702 1 -14.3911 -2.73374 13.1199 0.481303 4.2693 0.91931
703 1 7.38254 24.2018 -19.8998 -2.65336 2.2699 4.14537
704 1 -11.2516 -10.5031 9.14982 1.73375 -0.494645 -2.2382
705 1 5.8342 20.2597 -15.2033 3.31372 -1.19518 -5.14908
706 1 4.64122 2.61757 19.1361 -4.38563 -3.06185 -0.42254
707 1 -17.999 -1.04009 22.3625 -0.407327 0.665179 -3.31155
708 1 8.43049 -5.46314 -17.0677 1.10986 2.06431 -4.47531
709 1 -9.99679 -3.28168 -6.32276 3.73531 -0.158653 0.153199
710 1 -3.69091 -10.4184 13.9544 -0.830577 -6.24588 -1.44504
711 1 -15.4833 -6.14773 -14.5361 -3.92878 2.44135 -1.56204
712 1 3.79822 -11.1242 13.7993 3.31583 1.3291 -3.41465
713 1 4.32742 3.55135 3.22641 -2.07733 -1.7039 2.03419
714 1 18.1517 -6.40038 -14.0723 0.869042 2.16294 -0.83445
715 1 2.61741 16.646 12.2174 -3.05522 3.344 1.44759
716 1 0.663759 -22.5342 9.703 -2.35784 0.0150906 1.27246
717 1 -13.1644 -4.27383 -14.628 -5.11655 1.6216 3.09159
718 1 -12.0175 -6.29921 5.64058 4.83246 -0.186231 3.73312
719 1 12.8995 -9.18972 11.18 3.27006 2.18675 -0.161177
720 1 2.61253 -6.58357 -20.9685 0.568563 -1.61474 -1.81966
721 1 -10.6396 -10.2388 -15.5138 2.00352 -5.16056 3.806
722 1 6.53154 -21.5025 -12.7651 -1.05811 4.05795 -1.48046
723 1 -21.228 15.671 -5.66776 1.34906 -0.31255 -0.478639
724 1 -7.76275 20.3767 -10.8835 -2.40175 -0.782924 5.87744
725 1 4.75274 17.9592 -22.9925 0.208024 -2.63223 -1.20631
726 1 -4.84954 -7.50039 22.0145 -0.898729 2.04736 1.24411
727 1 6.0984 -3.47654 -12.5664 -0.519807 8.1521 4.21336
728 1 -10.2349 16.6351 -8.93822 0.915757 4.44245 -5.0662
729 1 -14.9381 13.2546 16.8771 -2.0488 0.771323 -4.72689
730 1 16.0278 -21.6443 -19.5042 -1.79225 -2.62328 2.12365
731 1 -12.8286 13.5913 -22.8046 1.34436 2.66491 3.45473
732 1 13.2421 -23.2044 -9.28259 -2.06387 0.256718 -0.278893
733 1 -13.4795 -17.9577 5.42643 -2.8594 -0.377627 -1.96974
734 1 -18.3791 21.3468 17.2231 0.38156 0.750506 -2.09127
735 1 16.823 9.83675 7.00787 -0.691517 -0.265197 5.20839
736 1 4.3237 22.9529 -6.36206 -1.18851 1.84538 -0.242918
737 1 22.1713 -18.2143 6.5697 -5.1178 3.47065 0.826811
738 1 -11.9869 7.31472 16.1641 -3.01042 3.23759 0.236413
739 1 -17.4047 -20.7672 0.678558 0.635296 2.61111 1.66392
740 1 16.8626 11.5868 20.6495 -5.67575 1.86656 -1.73047
741 1 -15.3582 -20.1816 -15.2045 -0.118762 3.73927 -0.246491
742 1 -5.03351 -23.3015 20.4889 -4.02909 6.3253 1.31898
743 1 -24.372 20.2293 1.93459 -4.37383 -3.62988 4.34066
744 1 8.20543 -12.2734 -12.799 -7.12943 3.03213 1.02654
745 1 -22.1844 2.05942 20.3608 2.60275 2.79459 -2.3644
746 1 -15.1486 -5.59663 -23.6713 2.27206 -1.97617 -2.02067
747 1 11.3038 -11.2914 2.51597 -1.0239 1.89434 0.692837
748 1 -9.84523 -20.8144 21.4775 -2.44121 -0.120194 0.251214
749 1 1.29592 14.0907 8.36297 -0.561598 -4.92639 -2.54006
750 1 15.3457 -5.66167 -13.9235 3.90889 -0.84406 0.133677
751 1 -18.9963 10.1195 -15.5531 -2.34447 2.44715 1.98869
752 1 -24.1132 -20.2494 5.15565 -1.14888 -1.22363 -2.50187
753 1 -15.4713 -17.626 21.4039 1.06779 0.0841323 1.44721
754 1 -13.2135 25.6435 15.7137 -0.939405 1.65851 -1.60303
755 1 11.1638 10.4298 -22.0834 -1.47325 3.57576 -1.0758
756 1 -5.96065 -2.20785 -1.23966 1.28638 0.381316 -2.95727
757 1 -17.4895 13.7512 -3.26904 4.70413 2.16332 1.12608
758 1 -14.4905 -15.0399 19.8106 0.485019 -0.362536 6.73895
759 1 0.496722 14.4598 -10.9484 2.57017 1.59074 -0.324255
760 1 2.58347 6.68401 12.7553 -1.98117 -3.36381 5.03796
761 1 -11.0844 -12.3234 -7.46423 4.19333 -2.79348 -2.17877
762 1 3.74633 19.2038 22.6991 -3.28086 0.964911 7.3696
763 1 16.4932 5.08997 8.40012 0.719001 2.99354 2.83365
764 1 22.1221 2.75241 8.75773 2.62802 -0.624368 -2.87554
765 1 21.1283 8.16148 8.95053 0.553239 -5.06673 2.2753
766 1 -12.3677 17.566 -15.4696 4.16626 -2.98035 -3.47399
767 1 -1.08634 -12.9597 0.121617 -0.382942 -1.01178 0.167608
768 1 -7.96809 10.0733 10.1165 -3.63727 1.09392 2.65075
769 1 13.8248 25.5871 18.8083 5.81146 -3.90431 -1.22596
770 1 -4.74565 21.7668 -23.3319 -0.26408 -1.37968 -0.0345235
771 1 10.9982 -17.7386 13.3623 1.34855 0.435429 -5.71876
772 1 7.13057 7.83738 6.74117 -1.41951 -0.28198 -2.55234
773 1 11.8328 -21.0229 11.8768 -1.32795 -1.13101 -0.967393
774 1 16.4056 18.7385 12.8758 4.99902 -2.11956 0.0957396
775 1 21.3514 -18.4228 -11.8009 0.977454 0.732711 -0.446601
776 1 8.72851 0.115075 -20.8459 1.06984 -0.6486 -1.29757
777 1 21.1442 -9.67396 -9.95823 -2.9222 -1.2094 -2.00317
778 1 2.17504 -18.811 -18.6423 0.580142 2.67803 1.94544
779 1 6.11509 -0.752164 -6.79012 -0.773795 -0.627378 -2.81136
780 1 -6.25207 -8.31018 -19.0756 -3.91425 -0.0207203 -1.75184
781 1 -19.931 3.39939 6.37203 -3.58422 1.75897 0.655548
782 1 18.6738 -9.36888 -15.2375 0.26041 -0.893788 2.17009
783 1 3.2662 -15.2229 21.3119 4.61811 -2.22274 3.84665
784 1 12.5141 16.3101 -3.02863 0.175866 1.16375 4.88764
785 1 -2.11858 22.7276 21.2862 -2.15927 -4.4164 -1.24165
786 1 -22.1687 22.1224 22.2046 -0.0424701 1.37515 -1.76862
787 1 10.7536 11.9242 -12.3121 -0.0158713 -3.48854 -4.43305
788 1 -19.6536 7.97537 5.16309 3.91244 -3.3889 0.780502
789 1 -14.6457 19.7558 1.05323 2.23017 -2.2099 -6.64185
790 1 3.7306 -0.937161 17.0368 3.72241 -0.759462 -1.40927
791 1 -3.5362 23.2741 15.1744 1.38163 -2.99725 -3.97103
792 1 -22.0231 13.6439 -7.77641 3.22217 -2.69422 -2.39738
793 1 23.3063 -9.74232 0.850042 -7.98076 -2.3852 2.14491
794 1 6.29427 15.748 -23.2327 -0.935655 -0.265237 -2.31648
795 1 21.9411 -8.8649 20.9766 -1.71121 -1.63553 -7.96967
796 1 -11.2582 -17.2197 -15.0397 1.40195 -0.450503 2.64824
797 1 -19.0188 -12.1326 12.5099 -0.509531 -0.0912546 4.66598
798 1 -15.9671 1.72254 -5.82671 -4.17559 -0.121178 0.633461
799 1 -9.3464 17.9881 -5.00304 4.14312 0.513339 4.21672
800 1 -18.2616 -10.9539 16.9641 1.86804 1.52344 4.4147
801 1 19.948 13.4399 -1.30417 -2.01305 -2.05912 -3.21064
802 1 -18.9236 -21.1123 14.9702 -2.14168 -3.6833 2.58565
803 1 19.5417 -10.9525 -7.85648 2.20669 3.13349 1.32437
804 1 8.70141 -18.6828 -11.2922 5.57134 1.38967 0.292284
805 1 9.55686 24.5444 23.6979 3.1415 -0.929814 -3.38653
806 1 -0.0244536 -13.225 13.1256 0.738469 -7.2296 2.06218
807 1 15.9684 22.7624 -22.7483 5.71019 1.38589 0.0860375
808 1 -0.110649 -19.7225 -10.4165 1.22436 -1.94041 -1.60405
809 1 -5.60853 24.0303 -18.2574 0.126485 -3.66946 3.19641
810 1 -20.6711 -13.8577 -5.07329 -0.600034 1.84054 -4.18267
811 1 -13.3824 -5.64373 -5.83026 -2.2329 0.155629 -4.58934
812 1 2.69063 -13.0187 -8.61281 -4.82928 3.45506 5.80484
813 1 -15.3968 23.542 -17.1961 -6.74594 0.589714 -0.33452
814 1 -20.7454 -0.471868 -1.87905 -1.29939 4.37956 -1.09376
815 1 -19.255 8.29738 -17.9529 -2.60263 -0.660055 -0.642169
816 1 21.5796 -18.4423 17.6913 -4.49842 0.846581 0.458787
817 1 9.5229 -8.55281 16.5331 0.671694 -0.535875 1.40777
818 1 -9.05205 8.85397 21.9529 0.186906 -2.71832 -1.41163
819 1 10.0521 13.6499 20.6873 6.89258 -3.84608 -1.72221
820 1 4.12205 13.9394 7.63523 0.880696 -5.2812 -0.950877
821 1 -24.1448 -23.8036 -22.5383 0.696365 -3.43607 -4.84982
822 1 20.3422 -15.4893 14.8718 -2.38691 0.634478 1.35839
823 1 6.04047 -10.6011 3.6369 0.272406 1.52581 0.100885
824 1 4.31587 -20.4241 -7.06801 -1.09223 -2.3452 1.79384
825 1 23.1422 2.67563 5.21162 0.908385 6.40921 -3.62573
826 1 -12.3378 6.52407 -3.16549 -0.658473 -0.664551 3.55459
827 1 -2.62248 -0.431603 5.90823 -0.0486176 -4.36838 0.701739
828 1 -6.64307 -19.8418 12.9993 3.23905 -1.96427 -2.78087
829 1 19.2133 17.3725 21.8294 -7.56348 1.84467 -0.772044
830 1 -9.98807 -8.41041 19.795 -0.274242 -5.03324 0.573658
831 1 -0.719426 -13.6572 24.0654 0.583666 -0.527515 -1.0975
832 1 -7.0536 -4.27926 13.0501 -1.635 -1.69301 -0.612072
833 1 -11.5727 -5.07912 -8.12849 -1.38317 -2.87998 -1.80494
834 1 1.91946 8.97343 -0.797963 3.8247 2.83361 7.87588
835 1 2.17389 10.074 -19.1925 0.771994 5.20616 -2.61024
836 1 3.91818 -12.9941 19.9648 2.04405 -4.26706 -2.66593
837 1 -18.9817 -15.6784 -6.71721 0.171312 2.95871 -3.39101
838 1 22.5857 -20.2898 1.74185 -3.4723 -2.37242 0.734584
839 1 21.6511 20.723 -6.81977 -0.277877 3.49215 0.872694
840 1 3.96716 -17.8285 13.1448 2.43721 0.539648 0.483242
841 1 18.2105 0.594435 7.5001 0.17946 4.18854 2.92265
842 1 -5.98016 -23.6831 -4.07392 0.571668 -0.901778 2.71353
843 1 19.0564 -4.4483 17.5865 6.40049 0.607989 -1.6509
844 1 19.219 -19.603 -22.1345 1.53284 1.54048 -2.1691
845 1 19.44 7.51295 -1.01049 1.28261 4.33348 -0.959009
846 1 7.81675 6.85363 -11.7026 1.25166 1.5187 -1.26709
847 1 -15.5095 46.9644 -13.6904 2.61861 -0.959307 -3.04813
848 1 -4.5824 17.0997 -14.2241 2.23997 -1.47059 -6.92058
849 1 -24.25 -13.466 -9.06009 -3.90151 2.52216 1.36059
850 1 15.1336 -21.1861 -22.1161 1.0862 1.61169 -0.657822
851 1 -23.6095 19.4192 -13.5864 2.87799 4.15476 0.601706
852 1 12.4519 -3.83136 -1.97467 -5.05291 4.11059 -4.94144
853 1 12.4008 11.6531 -16.5803 1.85259 -0.490394 -1.34647
854 1 -23.8483 -13.4102 2.79938 0.80231 4.81921 -4.96718
855 1 -16.3023 24.5307 -19.8035 -1.65192 2.96694 2.06015
856 1 -21.285 -3.77619 -8.41099 1.20758 5.48058 4.7359
857 1 -24.458 -5.22232 11.3399 -2.60116 -1.05591 -3.75162
858 1 16.264 -12.8938 14.7755 1.15211 0.614699 2.83629
859 1 -13.8564 -6.86641 -0.0693062 1.81123 2.81879 0.686952
860 1 9.4851 -9.42057 -15.3304 -4.39781 1.35427 -4.97548
861 1 -23.8671 21.3617 -11.6612 1.95463 -2.21054 -1.69506
862 1 0.0496828 13.9187 -6.9835 -3.96203 1.7297 -4.23856
863 1 17.9327 -18.146 5.85961 1.19048 -3.60774 4.94928
864 1 -16.0578 5.32907 20.3128 -2.32067 0.0166788 -1.7076
865 1 -0.97666 -21.2608 11.7522 -0.331067 -4.20506 3.40086
866 1 14.4766 -3.10482 18.5199 2.47654 1.38211 -2.63512
867 1 -0.976447 12.7572 18.513 -0.447663 -5.37746 1.77703
868 1 2.27 18.4103 -4.02119 -1.33121 -0.29486 -1.08709
869 1 1.02413 15.7122 2.11617 -1.06448 -3.60521 -0.278696
870 1 13.7618 19.9758 17.6793 1.9654 0.74881 -3.68432
871 1 6.74879 7.59398 -19.4258 -0.232958 -2.44175 -1.27647
872 1 -3.03664 -4.76118 -21.7389 0.563996 0.821081 0.483253
873 1 -4.55716 -0.95467 23.8944 -3.51757 -5.23481 -1.81994
874 1 10.8036 0.173867 0.059906 -2.67896 -1.46649 3.55987
875 1 19.4854 12.641 9.91555 -2.35658 -2.5082 -1.94242
876 1 13.6879 -14.8326 -8.51406 3.03897 3.83121 -1.02701
877 1 3.10836 -18.0115 17.1114 -1.05491 0.206903 1.01424
878 1 8.7351 12.8234 -23.7552 -2.75796 -0.323705 2.06744
879 1 17.2357 6.2201 -18.468 -0.978339 5.78448 -0.616729
880 1 5.11246 15.2566 19.0798 0.201132 -0.486568 -4.57011
881 1 0.269475 -5.02346 19.1014 -0.567644 -3.35523 -1.80996
882 1 -12.5158 -2.35555 -0.69335 3.73686 -1.89916 2.17876
883 1 17.8535 14.8348 -7.55652 -3.26089 -9.89437 1.53573
884 1 16.7749 -18.8638 -16.8518 -0.720591 -3.40421 -1.22027
885 1 -3.32606 -19.1229 -2.99806 -7.42451 -0.349904 1.26359
886 1 -6.87944 23.8317 4.74208 2.22003 -0.216231 1.98684
887 1 10.0848 47.2457 18.9239 -5.66671 6.13524 1.98303
888 1 -9.24726 16.6963 -17.2585 -3.40448 -4.22797 -2.32554
889 1 -14.5304 0.0595221 16.3784 -2.84187 -0.184028 1.38678
890 1 14.0233 -20.8836 13.5416 -3.20393 3.98688 -0.484557
891 1 -21.9649 -2.23693 4.77062 -1.58846 -1.38178 -0.601399
892 1 3.40732 -10.7477 -4.22495 0.47277 1.25864 -2.30969
893 1 21.2384 -7.1327 3.16443 -1.8156 3.79605 -2.61382
894 1 1.33752 15.2452 21.9476 1.0103 1.23022 1.73783
895 1 2.53208 -23.8682 6.2559 -2.17342 2.87149 0.0175672
896 1 10.6272 -1.73025 20.0417 -5.86805 -2.60622 0.60065
897 1 -11.4848 -23.0515 9.87489 -0.324315 3.14444 -0.494754
898 1 16.4844 0.0730202 -23.0974 0.667635 -1.12041 -0.660157
899 1 13.7097 -20.0523 17.891 -0.137173 -3.79046 1.92471
900 1 -14.3872 -14.7679 -12.1248 1.35419 1.94055 0.666246
901 1 4.76394 -22.3233 7.8512 -2.73557 2.6332 5.48998
902 1 -7.88207 15.5485 0.715377 3.39497 -9.96835 4.04627
903 1 -7.60904 25.69 -19.2805 -3.36456 1.8724 -0.401878
904 1 -8.70856 -5.74331 -5.33323 -0.631083 1.6361 -2.00894
905 1 22.9116 -7.8998 -23.1342 2.76703 1.31197 1.30312
906 1 -6.92218 -22.6231 18.4715 5.31755 -2.65737 0.345916
907 1 -16.702 1.79339 -11.1549 -4.33293 -1.92936 -3.68028
908 1 -8.06561 -17.3408 12.2856 -0.162466 2.28594 3.96583
909 1 16.5314 -23.6053 10.9006 -2.56653 0.744174 0.493927
910 1 -9.68154 5.45083 -3.5011 -2.50908 -0.00841255 0.15426
911 1 -1.8127 15.2059 -22.2028 4.4337 -3.14104 1.29522
912 1 -15.2514 22.4737 -7.37039 -0.447405 -0.929918 2.2149
913 1 -3.66523 21.06 17.367 -4.23651 -3.48407 -3.31522
914 1 -22.9091 16.0983 9.4584 3.58261 -3.07509 -0.1518
915 1 13.2534 -7.37191 -15.3554 0.400206 1.80055 -0.79357
916 1 -16.7199 -16.0806 17.9728 1.57757 2.04563 0.976456
917 1 -24.5676 5.0209 -22.0576 0.83366 3.31687 3.32833
918 1 -4.67635 7.19562 1.6116 -1.63734 -3.84698 1.25119
919 1 -9.63198 16.9165 15.0711 2.25452 -5.8612 -0.377514
920 1 2.72605 13.6883 -22.1007 0.478318 -3.48761 3.91859
921 1 9.71683 -8.74929 -19.5838 -2.21554 2.35099 -0.443131
922 1 -12.1196 3.07227 -18.7802 -1.8799 1.77348 -7.61017
923 1 1.67841 -11.3345 2.34209 1.80163 1.81312 -0.193363
924 1 -7.21577 18.0197 4.90638 1.76002 -1.35619 2.97984
925 1 2.60056 9.85022 -3.40853 -3.05555 2.05022 -3.28781
926 1 1.44132 -15.1 8.49025 -2.44137 0.696405 -2.65804
927 1 7.78152 14.067 18.7888 -2.16009 1.58061 -5.75097
928 1 9.07891 -18.7498 8.93869 -0.151004 -3.95506 1.33312
929 1 -7.23088 -13.8943 -5.451 -3.00992 -1.30851 2.37981
930 1 -18.5158 -16.4797 -13.4475 -2.12243 -4.0505 -2.48072
931 1 18.4111 -1.57324 -8.23728 0.0571587 -3.55751 0.622637
932 1 -18.2918 17.3497 16.1584 -8.13319 -3.92083 -1.83726
933 1 -15.9792 -20.8219 -22.7227 -1.89161 -1.58272 -2.76234
934 1 0.0419295 18.4527 -22.5478 3.86292 -0.804958 0.576646
935 1 23.1738 -11.1487 -1.89828 -2.67994 -5.91497 -0.194512
936 1 7.74819 11.927 14.9063 -0.989793 1.4574 -6.21217
937 1 4.11974 16.5431 21.4237 -0.855283 -0.999238 4.29667
938 1 17.8367 10.1882 4.36745 -2.96044 5.26664 -2.31975
939 1 -7.0168 -12.7659 -18.7746 2.49705 1.08541 1.91122
940 1 21.4524 1.51202 -9.89529 2.41183 -0.0585363 -3.26376
941 1 -22.1849 22.6381 8.12649 4.0819 -0.400892 0.898286
942 1 -5.13952 -16.1251 -17.542 -1.66835 -0.638563 -2.0928
943 1 17.6486 -6.82036 2.72652 -0.426636 1.4289 0.105247
944 1 -16.4561 -3.17416 -23.3701 -1.86249 3.66256 -5.48954
945 1 5.28809 46.2939 16.7221 -4.42367 -1.28227 0.212873
946 1 -14.5935 -7.36544 4.89521 1.97528 -0.901379 -0.457192
947 1 -11.0463 17.1277 19.4933 -0.0320276 1.08126 11.7546
948 1 -21.0599 5.92338 -4.70783 6.15994 -4.40145 -3.21182
949 1 -1.60281 14.6118 20.8863 -4.04672 2.41582 -0.86569
950 1 -20.9746 6.87258 11.9097 -3.38307 -7.30162 -2.47213
951 1 -10.582 46.3459 -15.3669 -2.3141 -0.287947 -1.47179
952 1 11.58 -13.9967 -10.559 0.207288 3.72697 -4.32661
953 1 17.7373 -3.13497 2.78404 0.160973 2.3385 1.21606
954 1 14.2567 4.78985 -10.8765 -1.62504 -0.283779 -2.3735
955 1 -11.5398 18.831 -18.2663 0.442624 2.7007 -1.22091
956 1 -11.7442 -7.11519 -10.2552 -1.74929 -2.40282 -2.3911
957 1 -2.70473 -3.22568 14.7202 0.896587 0.191043 -2.72329
958 1 3.3035 13.0976 18.1 3.02522 -2.30749 3.03046
959 1 -13.6068 -15.6263 22.6339 2.41772 4.37124 4.86862
960 1 -1.66965 -20.8583 3.93921 -2.03788 -3.91465 -0.0838747
961 1 -5.2201 12.6388 1.35285 -1.19472 -2.28293 0.990784
962 1 -3.64141 6.48524 -7.50314 0.656665 2.47702 -2.18995
963 1 -16.5994 23.3464 -12.2031 2.88983 3.50274 -1.14236
964 1 12.5638 -16.1274 -22.1844 1.50775 2.56679 1.33459
965 1 -13.9975 12.8831 8.71123 2.17754 -0.760845 -0.00216798
966 1 -18.1822 -5.49344 14.7923 -0.459796 -5.75967 -0.858344
967 1 18.5083 -3.38701 -15.3349 1.40204 3.32206 -3.8285
968 1 -1.4849 23.1837 -16.2176 -5.14962 -2.88484 6.62038
969 1 15.9041 -23.8456 1.79557 -1.60347 2.83033 -4.67356
970 1 -4.01824 -23.6181 -9.58657 4.60938 -0.360274 1.95444
971 1 14.0331 -5.80585 21.6668 -3.5489 0.949263 5.04216
972 1 -8.25117 -17.9505 -0.449007 -2.26126 0.738838 3.31784
973 1 -10.604 -1.07406 16.801 -0.697519 -5.15197 0.400993
974 1 -1.08959 23.5859 -13.386 -3.22401 -3.79431 -2.10534
975 1 -9.44214 -10.287 6.6783 2.12699 -1.41433 -4.39493
976 1 -20.0575 -5.54848 11.7775 1.00014 -3.00837 -0.121457
977 1 4.5121 -24.5956 12.5523 -0.466022 1.05167 5.02325
978 1 3.86647 14.6419 23.3935 -5.16029 5.48188 1.86382
979 1 8.90735 22.1544 -18.51 0.757824 2.6908 -3.27164
980 1 4.28376 23.8758 11.7122 1.11931 1.53267 -6.02693
981 1 6.08556 -5.55765 -3.03924 -3.15461 -5.08181 1.16281
982 1 -6.43705 -6.61412 5.06539 0.0903973 -2.41191 3.00189
983 1 -21.837 8.05566 15.8156 -2.70891 1.44906 3.41794
984 1 -14.1012 17.5175 -4.88563 4.75815 -1.77389 -1.23736
985 1 -17.5037 20.0178 11.9946 1.85897 -4.42813 -1.13714
986 1 -1.05438 5.65322 12.172 -4.39207 -2.72198 -2.54171
987 1 -20.2765 -19.1664 11.6594 -1.4883 0.435542 -6.61622
988 1 -9.93172 -23.3523 7.65305 2.85693 -1.53401 1.21687
989 1 8.00571 0.430844 -4.62587 -2.3491 -2.19888 2.23298
990 1 11.5485 -6.55729 11.3995 5.09355 -0.816025 -0.372531
991 1 -6.40859 -6.66939 7.96715 -5.70536 -2.62668 -2.8441
992 1 -21.5546 11.4224 5.0528 -0.826863 -2.22588 0.901559
993 1 -23.4295 0.491702 -22.6051 -3.87487 -1.05967 -2.15606
994 1 22.4341 -15.6431 16.7959 -2.3536 1.76159 5.53604
995 1 6.21515 1.14775 0.30614 -3.45021 -0.435941 4.85046
996 1 22.2962 10.7712 -16.8862 2.59651 -2.80903 1.60966
997 1 23.5179 23.5539 23.322 0.946183 4.15485 3.50947
998 1 -1.74889 11.2711 11.0472 0.390579 -1.97426 -0.57678
999 1 22.972 9.8704 7.39223 2.41221 2.65671 -2.63541
1000 1 16.9971 17.6451 -8.70159 0.655107 -2.00409 3.22477
1001 1 -19.4723 -1.17604 -6.1644 -1.01426 -0.887474 -0.745718
1002 1 -11.7451 -15.4516 2.45968 -1.77005 1.9387 6.5144
1003 1 12.3126 -15.7694 10.6535 0.776395 -0.00627584 4.92071
1004 1 22.6003 25.8306 7.52653 0.952004 -1.60022 -2.63699
1005 1 -13.7948 17.3519 2.23608 -2.36131 -0.198871 -1.41514
1006 1 -23.732 10.4208 16.1834 2.56589 1.29927 -5.13281
1007 1 14.4169 -0.24782 17.3902 4.16713 -5.42601 -0.997095
1008 1 4.47327 -4.994 17.1806 -2.08965 0.589831 1.38254
1009 1 8.86913 -20.4389 3.33011 1.09076 -6.73044 -1.6234
1010 1 -13.7209 4.09174 -9.12166 3.59845 -0.00691033 -1.16126
1011 1 -17.9794 3.11933 -0.987318 -0.045397 -2.91985 -3.28226
1012 1 2.26526 2.83187 -0.735079 2.98371 0.0202007 5.20524
1013 1 6.16767 -16.9301 1.84142 0.835507 1.05444 2.01898
1014 1 -19.6945 -24.2822 3.61679 0.521745 -3.12586 -0.468348
1015 1 1.03149 7.42659 -22.7751 2.1578 -1.69657 -1.26413
1016 1 -24.0758 5.14376 9.33752 -0.41176 -3.10754 2.23791
1017 1 -7.16071 3.53892 17.1106 -1.11762 4.64338 1.44222
1018 1 -21.6433 -20.6041 6.40187 -4.5507 -1.0248 1.89414
1019 1 5.98966 17.2657 4.4849 0.284106 -2.18224 -0.229778
1020 1 -19.3183 45.7729 8.96646 -2.59927 0.930537 3.77592
1021 1 21.7373 -19.2294 -5.47011 -1.34563 -6.70001 -0.867178
1022 1 -10.066 -22.2508 -12.7917 -3.34834 3.81506 0.582442
1023 1 10.9672 -0.3065 5.8074 0.700435 0.725568 -5.95499
1024 1 -3.06011 5.96657 -24.0645 0.146014 -10.8239 2.81881
1025 1 8.68324 4.59163 -20.7008 -1.3185 -3.84617 -3.45335
1026 1 1.95203 11.6604 -11.1407 1.08358 1.88459 -2.55931
1027 1 -21.421 -1.05399 12.6792 -0.113872 5.47432 0.853796
1028 1 -7.02035 -12.1764 -11.9671 -0.146604 1.4408 -0.45082
1029 1 12.7626 9.45075 -0.00344104 -1.47711 -2.20309 -4.1745
1030 1 -17.4361 -15.8558 -22.8204 -0.0434307 6.6973 -3.03935
1031 1 -5.65526 -11.8075 -4.42509 0.767532 2.43715 3.32777
1032 1 13.516 6.52262 19.5344 2.12999 -0.672138 -1.74042
1033 1 -4.30787 -15.9056 3.52887 -3.31445 -2.21783 2.46916
1034 1 -14.2135 11.7409 -11.0197 -0.346073 -0.469001 2.29628
1035 1 10.4905 19.183 -2.25921 -1.74153 -3.66693 -1.82112
1036 1 2.08465 -14.1577 17.819 0.381031 -0.474015 2.39922
1037 1 -13.1122 -17.836 16.385 3.89132 -3.59408 -1.75723
1038 1 -1.43866 8.28369 11.1746 1.90836 -2.26484 -1.02211
1039 1 20.0221 22.6386 -9.97438 -5.29858 -0.851078 2.84383
1040 1 10.2218 -3.92599 -23.496 -1.29838 -2.85219 2.66355
1041 1 -2.54632 8.75456 -13.9201 2.16742 -3.68416 -2.94472
1042 1 11.1377 -8.69672 23.327 -2.97694 0.290554 0.320789
1043 1 16.7792 8.2797 -3.8517 3.49498 -7.86601 -0.46434
1044 1 -5.25116 22.1008 -13.3616 -1.42929 -2.10202 -2.58371
1045 1 -3.71335 -2.48673 21.4829 -2.88247 2.51927 -0.962482
1046 1 15.722 15.9474 -15.7641 -0.263215 2.73624 -2.54261
1047 1 -17.7004 0.539948 19.7444 -2.87217 -1.02037 2.45021
1048 1 -1.00242 0.445232 19.1888 -0.629605 -2.8554 -2.92958
1049 1 21.2259 -0.967154 -11.8888 -0.455664 -1.61142 -6.65912
1050 1 16.026 21.5055 16.6871 -2.69783 6.0004 -2.70284
1051 1 1.30403 1.7271 8.32159 1.06021 -0.793981 -2.63968
1052 1 -21.4238 -3.95786 -19.1709 0.0161766 -3.00879 -1.34835
1053 1 6.18333 5.89151 -21.8809 -5.1135 -0.00594272 0.0560605
1054 1 -17.2171 21.7403 -1.0046 6.37347 -3.36835 -2.87706
1055 1 -7.29233 18.0474 13.9549 -3.38908 -3.04698 0.848868
1056 1 -9.59986 20.8872 6.42887 -2.14223 -1.06311 -0.0822791
1057 1 -8.55687 -18.0318 -14.8232 3.44431 -3.66399 -1.50977
1058 1 0.251438 -2.65888 -9.91636 -4.74093 1.83084 -5.72472
1059 1 5.05918 -22.0569 -17.4757 -1.713 -2.42917 1.51524
1060 1 -19.1403 -10.931 6.75388 0.652993 -3.6519 1.444
1061 1 7.49377 8.14386 -14.2357 0.188386 0.452928 -3.30259
1062 1 -7.02682 -1.7352 11.6274 -0.198219 2.59628 -2.12234
1063 1 1.11637 20.1453 10.7937 -0.486659 3.57581 0.763526
1064 1 15.3195 -17.6942 5.68185 -1.55077 3.39028 5.22899
1065 1 13.0748 21.7801 -18.0582 1.99496 0.984358 0.662538
1066 1 12.544 -3.83441 22.7508 -0.963587 -3.44165 -4.82176
1067 1 -20.3201 7.10928 8.88492 -2.77021 0.120827 0.775983
1068 1 -2.54542 16.1947 0.606175 2.32427 -1.86316 0.5999
1069 1 -21.9488 17.3128 -18.0644 -2.52407 -0.805014 -3.86303
1070 1 -8.15502 7.35244 10.7038 2.03657 2.9239 0.177918
1071 1 -19.1198 22.2144 -11.7286 3.48915 -5.61574 2.4813
1072 1 13.27 9.31223 -18.3129 -1.48948 0.375564 -2.27
1073 1 -1.87982 46.6959 -11.6076 -2.27075 1.92722 2.20982
1074 1 -9.17408 12.3667 -16.9386 -0.231667 3.71612 -0.333975
1075 1 0.473001 11.8915 15.0125 -1.09219 0.275014 3.97042
1076 1 21.751 5.31645 22.8294 1.26707 2.1562 -5.80995
1077 1 16.5449 -7.67516 -8.23584 -1.02625 -0.0422864 0.930136
1078 1 7.77872 -9.64834 11.7706 -3.51 -1.32011 1.20432
1079 1 -15.0852 -0.341864 11.4521 -1.98917 3.31156 -4.81431
1080 1 -19.0409 -5.52689 -8.4108 -1.70915 -1.17735 1.30924
1081 1 9.09934 -5.68012 15.0672 2.04586 1.16461 -2.00011
1082 1 -17.5935 -18.2763 -6.95316 -2.07655 -1.75859 -3.6447
1083 1 -0.169548 20.5515 -20.2694 -5.59957 1.71351 2.96247
1084 1 -3.41244 -16.9309 -4.60192 -1.7187 -4.68027 0.718512
1085 1 -10.939 -14.9712 -2.32085 -4.99282 3.62573 -1.1846
1086 1 -11.793 8.75842 -4.85403 -0.536872 1.53054 -5.87444
1087 1 7.88787 -2.16448 -19.2789 -1.43175 0.617532 2.7948
1088 1 -22.3011 23.6441 4.00878 -1.82298 0.629453 -3.11802
1089 1 -15.9797 7.73386 16.4177 -1.1408 0.38633 -5.49969
1090 1 -20.3524 -18.8037 -12.9269 -2.33922 3.51612 2.48052
1091 1 -13.2351 9.30933 6.87174 6.76249 -0.273846 3.51345
1092 1 -20.2748 -18.0696 -5.62714 -0.627694 4.67485 0.741386
1093 1 23.2128 8.7311 4.61193 1.01944 -2.72712 -3.0113
1094 1 23.2015 18.6646 24.2293 -2.78064 -2.65792 3.17272
1095 1 -7.83968 23.4493 -12.2867 6.1016 -1.83637 -2.59575
1096 1 8.43649 17.7738 -12.3378 -3.47662 3.12712 -1.40729
1097 1 16.4435 25.0617 12.8474 5.0585 -1.49795 -0.755634
1098 1 -11.7707 -3.32318 19.5385 -4.24762 -0.501392 -6.08121
1099 1 17.9645 12.0209 17.8093 -0.945505 1.92527 1.75788
1100 1 8.16541 -8.82427 19.5291 -3.56575 1.87269 0.574826
1101 1 7.45826 -16.1831 12.6544 -3.76025 2.84401 -0.49496
1102 1 13.9697 -12.8583 18.7361 -0.697399 3.33805 -1.57681
1103 1 21.6375 6.72808 16.2474 3.93441 -0.999581 -5.75648
1104 1 -22.2291 -1.224 9.32906 -0.683803 0.144967 0.858645
1105 1 22.619 0.246599 0.737297 -1.33091 -0.970723 -1.35496
1106 1 -15.9501 -18.3566 3.76804 -0.362896 -0.135543 2.57516
1107 1 3.16167 -12.9287 0.39919 0.581633 -1.3756 1.61662
1108 1 13.8458 14.3409 23.9643 2.55614 -1.75795 -1.57355
1109 1 -18.9442 -8.96368 4.75793 0.327434 -0.315791 5.19233
1110 1 -12.8807 24.7621 10.54 4.20922 -0.936892 4.02906
1111 1 14.0373 -9.13847 8.62778 -4.8256 -4.40819 -5.8504
1112 1 -1.43139 -17.7564 20.0537 -2.59711 1.72059 0.464341
1113 1 -19.4842 21.37 22.5343 -0.992661 0.290245 -1.99392
1114 1 -19.4072 -2.6373 10.8675 0.0722396 0.791914 -0.648872
1115 1 22.3597 21.414 -23.1736 -1.18219 0.0531094 1.91278
1116 1 -14.263 -0.394722 6.31608 -0.788502 -0.294816 -1.00863
1117 1 -3.86364 14.4476 9.01592 2.51713 -4.83482 -2.22931
1118 1 18.0993 -0.888109 -14.0151 2.4906 4.7892 -0.445509
1119 1 9.1959 -11.8636 4.71524 -1.86423 -4.07162 -4.63594
1120 1 -6.31587 -13.8858 -1.64974 2.09963 -1.42021 5.76395
1121 1 11.8057 -5.29281 -21.4804 -3.97958 0.910474 3.55403
1122 1 -9.06273 23.0987 -1.70784 -3.56045 4.01638 -2.03105
1123 1 15.4854 -6.80188 -2.64486 2.61308 3.63905 -0.94589
1124 1 -2.09641 11.7507 -17.1759 0.987058 -3.43968 2.09405
1125 1 -21.9719 7.89476 6.68232 4.1889 1.59729 1.50022
1126 1 -2.01385 -14.3959 -10.846 0.472572 -7.60017 -3.08824
1127 1 12.9499 16.5176 -7.82779 -0.736905 -2.99307 -0.997015
1128 1 1.84232 12.1303 -1.34393 5.77798 0.77237 2.51638
1129 1 1.9885 -7.76115 23.5964 0.735799 2.21221 -6.97884
1130 1 -3.6923 13.4489 -15.7839 -0.888046 1.26589 2.38776
1131 1 18.9392 -6.64347 -4.45844 1.67427 0.541165 -5.76919
1132 1 22.9801 -5.02046 18.8349 -1.85147 -0.601072 5.83049
1133 1 10.4808 12.7788 17.6175 2.05848 1.05619 -1.29195
1134 1 13.9306 -21.9171 20.1395 4.00761 0.493837 -1.52919
1135 1 5.08714 -0.851275 23.4977 -3.43458 2.79718 4.42188
1136 1 -18.4179 -20.3674 24.3278 -0.505424 1.27227 0.731874
1137 1 6.50293 1.64058 2.96354 -3.81986 -3.87328 0.326723
1138 1 -21.9203 -23.4087 5.64083 3.34062 1.96778 4.31703
1139 1 -7.84306 9.25595 4.0727 5.59842 -1.25506 6.36047
1140 1 16.0314 -8.33366 -19.2115 -5.90584 -2.9597 0.828354
1141 1 -21.5249 9.36611 10.3417 -2.21937 3.0223 0.251984
1142 1 9.19696 14.5453 8.9634 -1.53655 1.35855 6.20007
1143 1 1.86646 -10.9633 -13.1374 -0.415133 -0.846598 2.74221
1144 1 16.8152 2.60781 -12.6223 4.60951 0.543703 -2.23445
1145 1 2.91541 22.1744 22.7399 -6.85962 -2.22584 3.13409
1146 1 10.1016 17.8595 18.6966 -0.28445 -2.43533 -0.383062
1147 1 -6.3359 10.8712 -0.511876 -2.55037 1.02287 -2.49622
1148 1 -11.3807 10.9962 13.3264 2.72134 -0.341734 3.51248
1149 1 2.76747 -16.5121 10.618 -1.18256 4.79972 4.65344
1150 1 -14.176 15.3413 10.4263 0.45182 1.24218 -2.73799
1151 1 -22.4999 -22.7406 19.3192 -1.50242 -3.31896 0.402218
1152 1 -14.8601 14.8645 19.2844 2.66606 -0.737101 0.562007
1153 1 -4.2767 -20.4554 1.52714 4.13424 2.66799 -2.41999
1154 1 4.18981 11.7771 -20.4521 -6.43653 -0.363109 -0.579877
1155 1 5.8097 -21.3832 14.7998 -4.35465 4.16059 2.3331
1156 1 -17.1397 -11.8932 23.377 1.77029 -1.45431 -2.00822
1157 1 3.80661 1.07496 -12.296 1.82918 -0.539825 0.484567
1158 1 -15.0956 2.18425 20.3045 1.99024 -2.75397 -0.669601
1159 1 20.5226 -5.63746 13.4001 -3.58711 5.42601 1.55309
1160 1 -10.0854 4.63407 -9.95226 -1.56789 4.37328 0.677419
1161 1 -7.877 -24.0106 -19.2037 2.47467 0.48061 1.44743
1162 1 10.0235 8.52974 3.21274 -1.71637 1.32318 1.93291
1163 1 -17.4778 46.8558 13.4164 -1.61143 1.82271 1.14019
1164 1 -19.3857 -15.5494 9.99581 -0.699203 2.64165 4.64199
1165 1 16.3867 22.2588 -0.328845 0.395274 1.7943 2.28403
1166 1 -15.7483 26.499 16.4938 0.898619 2.63313 -2.28611
1167 1 1.15047 14.6696 18.9457 2.14435 2.63608 2.49882
1168 1 11.5155 -10.7242 -1.47037 2.32839 -1.80411 -0.0583808
1169 1 12.6968 -8.6529 18.9109 3.46427 -1.16633 -1.11953
1170 1 3.66947 14.0656 11.443 1.9468 0.107329 -1.78878
1171 1 21.3946 -0.469495 -7.83 1.01778 -2.38807 -0.648676
1172 1 -22.9213 -16.3927 -16.7392 -1.8413 -1.95591 -0.274164
1173 1 8.25549 -22.0973 19.2086 4.66648 2.24643 -0.306037
1174 1 -22.5258 -20.0297 -18.52 -2.70495 3.16358 1.72007
1175 1 -10.4794 15.0862 23.1028 -1.02055 2.7754 -2.60609
1176 1 -1.72745 -11.8191 15.3778 -0.381764 -0.959373 -4.52151
1177 1 10.2581 1.34717 -18.5474 0.163861 1.52107 -0.0265973
1178 1 -3.67901 7.20059 9.81804 2.92424 -2.90958 -0.595606
1179 1 7.22122 -9.14695 -9.32889 -3.64478 1.2626 -0.224491
1180 1 -10.9246 45.6777 -12.518 -1.67774 3.5395 -4.36934
1181 1 10.4193 17.8289 -8.28179 1.99029 -2.51448 2.11302
1182 1 21.0257 7.33381 1.60694 3.49366 -0.933233 1.48034
1183 1 2.7056 -5.85531 -14.9758 0.607778 -2.28659 -1.8218
1184 1 6.61331 20.1495 22.8761 -5.5885 1.08433 1.90487
1185 1 15.2634 10.3323 23.5968 3.60352 -5.97618 -1.12093
1186 1 6.55998 -9.45107 0.749669 2.38725 -8.82089 3.63797
1187 1 -12.9969 17.1106 -7.73781 -3.89273 -2.23561 4.00254
1188 1 1.96415 2.25076 1.94411 0.2241 -5.45292 3.28006
1189 1 14.1009 12.5599 3.6055 4.34869 -6.15885 1.77513
1190 1 13.0861 -2.02814 -20.409 -0.32393 0.480391 -6.7209
1191 1 -1.69523 -2.16742 -21.2214 1.80876 1.35042 2.81976
1192 1 -14.9064 -0.550868 -11.4484 1.57057 5.34219 2.38657
1193 1 9.45768 -0.136715 17.8178 0.702961 2.2112 0.380558
1194 1 8.32974 16.1163 -7.19786 -2.31943 6.49884 2.65612
1195 1 13.5057 -9.68433 -13.4715 2.64 0.793116 0.195745
1196 1 5.462 14.01 -11.9784 0.771166 -0.771913 1.54073
1197 1 -19.8571 18.0791 19.8119 0.185835 -3.04884 3.35698
1198 1 20.2595 -23.0281 10.6528 1.94932 -0.683863 1.50136
1199 1 -12.7628 8.03766 -13.1052 -0.1504 -1.553 1.34155
1200 1 10.7389 -11.0533 11.5313 0.625123 -2.08333 1.97268
1201 1 -24.4236 -18.6058 19.679 -0.663918 -0.117033 0.958593
1202 1 -14.5237 -1.09761 -5.63595 -3.44519 1.52325 -3.30141
1203 1 -15.4542 -11.9961 -15.1814 1.36275 -1.38637 -1.53452
1204 1 -1.39557 23.2285 2.00492 3.11112 -1.25796 3.35628
1205 1 -4.40708 -18.0997 12.1678 -1.68602 2.56659 -4.94655
1206 1 23.2083 -19.5645 -22.0812 -5.62318 -4.42761 -8.0742
1207 1 13.5761 -5.31484 -17.4944 -1.6711 0.358654 0.803966
1208 1 22.3857 -6.33616 9.13633 -1.09958 -1.67911 1.23154
1209 1 2.87081 -5.03033 -23.6947 2.588 0.0113474 -0.468394
1210 1 -3.17948 20.3468 -2.19341 3.48902 2.09339 -2.39526
1211 1 -18.5304 -11.628 9.72382 1.2857 -5.15567 0.885166
1212 1 20.8118 6.12118 -10.3966 -1.66912 -2.94787 -3.92693
1213 1 -22.7672 -15.4943 18.2443 1.62252 -2.43804 -0.174096
1214 1 14.3149 -2.22927 -0.125035 0.235296 -1.04465 5.45198
1215 1 4.86683 10.0547 -8.11299 -5.08357 -0.924362 0.0732336
1216 1 13.1884 -5.85292 -8.91396 3.12114 -0.341607 2.68528
1217 1 15.4483 -15.1887 1.97469 -3.41618 0.542569 -1.79323
1218 1 14.9526 -3.39768 -12.06 -2.3201 -5.03434 -2.31206
1219 1 14.668 11.3068 10.4665 -1.97814 -1.63969 -0.279738
1220 1 -20.3103 23.4086 16.3701 1.12974 -2.7553 6.10912
1221 1 2.4209 21.2668 -21.5652 2.07548 0.478695 1.83091
1222 1 20.451 21.2624 11.9329 -8.15462 4.67017 -2.18379
1223 1 -23.9143 7.85269 9.00181 4.05154 -0.0437526 2.74498
1224 1 14.7952 -8.66855 14.423 5.25815 2.39166 0.147651
1225 1 1.24773 -19.329 19.4604 0.982017 -0.940572 -2.17922
1226 1 -21.5455 15.0148 1.89028 0.930523 0.890561 -3.9133
1227 1 -1.43118 -7.50217 -1.34511 1.13593 0.741383 -3.08332
1228 1 23.378 -21.7685 -11.5631 -1.34711 -1.86404 2.67322
1229 1 19.6543 -17.9957 -1.26718 0.722993 1.38845 -1.25074
1230 1 -14.0495 -18.186 -8.67672 -2.59428 -3.71763 -0.988664
1231 1 -20.6785 -8.6405 -6.09084 1.1083 3.26399 3.02888
1232 1 -21.1754 17.0507 22.2488 -1.10021 -1.97991 1.62677
1233 1 -4.1366 -0.525411 -21.3282 4.05996 -2.13472 2.20281
1234 1 14.9509 13.8739 5.91262 -0.778675 -3.06472 0.707602
1235 1 10.3628 16.8423 2.28096 -1.8865 -4.14257 -3.98353
1236 1 -5.5633 -19.8701 15.8906 -0.0570859 3.6565 -5.49112
1237 1 -17.0938 22.8093 14.9038 -1.90717 5.03672 -1.38781
1238 1 9.3545 -2.05675 -13.5719 -1.78177 -0.0364225 1.60151
1239 1 -1.86734 -23.3528 5.79676 -2.39699 0.919424 6.98398
1240 1 -5.47139 -24.2412 1.54791 -3.85395 1.77363 -2.86238
1241 1 11.6385 13.8413 -19.4788 -6.16671 3.17153 -0.467418
1242 1 6.44067 -18.1359 -15.2978 -2.35711 -1.04777 1.30718
1243 1 9.81057 18.0355 -20.6517 0.483171 -3.00478 3.13366
1244 1 -15.595 1.4931 8.09885 1.83603 0.69579 -1.90975
1245 1 -18.0928 10.9821 -22.524 -2.36806 1.50348 -0.502017
1246 1 -6.67022 -15.2388 5.49547 -1.31828 6.09332 5.80111
1247 1 -4.75477 0.186151 -10.0405 0.933241 -2.61601 0.895683
1248 1 7.87783 4.75351 19.0081 -1.35555 0.787718 -0.419735
1249 1 7.26903 13.8525 -21.1618 -3.30779 -3.36029 -0.203378
1250 1 7.01572 2.70375 20.6097 1.57377 1.11052 -5.06468
1251 1 21.4383 0.592761 21.8523 -0.583231 -2.40321 1.11011
1252 1 21.7678 -19.8746 -1.07225 2.448 -0.364882 1.81387
1253 1 12.6179 22.0743 -2.15472 -0.924033 3.14363 0.876165
1254 1 -20.9405 -19.4338 3.91837 -2.03132 0.588737 2.09883
1255 1 -5.86834 -11.0658 8.59329 -3.51179 -1.6451 -0.863125
1256 1 5.65538 -19.0412 -21.1664 3.21549 0.0204859 2.83422
1257 1 -6.03646 -23.4604 -11.536 4.08514 2.87456 -1.15763
1258 1 -17.4035 10.0518 20.5744 -0.314831 3.98355 0.952243
1259 1 19.98 -11.7799 8.04462 -1.9785 -4.67793 0.30174
1260 1 3.47672 -11.237 -15.6985 -0.397126 -2.00538 1.67593
1261 1 11.775 -6.85119 -11.2631 4.38105 -0.791379 -1.04565
1262 1 12.748 -14.2682 -5.60221 -0.752428 -3.41332 -1.43161
1263 1 -14.4563 -6.40229 -2.83592 -1.24098 1.64647 -1.26123
1264 1 -21.8197 -10.6404 -2.32597 0.106611 1.4895 -1.85025
1265 1 -6.26777 14.0871 -10.6685 1.76455 1.35288 2.40406
1266 1 15.3206 -8.04127 4.1682 -0.332911 1.42387 -1.63532
1267 1 -24.4916 -16.0205 3.8097 1.99127 -3.61997 -1.9612
1268 1 -21.9173 -12.0597 -18.5997 0.335767 -2.10158 -0.212514
1269 1 9.2239 -7.37103 21.7035 -4.06213 0.93462 -3.69924
1270 1 23.211 15.78 11.9272 -3.3281 3.25588 -1.67634
1271 1 -1.10275 4.88649 16.5652 1.97665 1.00747 -0.672211
1272 1 -24.5678 9.88936 13.3827 -4.06211 2.91746 1.16671
1273 1 18.7869 5.7291 20.2465 1.43804 4.0102 2.92255
1274 1 22.765 19.0248 -17.0136 0.857181 -5.53281 2.6253
1275 1 2.15386 4.64159 9.17695 1.24598 -0.534508 4.6284
1276 1 -1.08684 -9.69893 -19.8219 -0.235661 5.44167 -1.73419
1277 1 -8.67858 23.8654 -4.48176 -1.2156 3.22028 1.8103
1278 1 14.9502 -7.3832 -21.5452 -6.83444 0.52176 2.86105
1279 1 -20.7347 15.9138 -11.1106 0.767799 -2.76782 4.1233
1280 1 2.57217 -3.18014 -3.07353 -2.23535 2.02932 -2.80659
1281 1 16.1302 -10.2816 21.0841 0.666027 -0.277871 0.439207
1282 1 10.4811 -19.877 -3.54983 -1.09835 1.28474 1.74342
1283 1 5.05268 -21.4615 -9.85526 -1.02894 3.58827 -4.16326
1284 1 6.86553 -12.4601 1.50451 -3.22999 -0.79592 1.40268
1285 1 -11.9351 24.1992 17.6893 3.50857 -6.61722 -2.48577
1286 1 -4.31187 5.34627 -15.5283 5.34972 4.32303 4.17017
1287 1 9.32832 -20.0333 20.8794 0.533703 8.99823 -1.75531
1288 1 0.256451 -4.65232 -15.2598 1.48546 -2.23301 -2.79282
1289 1 21.4966 -9.61217 -6.0698 1.296 -2.62562 1.8701
1290 1 0.862735 8.41541 5.83598 1.20317 1.60016 -2.73378
1291 1 -18.691 15.8253 1.77418 -0.414373 -1.27036 -3.81255
1292 1 -5.15038 17.8701 -1.19177 0.422255 0.366826 1.82389
1293 1 -7.95123 -0.390234 -2.17562 -1.40009 -5.54765 0.770066
1294 1 14.3306 -12.0714 -7.14122 0.875144 -0.552965 2.40063
1295 1 14.99 5.31735 -0.967297 -1.44504 1.45677 1.69796
1296 1 -7.78744 -12.8829 3.32747 5.57018 -3.64352 3.47412
1297 1 15.3889 13.9894 16.259 2.45513 3.38113 3.02541
1298 1 1.41413 -7.24812 -2.08073 -0.766813 -1.31612 -7.6041
1299 1 -10.5173 -10.799 -5.18102 0.959608 1.86646 -1.47792
1300 1 4.70196 -1.47179 -3.19477 -1.20306 4.31772 -0.307142
1301 1 9.72389 16.2319 -10.5999 4.28155 -6.58727 1.45697
1302 1 -2.95271 -4.5553 23.3985 1.0145 -0.518733 -0.466504
1303 1 -8.63338 -8.00939 -15.1331 2.95231 4.27381 -0.667649
1304 1 4.84746 1.00514 -4.4614 2.52995 -3.03537 3.07353
1305 1 -5.16817 4.18594 11.4278 -2.83105 5.03488 -0.239219
1306 1 6.84816 -21.6564 -1.53106 -3.43364 -4.64466 1.0338
1307 1 -14.7469 46.6378 -4.38283 0.0632521 -2.97983 1.4419
1308 1 -17.5545 -2.35301 8.36603 -2.44064 -2.80733 1.68739
1309 1 -2.41709 -8.79959 -8.14224 -3.28209 -0.515508 -1.43276
1310 1 -1.04539 -17.883 -2.02779 -0.107222 -1.19802 3.78165
1311 1 -1.55638 19.2084 -13.6513 4.09422 6.47822 -2.6198
1312 1 -17.076 -7.62715 6.47055 -1.76479 1.71114 4.25463
1313 1 17.1314 19.3424 22.0543 -0.334893 -0.232126 -1.46757
1314 1 -15.8215 10.6132 -19.4223 2.33538 1.51992 -0.904461
1315 1 -18.7505 -11.2154 -22.1139 3.82438 1.25153 -0.793172
1316 1 18.1943 -12.5607 -14.8319 -0.308511 1.47828 -1.46794
1317 1 -10.6101 9.85829 -13.0956 3.28764 0.324832 -0.325061
1318 1 22.2075 19.9898 -0.492015 3.02845 1.15365 -3.744
1319 1 11.832 21.5439 0.596196 -1.49979 0.592423 2.7774
1320 1 18.3371 -6.2466 -11.1124 0.609581 0.57017 -0.369201
1321 1 9.16181 -21.8865 -7.17038 1.02312 -2.23246 -1.02609
1322 1 0.340265 -14.738 -5.21421 -5.02521 -0.91074 3.40205
1323 1 13.6998 -13.1394 13.5839 3.55564 -0.585168 2.18142
1324 1 -10.2049 -20.7939 -20.1724 4.69044 -2.44533 -4.20208
1325 1 -4.88479 16.6246 5.59836 4.05379 -0.568941 0.962127
1326 1 -17.6918 -17.7395 22.9764 -1.56329 2.58566 -3.46623
1327 1 -9.18216 21.6648 24.0144 -1.25261 -3.18583 -0.663805
1328 1 10.792 13.9879 6.61223 0.499435 2.55611 -0.161344
1329 1 22.4822 -13.8864 -3.15782 2.25598 0.64294 -2.54851
1330 1 -9.48965 14.1463 -7.21588 -4.95833 -2.39596 -0.204061
1331 1 -17.3893 6.7901 -1.17925 2.70389 -2.3906 1.69107
1332 1 12.5977 -20.4918 -22.8835 1.39412 1.18505 0.737227
1333 1 1.20308 11.125 5.56891 -0.365666 1.18897 2.27513
1334 1 11.6929 -9.48253 -10.3155 -0.919049 0.22318 0.998563
1335 1 -14.7996 23.5479 -14.3203 0.380436 -0.322746 -2.84167
1336 1 2.93081 18.6164 -8.31458 6.45906 -3.42116 -1.71375
1337 1 7.48346 -20.8001 7.14709 1.09048 1.10511 -0.440288
1338 1 2.13288 5.96119 -1.01351 0.631374 -2.03595 -0.267354
1339 1 2.0102 -17.8243 21.6772 2.5654 -0.0662072 -3.34511
1340 1 -19.9338 18.308 11.6013 -3.20118 -2.87006 -1.52531
1341 1 4.01977 8.96251 13.9784 3.76706 0.313541 -3.68362
1342 1 2.65209 -23.121 -18.553 3.78895 -0.469394 1.74118
1343 1 -11.9349 -8.28294 -5.33447 4.14179 -2.57646 -2.37351
1344 1 19.2172 -8.88085 3.67005 -3.19471 -1.79964 0.181454
1345 1 22.7483 1.84815 -16.0915 0.187286 -0.0564438 -3.23554
1346 1 15.5383 -3.6049 -15.9704 -1.6022 0.626683 -3.82177
1347 1 -16.4183 -11.719 -20.3179 -0.779009 5.43031 0.713986
1348 1 5.08327 11.2968 -15.8714 2.16416 -1.78532 0.427139
1349 1 2.54933 -12.5737 9.30438 -2.32594 -3.74163 -3.86333
1350 1 -14.5473 0.237998 -2.92106 0.91786 1.48929 0.798339
1351 1 17.3643 -14.5151 16.8895 0.81696 0.758578 -0.457347
1352 1 5.61602 24.662 21.6248 2.03305 0.396305 -3.05251
1353 1 7.52825 23.0292 -1.60714 -2.43804 0.878917 -3.64437
1354 1 -1.36531 -6.90447 -15.0551 0.607397 1.39981 -0.960969
1355 1 -5.34084 23.8367 17.4381 -1.14095 1.84338 1.70421
1356 1 -20.8746 -12.8994 -0.776451 2.87254 5.00788 1.95332
1357 1 -19.9283 -9.49023 -11.1315 4.40549 3.48861 3.18676
1358 1 -12.3746 24.2577 22.685 -4.28138 0.12166 -6.14764
1359 1 -21.8088 -23.0572 23.9837 2.53615 0.968894 -3.09348
1360 1 18.2374 -14.0752 7.58005 1.15145 1.87463 1.76805
1361 1 -6.9623 -22.2945 2.992 0.476311 -3.43677 -0.6281
1362 1 19.4966 21.9782 7.56485 5.60952 4.4202 -4.13589
1363 1 -14.4678 -10.166 -21.034 1.25142 0.0635067 1.98025
1364 1 10.9798 -13.3783 -13.3615 -0.213876 -0.160748 5.83314
1365 1 6.99935 -4.85308 -19.4782 4.18528 0.482524 -4.1866
1366 1 20.9341 -16.0069 0.337949 0.255685 -3.71037 -3.00579
1367 1 -9.85796 -12.4082 10.7137 0.441766 5.0902 -0.521799
1368 1 -17.94 17.222 -0.741456 -0.730295 -2.50924 3.88433
1369 1 23.7876 3.1328 -4.67986 0.0101027 -0.903852 5.05461
1370 1 -0.3867 -11.8352 21.708 -2.63406 5.64939 0.450496
1371 1 -21.0284 10.5771 -3.38951 5.23663 0.185288 0.81726
1372 1 -9.05318 11.5602 5.62105 0.213554 -0.490813 3.59772
1373 1 -15.5479 -6.43172 14.497 1.92327 -3.57622 -4.311
1374 1 -18.1449 25.3591 15.5279 -4.62905 -3.66815 -3.52452
1375 1 18.7138 -9.67624 6.32155 -0.154579 2.08389 -5.07894
1376 1 6.85562 9.50497 -6.23657 1.00012 2.00071 1.38817
1377 1 -14.7165 22.9651 23.8563 4.44639 -2.26195 3.22528
1378 1 9.33423 -10.7671 0.408261 0.321014 5.23749 0.908085
1379 1 -18.9431 -17.6869 4.38857 -0.306619 -4.20985 -1.23172
1380 1 14.8802 21.5582 -6.65453 -2.52439 -3.13685 -1.81405
1381 1 18.624 17.3425 9.43033 6.43073 -4.30973 -5.76104
1382 1 15.4312 -13.3989 8.40053 -3.02895 1.96922 -3.97747
1383 1 -7.81082 47.3673 -16.1328 1.95439 2.65011 2.15967
1384 1 1.1908 21.7717 -10.8703 1.97688 -3.50985 -6.46142
1385 1 -17.7787 22.996 12.2505 -2.04185 -4.93039 -3.00962
1386 1 -10.1443 8.91903 2.4629 -0.962817 2.51815 -3.31668
1387 1 -18.5707 0.191266 -0.282556 -1.45559 4.22981 -10.9745
1388 1 11.6544 -3.36645 17.5134 -2.97073 -1.48016 2.62791
1389 1 19.8051 -6.69802 0.372794 2.18587 -0.204973 -3.12427
1390 1 5.29812 -1.51882 10.2688 5.50779 2.0415 3.50008
1391 1 -12.8681 20.6293 21.7107 -4.57286 -1.31712 4.91383
1392 1 20.8849 3.18944 3.4331 -0.48786 -2.34904 3.48086
1393 1 -1.19505 -6.31315 1.19669 -2.33937 1.18477 -2.39292
1394 1 3.3 5.61269 1.51666 -2.20283 6.65226 1.24849
1395 1 0.444059 9.45788 -7.1709 -3.50965 2.2759 -1.4427
1396 1 -18.0715 -8.89603 8.79331 -3.1573 -1.90464 -1.97113
1397 1 2.55199 21.2051 -7.67508 0.229752 2.0367 -3.51131
1398 1 2.73118 21.2483 -4.65704 1.2854 -1.19002 0.742598
1399 1 -1.67332 -23.1452 -1.55794 1.16147 0.881064 0.832724
1400 1 -14.1904 16.3194 -22.8321 5.84154 5.54962 -0.664824
1401 1 22.3021 -21.8104 22.0087 -3.66114 1.06201 4.60657
1402 1 -19.6666 -5.06456 -15.6296 -2.75622 0.118698 2.8485
1403 1 16.0709 -23.3649 16.3852 -2.64128 -0.839515 -4.82168
1404 1 19.9085 -11.9173 12.4503 -1.61513 4.99229 3.23706
1405 1 19.4479 20.8049 -23.1281 2.21481 3.51444 1.5727
1406 1 -9.35463 2.42058 -12.7128 5.04051 -0.781556 0.846264
1407 1 -21.3483 8.60952 -1.15545 2.15172 -4.00372 -1.72117
1408 1 -7.02189 -4.3106 -11.3915 -1.15375 -3.40152 -2.3443
1409 1 -0.254808 4.87851 -23.2136 0.139366 0.785429 3.44765
1410 1 1.3708 -21.1868 -20.1895 -0.643151 -0.218966 -0.666052
1411 1 19.3165 0.987757 -22.6585 3.75666 2.29029 -3.12624
1412 1 -19.0678 12.0876 -11.4427 -1.07564 1.26141 -2.1965
1413 1 -16.0659 4.5378 -20.0453 -2.63006 0.254189 1.34316
1414 1 5.30216 21.6096 4.88425 5.68292 -2.33922 3.36732
1415 1 -5.76817 -21.9632 -0.460161 0.0271841 2.86107 -1.68019
1416 1 -23.8565 -8.47697 9.16922 0.506947 2.37056 -4.60464
1417 1 10.4915 4.96872 11.1612 4.51321 1.73688 -5.2372
1418 1 16.3048 -8.49915 0.832223 3.26958 6.28135 -1.42618
1419 1 8.11628 21.4858 -4.1341 -0.835064 0.70485 1.73501
1420 1 -11.6273 20.1595 -21.0668 -1.48425 -3.90163 3.37206
1421 1 22.6777 -11.3468 7.22397 -0.70227 2.36888 3.2852
1422 1 -12.2978 -20.0201 -16.025 -0.503696 4.13096 -3.657
1423 1 8.1506 19.3496 -18.7987 2.00237 -3.19258 0.516644
1424 1 21.7111 11.9359 -7.37503 1.80172 5.16764 -0.688387
1425 1 0.750998 4.06565 -11.5509 5.57129 2.07284 2.64077
1426 1 4.5656 -20.2894 2.48109 -1.33768 3.44501 1.6377
1427 1 20.323 -13.6299 -1.28853 -0.947746 1.65331 4.69248
1428 1 -4.93272 -15.6362 21.7313 0.193867 -0.588709 1.28429
1429 1 -20.5043 -16.4104 6.36811 2.1874 -0.529321 0.629975
1430 1 1.53142 15.6417 5.74312 -2.18649 -3.07341 1.36628
1431 1 -9.42847 1.98418 -9.92471 -2.42402 -1.49901 -0.857687
1432 1 -11.6051 9.80171 23.3154 0.882767 0.640727 -2.02676
1433 1 -18.2065 -11.4403 -14.6687 -4.20131 0.486727 0.222399
1434 1 -22.7797 4.9106 20.8849 -1.43846 -2.87908 2.47055
1435 1 17.1591 21.6945 -4.81838 1.66712 -2.94979 -1.54627
1436 1 -17.1027 -3.95639 -14.4288 1.61894 -5.01076 -1.49013
1437 1 4.79765 14.7144 -20.0314 3.01747 -4.4694 -2.86171
1438 1 -2.25885 -1.72073 -13.8413 0.619679 0.0529369 -1.49371
1439 1 -17.8385 9.77958 -12.8721 1.29009 1.32186 0.510695
1440 1 -21.7536 15.3343 -1.89631 0.840593 0.886993 4.40975
1441 1 -18.5786 -14.9254 16.1831 -0.73518 -1.45976 -4.26418
1442 1 -20.4328 -4.01177 -5.43472 1.27555 -0.130149 3.99615
1443 1 18.1826 -11.6496 17.4979 3.87528 1.69366 -2.286
1444 1 12.3417 20.4939 -23.7039 2.51507 3.20693 0.288271
1445 1 13.8434 -20.4527 9.31529 0.782566 -2.05637 4.14258
1446 1 2.79095 -9.13209 -10.9695 -0.138915 2.00028 0.129168
1447 1 21.4637 -7.07296 -19.0412 -1.30105 1.64596 -5.68268
1448 1 -16.0464 2.85323 5.62117 2.49822 -0.152483 2.61548
1449 1 12.0938 -5.61172 1.91425 -2.08581 -2.09287 0.643457
1450 1 -6.53048 -4.51472 -8.42313 3.46467 0.299737 -2.3675
1451 1 12.1547 19.0321 -10.3837 0.605623 -1.86829 1.69263
1452 1 -5.10939 -23.7721 -19.0795 1.89415 0.89179 0.873961
1453 1 -0.133779 -22.6366 -7.49781 4.61947 -1.9 0.333539
1454 1 8.23991 -13.0109 -1.11065 -2.81782 -0.413267 -4.9719
1455 1 -13.0814 -18.6953 -4.22564 1.57897 -4.47852 -2.66614
1456 1 -15.9084 16.5151 12.3923 0.798225 1.46763 3.99314
1457 1 -20.2306 1.99818 -19.5633 1.15125 2.75182 0.459873
1458 1 -20.4822 14.3307 8.81907 2.26611 1.1774 -0.0436361
1459 1 -12.852 -14.1799 -4.18895 -4.73781 -0.751686 -0.950692
1460 1 -14.4915 8.97854 -15.1767 1.51368 2.63947 1.73052
1461 1 -15.3292 16.3992 22.5274 2.13945 -1.06414 1.21496
1462 1 -9.69598 -17.4186 7.83031 -1.3307 -0.854165 -0.276518
1463 1 8.68861 -0.992226 13.2761 1.46415 1.74502 3.04525
1464 1 2.28496 -18.7905 5.8772 -5.04765 -4.07725 3.05388
1465 1 -21.1673 23.9637 -12.785 5.36693 -4.21042 2.07927
1466 1 -17.0298 -5.62592 -3.33012 -1.81876 -3.06866 -1.40972
1467 1 21.6063 -16.3694 -14.175 -0.84093 0.943558 1.237
1468 1 18.6873 25.6635 16.0844 -2.75918 -1.45806 2.99711
1469 1 19.4836 12.1158 5.67922 1.70279 1.86679 0.715643
1470 1 -3.59121 -12.2044 5.02463 1.78444 1.87873 1.79376
1471 1 -5.28547 -6.55921 -10.4927 1.05349 -1.6406 0.89764
1472 1 22.8656 2.31665 16.4591 -4.01704 5.06839 -0.157792
1473 1 16.2365 -19.9193 -13.5102 -7.01288 -2.64725 -2.22689
1474 1 0.727843 22.8746 -23.3657 3.76776 -2.88953 2.26455
1475 1 -20.6725 46.659 -3.46503 -2.43088 0.680761 0.171966
1476 1 -19.6605 13.5017 -18.1904 -1.75608 3.41845 0.817629
1477 1 20.5087 -1.48487 -0.808833 -5.5652 1.49188 1.02569
1478 1 0.16384 1.31739 3.78818 -3.33321 0.907281 -0.235667
1479 1 9.37137 -10.4818 9.13396 -0.897619 -4.79057 -1.50154
1480 1 1.56102 12.1062 -5.09963 -1.94875 4.2781 -3.29465
1481 1 -6.14111 15.207 -1.53585 1.24291 -4.28001 -1.68709
1482 1 5.15041 21.932 -21.4398 -6.46964 -1.87423 2.33687
1483 1 10.5395 -23.6821 -18.7479 -0.452339 2.55155 0.697002
1484 1 -5.55151 11.5684 7.64961 -2.49605 -2.15525 -0.10549
1485 1 7.54677 -10.2447 -23.8149 2.683 -5.19758 2.4953
1486 1 -16.6307 -3.33287 18.6865 -1.69916 -0.675526 -4.78541
1487 1 -1.26233 4.49719 -15.7007 -0.413588 0.737605 -1.88439
1488 1 -17.7087 -14.4443 13.3213 2.10203 5.46352 5.84154
1489 1 -24.4743 14.7261 -1.04031 -5.88441 -0.409716 6.44365
1490 1 -20.1365 6.18647 -2.10789 -4.49425 3.16848 2.78065
1491 1 13.5245 7.15197 -7.82782 -1.41415 -1.6585 0.246071
1492 1 -12.1834 14.7168 12.6338 3.75464 4.5073 1.32762
1493 1 -3.17637 -6.15163 -12.5939 -0.942643 1.71937 4.3883
1494 1 -8.1043 3.96849 -19.2452 0.325865 -1.06354 4.08756
1495 1 -19.8155 -8.3703 21.4318 0.95504 -0.538091 -0.696358
1496 1 -3.74494 8.34047 -9.65048 1.37652 1.71737 -2.99155
1497 1 13.8539 -10.0172 -18.7622 2.1073 -1.24685 2.42677
1498 1 -14.1844 7.79881 12.5064 -2.35076 1.99019 -4.2715
1499 1 18.7811 5.21447 23.2002 -2.83727 0.00784517 2.13361
1500 1 -16.8666 19.866 14.8599 -1.16852 -2.48877 2.45844
1501 1 9.14774 16.0449 -14.8299 3.42176 1.38029 3.72111
1502 1 -23.634 -4.54675 -6.91938 4.04452 -0.132567 -2.12784
1503 1 9.79306 24.8212 -21.4781 2.58493 2.80038 -1.56109
1504 1 -3.19609 -23.3051 -6.75408 2.12941 -1.3706 -0.366231
1505 1 18.1444 -23.4359 -21.1091 4.67583 2.78932 4.48711
1506 1 13.7402 11.3111 -2.19655 -3.08232 5.68737 -1.91442
1507 1 -19.4718 20.3264 -5.96252 -0.538703 -1.35514 -0.827489
1508 1 22.0321 -8.84411 -3.26068 -0.471022 -0.152809 -7.40146
1509 1 11.1462 21.6207 -9.67332 -1.63555 -1.48996 -6.06121
1510 1 -16.5018 -11.2836 -0.357461 1.793 -1.84906 3.23902
1511 1 -22.8102 -5.44854 15.622 0.719118 -0.0936669 -0.167315
1512 1 -12.4424 -12.1319 -0.780341 -4.24534 0.668321 -4.64552
1513 1 -19.4216 0.538068 17.176 -0.768701 -4.16603 -2.15117
1514 1 -14.3477 -4.27334 -8.34355 -2.3023 1.60627 0.91184
1515 1 -6.24908 -19.9514 19.2024 -4.44639 0.721242 1.74686
1516 1 -10.39 24.0833 -23.1346 -1.82956 -1.64317 1.65593
1517 1 -23.2852 -15.9719 -9.77103 2.6901 -4.23787 6.61923
1518 1 -0.654091 13.9179 23.5748 1.95351 5.31051 5.36186
1519 1 -11.5956 -18.2919 3.16207 2.18612 -0.741673 1.15108
1520 1 10.5045 3.95822 -14.5589 0.31212 2.35739 1.06102
1521 1 -8.5248 -9.43966 17.5512 0.294791 -1.4195 2.20176
1522 1 -16.1434 0.264811 -13.9912 -0.241761 1.85138 -0.8845
1523 1 -7.45059 7.16325 16.1964 -0.616664 0.0793006 -1.62957
1524 1 -0.0180517 -19.7099 8.55207 -2.87373 -1.80537 1.28474
1525 1 -10.8537 -5.36689 2.80683 2.46666 0.110096 -2.83904
1526 1 18.8161 23.4197 0.612933 -7.04515 2.77788 0.0941491
1527 1 1.17052 -0.0339836 -9.34043 1.0398 0.683759 -3.53614
1528 1 11.6016 15.0471 16.0784 -1.87232 -4.56526 0.576917
1529 1 -6.96767 2.74049 13.2458 1.1915 -0.0682711 2.8141
1530 1 17.3951 16.9101 4.34327 1.35875 2.47957 2.24202
1531 1 7.20716 -8.40616 8.95223 -0.813057 1.11302 -2.09401
1532 1 19.3771 -5.73113 -17.4635 -1.63633 2.15453 -3.81276
1533 1 11.1046 22.0831 11.82 0.61902 -3.49279 -0.0433751
1534 1 -17.205 -6.05482 11.2602 2.18857 4.72258 -1.33881
1535 1 1.00307 -10.3798 13.1249 0.781051 2.38634 -1.18026
1536 1 -7.10783 0.470897 23.1141 1.82707 2.34625 4.3719
1537 1 -2.91287 25.0367 -17.8886 -0.461796 -1.4758 5.07393
1538 1 5.56053 17.507 16.8468 -1.2102 3.64023 -0.186222
1539 1 1.17155 7.115 -18.1585 0.366519 -1.22361 -0.155042
1540 1 -20.9403 4.61749 23.2631 -2.91209 -1.66794 -2.24436
1541 1 7.53043 -19.7503 -8.90492 -0.260024 -8.35233 -2.43808
1542 1 -20.231 -4.11524 16.8269 1.74442 -0.519665 3.35991
1543 1 3.27988 1.45623 15.226 -0.502634 -5.12209 -4.65949
1544 1 -5.30392 21.6974 -19.7871 0.832557 -3.35111 1.16552
1545 1 -6.38236 -15.3039 13.4702 1.44613 0.345378 -2.5823
1546 1 -12.6794 -12.3447 19.5125 2.74664 3.52115 -3.60769
1547 1 16.81 -1.18817 -1.11042 4.59705 -5.39844 -5.02406
1548 1 17.6522 47.1189 -7.19973 1.57409 2.26396 -2.46746
1549 1 -2.76557 -4.37171 -15.0124 0.283104 -0.658188 4.23371
1550 1 -1.79429 -9.83295 -10.7793 -0.313403 2.39682 -4.74004
1551 1 10.5094 -2.49239 -6.97152 2.96033 1.88365 -2.66408
1552 1 18.1414 10.468 -18.9921 1.34309 -2.94147 1.82007
1553 1 -11.1244 20.2967 -15.4639 0.870832 -3.00835 1.18415
1554 1 -7.68494 -5.94219 -19.2336 6.4514 -0.842036 0.456805
1555 1 -20.4291 -3.28908 -2.55963 1.80055 1.93242 7.53809
1556 1 22.2259 -20.1839 -9.61095 -0.568089 0.114107 1.84919
1557 1 8.13154 -22.4499 -17.4554 3.52955 -1.20554 -2.61279
1558 1 9.53499 -17.1215 -0.376832 -2.91919 -2.11085 2.11582
1559 1 21.7809 17.2539 2.92021 1.45187 1.51401 -4.23159
1560 1 -18.8436 -19.5934 19.3146 0.528561 1.31418 0.776404
1561 1 20.378 17.1154 -3.90962 -1.40398 2.56317 -3.46348
1562 1 1.09131 -4.84796 0.498248 5.56655 2.87704 4.01114
1563 1 -4.47294 -5.28477 12.2464 1.65893 -0.523058 -2.26221
1564 1 8.11605 14.0716 -9.18493 1.3877 -1.19599 -0.852505
1565 1 -4.24478 15.7782 -11.5013 -3.11542 3.59083 -1.7276
1566 1 1.06293 -7.80408 8.46554 5.99429 4.89486 -2.18703
1567 1 0.466073 -8.49364 -22.0089 -3.54651 -1.96625 -0.0111115
1568 1 17.2479 22.7651 -10.242 2.57501 0.53845 -3.05281
1569 1 8.63859 12.5653 3.88991 0.822958 -4.32366 -1.97364
1570 1 -23.1583 2.15169 -12.1468 0.0681405 -0.389567 6.12838
1571 1 -3.26898 -11.0602 -2.03132 1.64077 3.65209 -0.497842
1572 1 -0.104778 -16.8911 11.4313 4.55397 -0.343786 2.74332
1573 1 -11.1355 -13.1155 16.5216 2.47283 -0.348266 3.1037
1574 1 18.7414 -18.2589 3.16023 -0.356034 -2.78264 -3.66298
1575 1 -16.2023 15.2253 5.94564 0.981766 3.71364 4.01688
1576 1 13.0647 19.7707 -20.2589 2.95526 3.2327 -0.0331942
1577 1 16.8729 -23.9266 4.46534 -2.66999 -4.65442 4.92032
1578 1 14.841 0.539709 -11.8889 -2.47762 -1.90124 -6.00802
1579 1 -4.87049 13.8417 -5.90061 -4.32007 4.6899 -1.15053
1580 1 -16.4564 -22.9376 -7.55222 -2.82518 -2.07396 -1.08486
1581 1 -8.81033 -5.71994 11.3079 -1.53569 -1.29002 1.01234
1582 1 -13.8256 7.22849 -0.952055 0.631941 -0.0924704 3.83983
1583 1 10.3562 -1.31731 -4.1774 -2.67433 2.1772 -0.596144
1584 1 -5.2827 -4.25385 15.528 0.708992 -1.18866 -2.16157
1585 1 -8.81908 -12.7788 20.9148 -2.5699 -4.181 -0.0214393
1586 1 -18.0917 -23.402 -0.232944 -2.06483 5.76963 3.60205
1587 1 19.4115 -3.31355 -11.8413 1.60718 4.83962 -1.14274
1588 1 2.61955 18.5023 -20.7465 2.42371 0.0432062 -1.42301
1589 1 -10.4603 -21.836 -2.89149 -0.204337 -2.54227 1.08947
1590 1 21.297 9.95328 -14.2707 -4.54931 -3.80759 -9.3702
1591 1 14.7881 13.8641 1.35402 -3.84577 1.13365 -5.46556
1592 1 19.3522 8.34892 16.0203 -4.4803 -0.730379 -4.02857
1593 1 0.242984 21.9031 -17.6416 2.26635 0.862891 3.22303
1594 1 11.3616 4.66329 -1.16652 2.5721 4.1092 2.90209
1595 1 7.14291 14.9608 -4.80087 -3.38937 0.643951 1.03772
1596 1 -4.32177 -3.63787 -17.5168 -4.32392 -0.599989 5.31559
1597 1 18.8652 46.9098 6.3508 2.24157 -1.29433 -0.831681
1598 1 5.20273 12.426 2.64493 2.54855 -4.64071 1.44308
1599 1 -21.9082 -4.12694 10.0587 0.368025 1.2676 2.384
1600 1 14.1626 -15.0983 -15.7318 -3.21334 -2.36899 1.52236
1601 1 6.63588 15.254 -15.9637 -0.149775 4.82252 -0.573259
1602 1 -19.3473 -12.8821 -19.8582 3.22537 -1.54185 -3.47423
1603 1 4.80611 -10.0718 -13.2886 -0.856833 -2.78 4.11876
1604 1 18.882 -14.4144 -17.6234 0.384638 -1.24742 2.24522
1605 1 -2.21286 -0.599249 -10.9928 2.26967 -1.38579 -0.348517
1606 1 -21.0425 19.2885 7.34949 -2.37473 -2.50456 -0.620156
1607 1 11.4983 -22.5525 -16.3223 -0.968252 2.30672 5.10525
1608 1 -23.0312 2.25017 8.44736 -2.6423 0.698396 0.608092
1609 1 -21.8502 20.004 -19.246 -4.27761 0.177579 -0.0268606
1610 1 -11.9552 20.5067 -12.5869 0.1791 3.10099 6.72023
1611 1 6.5898 10.6605 -2.62291 0.287036 -4.00702 -2.06769
1612 1 -22.4903 -18.9515 13.2719 6.26451 2.09083 -0.0109953
1613 1 0.985612 -15.2662 0.492658 -2.99402 1.74038 -2.33808
1614 1 -16.5389 -12.0336 2.9885 -2.60141 -2.83612 -5.20208
1615 1 -2.93973 -16.5002 -12.8115 -4.49901 -0.293282 0.716998
1616 1 15.0127 -12.5523 -19.3924 5.1966 -3.44693 -1.427
1617 1 -14.8804 -12.4829 -10.3981 2.07979 3.83036 0.100009
1618 1 9.59219 16.7802 14.2614 5.25194 -1.41573 1.5761
1619 1 14.102 14.8542 18.5438 0.087946 1.57834 0.540266
1620 1 14.5602 -9.1816 -6.89983 2.81052 -1.78582 -0.585989
1621 1 -16.8717 4.58129 11.6713 1.58609 -1.01775 0.857448
1622 1 -14.4184 22.5999 15.2038 -2.88624 3.68853 2.00238
1623 1 -10.4966 -16.3568 13.6644 -1.28142 -1.88081 -2.85678
1624 1 6.0432 19.3261 -20.7263 -1.07036 3.02343 1.28551
1625 1 13.5756 11.8651 -11.1428 -0.143411 -1.92034 2.53674
1626 1 15.9036 -1.46197 12.3217 4.14835 -1.8675 1.10493
1627 1 18.1516 -6.13506 22.9415 -1.95172 -4.9831 0.744322
1628 1 21.2469 2.87233 0.268971 -1.29424 -0.740407 -0.404781
1629 1 -5.05064 -22.6217 16.503 -2.89976 -1.31469 -4.90075
1630 1 10.8807 -10.4447 20.1121 -3.24026 -0.683465 0.854432
1631 1 -21.7862 -20.2109 9.3834 -2.26274 2.39296 1.51101
1632 1 -4.51084 8.20195 -22.6373 -1.78823 -4.42839 0.453063
1633 1 18.278 19.2218 -20.7254 -0.0604719 3.8249 -0.525577
1634 1 -18.6771 -8.56777 -22.9886 0.487238 3.03313 -5.18709
1635 1 7.953 -15.11 -11.6826 -1.76248 6.65084 2.34633
1636 1 17.5873 -10.667 13.3583 -1.41185 3.17633 3.05603
1637 1 -0.702543 21.6776 -1.79826 -0.112966 1.25261 -2.39049
1638 1 14.3043 -4.7426 -20.492 -4.35723 0.426699 1.57545
1639 1 12.7204 10.716 18.0294 3.24154 1.57662 -0.246247
1640 1 -17.7568 -23.4082 -12.5239 -2.06786 -4.20236 1.621
1641 1 20.0363 -12.6668 19.6123 -0.714431 2.52142 3.9034
1642 1 -1.36211 22.6488 5.13484 -2.76896 -1.21083 2.48641
1643 1 -6.70688 23.0813 -9.71362 -2.18561 1.33011 1.2884
1644 1 -17.3534 1.17671 10.3654 -2.15852 -0.444903 0.0554119
1645 1 -5.40126 -4.77331 -5.79256 5.46455 -3.3644 -5.36462
1646 1 -20.8338 -6.89511 -18.7497 0.808492 -3.98786 -0.591696
1647 1 17.6628 11.5749 -16.2974 -0.0176567 -4.92561 3.76799
1648 1 -20.0807 -15.2657 -23.0872 -0.112755 4.13151 1.49539
1649 1 -17.1292 -5.19652 -10.408 -1.79406 -4.82891 4.56365
1650 1 11.8675 -3.29707 -14.2381 0.317541 -0.991246 -4.47261
1651 1 14.7786 -18.896 -0.599696 -1.18856 2.57512 0.43884
1652 1 14.0369 4.25825 -20.314 -0.647328 0.295623 3.18101
1653 1 13.0553 -23.9336 2.60173 3.68995 -3.05437 -1.18853
1654 1 5.3783 -19.6451 11.1934 -2.96879 -1.98174 3.46708
1655 1 -3.28626 14.9874 11.8584 3.79581 -1.21918 -3.05729
1656 1 -3.80136 13.7126 18.9614 6.02103 -1.10138 -5.17294
1657 1 17.3627 8.80144 -12.2444 -0.257402 1.16801 2.10536
1658 1 -17.6972 21.5251 9.66063 -3.78527 -0.0532145 0.429455
1659 1 -6.29334 -22.8105 5.77874 0.5048 1.52806 -0.741013
1660 1 4.04143 -10.0817 -23.6975 2.53946 0.725883 -0.607327
1661 1 -23.9835 -1.24853 17.4861 -1.46506 2.2069 0.110348
1662 1 -9.61123 -22.2998 -9.83422 -0.47443 -2.87859 1.80673
1663 1 -14.8159 -0.613503 -0.35718 0.772579 1.62073 1.1319
1664 1 2.23919 -14.6277 -14.7333 -0.974003 5.35617 2.77759
1665 1 -6.13021 7.71217 18.6411 3.43877 3.88773 -4.29631
1666 1 16.2515 -7.69745 -16.1373 3.86267 0.832731 1.06779
1667 1 -11.6792 -2.41109 9.01059 -0.199723 0.287974 2.10553
1668 1 -8.45952 18.77 7.73272 -0.640687 -0.0535276 5.05361
1669 1 15.4203 -22.8988 -13.2981 -0.520225 -1.70101 -0.615465
1670 1 3.54642 13.9553 -4.70095 -0.822209 0.633247 0.28441
1671 1 -15.4845 11.0734 22.1389 -0.571398 0.426404 1.45036
1672 1 3.04347 10.8386 23.8516 -3.89042 -4.77692 1.37875
1673 1 3.51324 -16.9851 0.882776 1.98275 -0.348832 1.66942
1674 1 1.32124 -3.44802 -5.98794 -3.2778 4.01926 -0.91015
1675 1 1.69496 9.30125 15.4709 0.351359 -3.2795 0.639033
1676 1 -18.1337 2.70691 -3.89124 0.353454 -2.9528 -5.82522
1677 1 22.4433 -17.0434 11.3893 0.59345 -1.37369 -1.98508
1678 1 5.129 23.0371 -18.6135 1.32897 -0.0988006 0.739083
1679 1 -9.50971 23.103 19.0169 2.56092 0.583304 5.47309
1680 1 23.1137 -15.8701 -21.1175 2.89469 -1.15195 0.192593
1681 1 -16.1776 -7.68039 -21.7671 4.49249 -1.38045 0.148861
1682 1 8.86435 7.81935 0.618417 1.04901 0.989582 2.29153
1683 1 14.9123 25.4278 -16.5508 -0.23627 -3.3675 3.15887
1684 1 5.98676 15.3447 15.0292 -0.79834 -2.27524 -2.82294
1685 1 -23.0154 16.2794 19.1901 2.50183 6.02454 -4.23004
1686 1 9.77243 -11.1803 22.5646 2.96203 1.63079 0.308505
1687 1 18.8121 -15.416 -13.8462 0.672366 -0.388333 0.584054
1688 1 -18.8639 -2.2807 -12.9943 0.712599 4.89344 3.67606
1689 1 1.89637 -23.7603 -0.880822 1.97116 -3.55104 -2.67354
1690 1 -6.17556 -24.2166 11.4834 0.266199 2.23737 -3.13913
1691 1 -17.7489 -13.0228 5.35598 1.58478 -0.236173 1.99433
1692 1 -6.01227 21.1195 -5.9226 1.52138 5.15505 -0.736497
1693 1 23.542 10.8701 22.0268 6.31964 0.735201 -2.71237
1694 1 -14.7675 3.98745 -11.6874 -0.355219 -3.57296 -0.153252
1695 1 17.2198 -24.2793 -9.77535 2.935 0.447823 2.09071
1696 1 12.7958 -0.371095 2.01086 0.345513 -2.98006 1.99962
1697 1 -11.5485 -22.8864 5.40766 0.570444 -8.36855 -5.68931
1698 1 -9.8273 11.1127 -1.84221 -4.87389 1.29296 2.7197
1699 1 13.9243 0.080545 14.2339 -0.601054 -0.257811 -0.88782
1700 1 14.4481 -1.63017 -14.2617 -3.79756 1.99591 -0.34306
1701 1 10.5597 23.2237 -3.79336 -0.549663 -1.05847 2.63336
1702 1 3.25489 -21.4122 9.95295 3.41911 -3.09643 0.309331
1703 1 2.59931 4.47846 -14.1138 1.23999 -2.14117 0.550097
1704 1 -10.5898 -8.60807 5.03415 -3.47066 0.823613 4.29456
1705 1 -1.27032 26.3111 18.8292 -4.73153 4.23861 1.24856
1706 1 9.03728 8.94885 -20.4018 -1.08307 1.05579 -0.0776127
1707 1 -11.1616 -8.48774 16.2807 -2.0801 -0.0360756 0.338005
1708 1 -7.27087 25.5918 15.773 -0.345624 3.92788 -0.634765
1709 1 16.9846 17.6478 -1.96616 -2.26905 -1.09082 -2.1802
1710 1 -8.00642 -20.6191 -13.8594 1.69464 3.0229 0.258968
1711 1 -1.44826 4.04929 4.15664 0.161007 5.42726 -5.14584
1712 1 9.58351 15.3543 -21.2871 2.08188 2.01116 7.43075
1713 1 21.3842 17.8671 10.907 -0.404871 0.618027 0.0383066
1714 1 6.88003 -0.756516 -11.9515 -3.20956 1.85791 2.72336
1715 1 11.314 26.0495 17.7249 2.68862 3.3378 1.62827
1716 1 14.7461 46.9756 23.3124 -1.35002 0.313345 0.798029
1717 1 11.3916 -16.4719 -2.56842 0.852932 -3.58673 -2.57045
1718 1 5.94909 -18.6824 -12.2893 1.89171 2.24881 5.47157
1719 1 22.8534 8.63637 -0.277939 -6.05988 -0.389716 -2.68695
1720 1 -3.89802 -22.7747 7.9603 -0.156248 1.054 -1.17941
1721 1 7.30211 2.11365 9.9559 3.13951 2.48157 3.58025
1722 1 20.2921 -22.6257 17.3829 5.37637 5.53471 -2.70864
1723 1 -23.3841 17.8632 2.96828 -4.87999 -1.06099 0.497302
1724 1 -17.4289 46.9405 -5.36896 0.779792 5.86161 -1.28418
1725 1 -15.1094 7.35923 -21.3938 3.67288 0.286989 -2.84753
1726 1 17.6559 21.9738 23.1085 -2.52676 -3.10561 -2.3886
1727 1 22.4204 -4.34064 -19.2271 1.15015 2.04125 2.69028
1728 1 -23.7031 -7.74798 -19.2779 -0.0435226 -3.13327 -5.78666
1729 1 -14.416 10.6542 13.6455 4.25604 -0.416838 -1.11064
1730 1 -5.0777 -8.79924 -23.3774 -3.33536 -5.80304 -3.85486
1731 1 22.1112 4.87468 -2.98636 -2.50913 5.63783 -5.5278
1732 1 13.2257 -13.479 6.68073 -2.75439 -5.13307 -0.0576424
1733 1 -11.6491 -15.376 7.61949 2.23928 -2.57715 -2.80151
1734 1 -7.91139 24.5764 -21.9394 -2.27208 -3.42951 3.757
1735 1 0.963114 18.9834 -18.3441 1.06203 -1.77783 1.0286
1736 1 19.4662 1.87787 9.73025 0.987081 -1.1882 2.07627
1737 1 -17.1546 1.86136 -8.38392 2.9554 2.50839 1.74715
1738 1 6.14057 11.5372 -22.6672 3.15072 -0.257424 -0.00762816
1739 1 -9.21237 -16.9937 16.1995 1.87875 -2.06187 -1.34739
1740 1 4.24766 21.6454 17.9979 0.933398 3.62815 1.04487
1741 1 12.6011 12.8032 21.7468 -2.4754 0.778958 1.59301
1742 1 0.151769 -8.77457 21.3765 -0.780667 -0.889257 -1.13631
1743 1 19.7378 -16.5926 7.03979 0.57824 3.40817 2.9628
1744 1 13.2978 24.0553 -7.12615 6.5671 2.70741 -6.85802
1745 1 7.49661 12.4014 -6.18883 -1.90312 -4.85555 -0.468213
1746 1 16.9597 25.1046 -12.0693 3.48208 1.21973 2.4072
1747 1 4.53146 -15.4451 -8.92493 2.32472 2.86355 -5.04667
1748 1 14.5944 -0.0347478 -4.2894 -0.0431518 -3.50578 -4.87297
1749 1 20.8303 10.9429 13.4868 -2.66729 0.540733 -3.94053
1750 1 13.7734 25.021 11.6226 5.95585 -3.09621 -0.303684
1751 1 1.04757 -11.5651 16.1193 0.120355 -1.19641 -0.892047
1752 1 -24.157 15.7303 -18.8379 0.489858 2.24638 2.84464
1753 1 -22.7904 -13.7374 -20.9907 7.92543 -0.530619 0.986582
1754 1 -23.446 10.7619 -21.7476 -6.36215 -1.85339 3.48306
1755 1 -8.96595 -0.744801 -9.85654 -2.23068 2.3746 -0.236365
1756 1 -16.8546 5.35204 6.05444 4.54628 0.0968726 0.391581
1757 1 16.3075 -15.1777 -6.99706 -2.1236 -1.16152 -1.72332
1758 1 21.4453 -23.891 6.40202 4.77485 5.01316 -0.599247
1759 1 22.3641 7.79907 11.5862 4.08224 1.24299 2.0939
1760 1 -15.9254 -13.3992 -22.6541 2.33233 -0.247765 4.70085
1761 1 21.1536 -17.6051 -22.0618 1.39997 -0.157998 -0.487862
1762 1 6.03069 17.7414 7.26005 1.23527 4.01877 -1.13899
1763 1 -3.57084 4.88158 13.6981 1.759 0.952567 0.446652
1764 1 -14.1855 18.4035 -13.1226 0.106057 -8.37704 4.0652
1765 1 3.3761 -16.8589 -5.77905 1.87171 -2.53304 -2.95872
1766 1 -19.2334 3.10894 15.2286 -2.0601 6.5179 0.328765
1767 1 8.7526 25.8693 19.1319 7.30625 3.46283 3.12732
1768 1 12.6113 -2.64975 6.76867 -3.41829 -1.10306 -3.75144
1769 1 -21.8127 19.2248 13.8734 1.81761 1.03304 3.9568
1770 1 -6.44495 -3.56588 22.179 3.24347 1.205 -3.6209
1771 1 0.186347 22.6714 10.0474 -5.11209 -5.46122 -3.66606
1772 1 13.014 -22.2889 0.115107 3.99131 -0.20404 0.0730599
1773 1 18.1936 14.7311 8.76805 -7.16671 -0.774772 3.72634
1774 1 16.4847 -19.427 22.4684 1.81764 -1.97964 -0.430258
1775 1 7.89544 12.5691 -11.4914 2.7021 1.38941 -7.69901
1776 1 11.1211 12.2386 -2.68189 2.27851 -3.28152 6.73996
1777 1 -22.4795 -11.6923 15.9992 4.36352 -3.39188 -0.0576626
1778 1 -17.5968 -6.99014 -12.5879 1.55064 2.4803 6.86372
1779 1 5.55789 3.0656 -8.83697 -0.11405 -0.285087 0.586711
1780 1 5.99731 5.60105 -7.27903 1.05764 0.119417 0.595639
1781 1 7.93013 18.2991 -23.0679 3.2163 3.28378 1.18134
1782 1 -23.9443 -15.3144 -12.4163 -4.47253 -3.56127 -1.13347
1783 1 17.6469 5.63563 -5.46101 -2.8906 -0.613419 4.609
1784 1 -11.7115 14.9313 15.7501 2.39648 1.44756 3.02129
1785 1 -5.77625 6.20045 -9.59683 -0.0111181 -0.636163 -2.62521
1786 1 -4.91789 1.91954 -6.0255 5.27126 5.22113 -4.49305
1787 1 6.38673 18.7403 -10.357 -3.9006 -0.750146 3.29788
1788 1 -15.4369 -16.5924 15.3417 -2.63309 1.69963 1.54483
1789 1 -24.6569 -1.88245 -5.99234 -3.19103 -0.525037 1.47441
1790 1 7.9951 2.78173 -13.3592 -3.25289 -2.6993 -1.11452
1791 1 1.20779 -8.25279 -14.3531 -4.43281 1.14372 0.445974
1792 1 -13.7134 5.61938 8.1346 1.4415 10.4943 1.18036
1793 1 19.8431 7.54653 -21.6298 1.04793 2.8577 -4.47618
1794 1 19.4502 3.21464 -20.9736 -1.05817 0.0155393 1.14863
1795 1 16.9583 -1.35316 -10.8945 -3.62247 -2.66919 -0.804481
1796 1 -21.3329 -12.5247 -22.9543 -3.509 0.0019519 0.798951
1797 1 0.333132 18.9068 16.0834 -0.732983 -3.37651 -0.90284
1798 1 16.3873 -5.62093 -18.529 -4.30292 0.320365 -1.28627
1799 1 -11.1987 10.8496 -15.6269 1.86606 -1.7968 6.46066
1800 1 0.117817 3.24028 12.6553 -3.51513 1.40079 -0.0870444
1801 1 -10.3821 -19.8505 -7.1475 -2.06316 -2.48355 0.306277
1802 1 -15.5884 -21.1284 -12.5227 2.94904 5.62694 1.59589
1803 1 -14.1925 14.7107 -9.01383 2.77192 -6.59016 2.75717
1804 1 -2.43112 -23.7082 -16.4497 3.08764 0.759022 0.0897816
1805 1 10.7181 3.70154 -4.81146 -0.472619 -0.866699 -3.61881
1806 1 12.2409 -5.24228 15.3442 3.69604 -2.38256 -2.03392
1807 1 -17.4423 -9.05732 22.6966 4.1416 3.43372 -2.58616
1808 1 23.5086 -13.0783 17.8293 3.73573 1.59191 2.28504
1809 1 9.01317 16.5769 -1.24212 -3.57181 2.97899 0.74559
1810 1 11.4314 -23.5884 -7.0559 -2.00829 1.7194 -6.21922
1811 1 0.585614 4.61089 20.7153 0.0679195 -0.60914 3.03318
1812 1 -11.8107 -3.84791 -19.4449 -3.80391 0.13135 3.24802
1813 1 -19.1565 8.74208 16.53 -4.20848 -0.240974 6.13524
1814 1 10.2624 4.95136 -7.5862 2.73694 -2.12636 -0.272378
1815 1 13.6367 -8.48353 21.7294 1.27876 -0.598023 -0.599748
1816 1 1.1057 17.1431 -9.60984 2.74469 -4.74517 -3.50225
1817 1 -1.45821 17.132 -17.7805 4.8008 3.27016 -0.636719
1818 1 -23.0714 -9.67526 6.69286 0.60908 -0.407678 0.387345
1819 1 -12.6402 -10.6403 17.0852 -1.86648 6.42152 0.720449
1820 1 14.8753 10.2196 -13.023 2.26309 -0.835289 3.82375
1821 1 19.4123 24.2012 10.4014 3.205 -0.321236 1.73927
1822 1 15.2585 -2.64789 -5.43236 5.58348 1.57132 1.79147
1823 1 8.00839 -22.7157 9.38333 -2.24752 5.33097 -1.00371
1824 1 -16.867 -17.7063 6.54694 1.81081 -0.641356 0.992383
1825 1 7.29782 -11.5997 -4.53047 0.752907 0.102282 -1.22343
1826 1 20.5739 9.38893 3.53322 -0.681538 0.284926 3.1595
1827 1 16.8381 -21.9278 -3.00458 -4.95332 0.165819 1.13294
1828 1 -12.5898 -22.2656 -20.2093 5.70407 0.949772 2.7575
1829 1 4.88082 20.1467 10.3539 2.98702 1.33921 -0.152711
1830 1 -17.2429 3.90794 -15.6968 -0.180901 -0.679669 1.01512
1831 1 14.6876 -16.4112 -4.81824 1.64805 -0.439911 4.47643
1832 1 -21.4266 -12.0171 22.2675 7.15897 -0.407136 -1.4666
1833 1 -12.4719 6.36203 21.3425 1.86332 -3.88885 -3.32337
1834 1 6.89628 -7.85146 -19.5555 -2.33639 -1.17896 -2.86211
1835 1 5.20855 24.2132 18.8669 2.78442 5.36254 -0.798941
1836 1 -10.235 45.9848 -19.3222 3.16817 -1.4694 -0.769456
1837 1 14.2624 -23.2465 9.18528 4.40265 1.24222 -2.55989
1838 1 18.9237 20.7659 1.8946 0.758719 1.23508 0.147973
1839 1 18.5611 24.5763 3.19442 0.613791 -0.738852 0.553827
1840 1 -21.3083 -12.0513 1.85057 -1.32667 3.44893 -3.6607
1841 1 8.38909 -23.5926 -11.5181 6.58482 -0.159034 0.744116
1842 1 15.1112 -20.9164 1.67919 1.91614 -1.20091 -5.85867
1843 1 3.56629 -4.40754 -17.4974 0.720605 -0.858001 2.56835
1844 1 -3.80731 -3.2752 5.56638 0.791144 0.955519 1.25113
1845 1 22.0487 17.0501 -20.3995 -1.82527 -5.56318 2.49804
1846 1 12.6652 -20.7049 6.70347 -0.50552 -0.0874418 4.30627
1847 1 19.8633 -14.9984 18.0184 1.12165 2.06127 0.563271
1848 1 4.09009 8.05354 -18.1808 0.819337 -6.27376 -2.65486
1849 1 12.6367 -23.2378 -13.5986 2.50942 -6.91845 -1.0899
1850 1 17.736 -20.5238 -7.33523 -2.01782 -4.69795 1.85314
1851 1 -5.97652 3.50126 -0.331718 0.33347 4.74206 -3.96608
1852 1 -0.219137 0.735258 -19.5614 -3.50707 -5.86924 -1.03282
1853 1 3.22744 -11.9397 6.46054 0.463616 -1.03563 3.26939
1854 1 1.41392 46.5256 12.8264 -1.01746 -0.903829 1.77789
1855 1 2.18571 20.3852 -15.8555 -3.25533 0.616096 2.41775
1856 1 5.74621 -6.60768 -17.3722 2.82794 -0.345465 -5.71627
1857 1 0.508112 -19.8498 0.461363 -0.629928 2.1003 -2.01166
1858 1 2.0187 -17.3015 -14.2184 8.73706 -0.46651 -2.45047
1859 1 6.44442 -15.7098 -16.6102 -6.71844 -3.40933 1.1463
1860 1 7.76452 -0.459132 10.6609 -4.52794 2.84052 2.40246
1861 1 -15.7754 -21.7444 -17.8334 4.82664 0.0659762 -3.65967
1862 1 -11.0519 -2.03026 -8.67211 -0.208745 1.86048 2.55707
1863 1 -3.86026 -14.6424 -7.25631 -0.512562 2.12017 4.14768
1864 1 -5.77653 12.6267 20.7204 4.37964 1.0595 -2.25013
1865 1 -10.6439 -4.49367 7.26502 -3.09357 -0.997181 3.24079
1866 1 6.80883 23.5038 12.0898 -6.35147 0.0890804 -2.20061
1867 1 5.81786 -9.3883 -2.8655 2.46175 -2.85933 6.32424
1868 1 -4.6511 3.10024 16.0614 7.20922 -3.9712 7.28029
1869 1 -1.20598 24.5742 16.5394 -5.18641 -5.42262 -0.404017
1870 1 -20.889 10.955 15.8221 1.61345 -0.0808223 -0.462496
1871 1 16.8336 -13.7095 5.04862 3.73337 2.37772 -2.57845
1872 1 -0.257513 -12.2541 -11.5984 2.68497 2.79675 -0.247423
1873 1 -10.371 17.3017 9.48698 2.55047 -1.46393 -1.50213
1874 1 -9.27087 -16.2611 -20.155 2.52349 -1.17724 1.62427
1875 1 22.0641 -6.93208 -10.0976 -0.219582 -3.95174 -4.39287
1876 1 -21.5124 9.55586 -19.8582 0.13601 -2.47493 -0.154401
1877 1 -14.68 -4.50701 9.34675 -0.347217 -3.0642 -3.86237
1878 1 21.2474 22.9219 -1.16907 -1.35091 3.24188 3.23711
1879 1 -17.8109 -17.1707 -20.1311 -3.13333 -3.11786 0.0845506
1880 1 -2.02861 24.2678 -20.443 1.44036 2.90493 1.14357
1881 1 11.7362 4.27657 18.8482 0.609255 0.191815 -1.46403
1882 1 -9.18722 10.0536 19.5135 0.981581 3.21461 1.99707
1883 1 -9.69284 -14.6581 -6.66639 2.0785 1.74673 -0.681044
1884 1 15.8434 16.9946 10.4173 2.53989 0.728366 7.887
1885 1 -8.81171 18.7678 20.3216 1.28133 0.597112 -5.24164
1886 1 18.1853 23.8173 5.99054 1.88406 3.59317 1.13535
1887 1 17.7458 -6.58611 14.594 -0.344484 4.01178 -2.23363
1888 1 -8.60908 -17.0804 -12.044 -0.00781054 -1.31291 3.99042
1889 1 -11.2776 2.87589 10.0501 5.60967 4.40513 -0.200654
1890 1 -22.0474 7.53717 22.4468 -0.158383 -0.520824 4.92254
1891 1 -8.76108 -13.2299 -23.1137 0.704195 -3.47771 1.95268
1892 1 -1.1904 -15.6174 -17.3048 2.57318 1.61694 3.01152
1893 1 4.53803 -0.0035427 20.7207 -0.25521 0.301913 0.541892
1894 1 1.41961 -18.2406 -3.60789 1.65325 -0.579288 0.638056
1895 1 -17.8101 -5.55022 17.6704 6.43128 0.0839694 -1.76562
1896 1 14.6803 20.7414 1.05851 2.3062 -0.0644545 0.230424
1897 1 -12.6162 -24.2368 -6.0438 -7.63575 -1.92183 -3.36965
1898 1 -21.1181 21.6833 12.7142 3.48046 -3.41727 -6.12855
1899 1 -6.29126 18.3589 -4.88941 -1.29172 -3.08478 2.83092
1900 1 -11.9144 1.19425 5.917 4.40291 0.889994 -4.16346
1901 1 -9.79389 -13.916 -18.7301 2.88788 -1.81386 0.318434
1902 1 20.333 -0.42845 -19.3222 -6.94385 -7.98657 -0.903745
1903 1 0.29994 -17.9836 -16.5466 0.318441 -2.37599 1.23151
1904 1 -9.4917 -21.9628 17.1729 1.74555 -2.20983 -1.18229
1905 1 -14.7303 9.10157 -7.78536 0.393209 -3.67939 -3.0874
1906 1 -19.5848 45.9463 11.7084 -4.61638 -0.593045 3.67617
1907 1 -22.1439 -8.75568 11.4723 0.911969 6.33344 -4.00937
1908 1 -15.2785 -3.20827 2.54571 2.10059 1.21252 -1.26647
1909 1 9.44304 -7.82507 13.0052 3.11937 -2.26994 7.13745
1910 1 -9.3847 -11.6319 13.3103 -0.0338267 4.09152 -0.792775
1911 1 19.4783 -1.39301 -5.57909 -2.51994 0.0798016 2.22807
1912 1 -15.52 4.77524 -0.283213 2.37783 3.87586 -2.17353
1913 1 0.428856 19.4923 -0.31834 1.45511 -3.98896 0.361667
1914 1 18.4509 7.35517 4.13992 3.1858 2.95527 5.44188
1915 1 20.6594 -22.5232 -14.1992 -0.220412 0.313217 -0.315075
1916 1 -3.42146 18.5855 3.84292 4.92845 -0.427627 1.21133
1917 1 22.5941 23.7335 18.3886 -3.81791 0.505476 -3.46109
1918 1 -19.1112 -0.765994 -20.5135 -1.94668 3.70762 -0.576254
1919 1 -21.741 9.86232 -14.2426 -3.01416 3.90239 1.37569
1920 1 23.6367 -15.4475 0.908716 -2.13606 -3.62286 -5.84503
1921 1 17.2526 11.3674 -7.92173 -1.24365 0.240245 4.18557
1922 1 9.47381 16.4042 21.0092 -1.80444 3.55915 -0.908626
1923 1 9.84629 -0.0966416 -8.3579 2.26824 -2.21548 1.91383
1924 1 -24.1631 -17.8136 -0.612129 -0.120254 -3.53197 0.850198
1925 1 21.1767 -23.257 19.9559 2.27505 4.90916 -1.67839
1926 1 12.7003 -3.01601 -8.69435 -0.391425 0.648569 -3.12465
1927 1 -5.64696 -21.3554 -22.3341 3.46961 2.0228 -1.97569
1928 1 -24.3002 -4.01939 5.02893 -4.34314 0.288654 -2.90631
1929 1 6.72334 15.7469 0.734584 2.54181 -0.18453 -0.839798
1930 1 -7.71438 -15.0219 -17.0471 -3.20628 2.00235 -0.746088
1931 1 -8.88675 7.50068 -1.59168 -4.15073 3.14722 -1.7299
1932 1 -3.18378 20.7067 5.49865 2.77525 -0.710296 4.08776
1933 1 -2.72164 18.8567 -19.8519 1.67508 -2.05698 4.51117
1934 1 1.37846 -9.958 -2.55991 1.40147 4.76902 -0.498265
1935 1 18.3161 -15.9988 1.57069 -0.907185 -1.13142 -1.392
1936 1 19.0357 -20.5629 22.5542 1.00876 -0.276836 3.18248
1937 1 1.85462 3.2185 18.4907 5.33276 -2.48482 1.72988
1938 1 1.18283 6.72518 17.3738 -0.0823385 -1.32616 -5.43441
1939 1 11.4653 10.5459 2.18695 -6.08559 -3.7778 -1.62888
1940 1 -20.9227 -23.8557 8.18221 -0.785889 6.86867 1.20376
1941 1 -3.38214 46.5971 -14.0034 -4.2155 -4.67432 2.65148
1942 1 -3.26092 9.12975 -0.282596 1.60846 -0.976633 -5.19177
1943 1 2.8978 16.4058 -6.21372 0.0528353 1.84029 3.88842
1944 1 -18.3962 -23.0307 -3.0413 6.37469 1.25497 0.847922
1945 1 -23.2891 -20.7784 21.1848 0.967728 0.808182 -1.10808
1946 1 9.72824 9.4722 -6.30021 2.18048 0.196119 2.21932
1947 1 -17.4083 12.0927 -16.9331 -0.0152219 1.57754 1.28253
1948 1 10.3191 0.73607 -14.2907 4.33788 0.74373 0.47021
1949 1 -8.87978 -6.2187 -8.1113 0.520831 1.07721 -6.05021
1950 1 19.7934 23.0754 -7.09954 -0.58281 1.71466 1.94586
1951 1 -2.98227 -14.6215 15.0595 4.02007 3.06826 -3.70057
1952 1 5.11768 -15.7999 -11.6523 1.58605 -1.15902 -1.11944
1953 1 18.709 -20.7251 -1.05999 -0.813577 -2.39348 2.24842
1954 1 5.40504 7.13254 9.14788 -0.424374 0.62474 2.35792
1955 1 -11.7068 -17.5781 21.612 -0.576689 0.0196172 2.8946
1956 1 -4.44942 2.63815 8.78236 4.98624 2.69091 -1.77316
1957 1 14.2071 15.5957 8.38626 1.07424 -11.8831 -0.080432
1958 1 14.2978 6.5241 16.7397 -0.78037 -0.221817 -0.145957
1959 1 -23.5259 -3.15313 -1.36345 0.974511 3.10578 -0.407691
1960 1 -17.7479 -4.01083 -19.5484 0.337954 -8.88144 -1.21861
1961 1 16.9931 -12.5442 -5.79569 -2.99658 -1.70297 2.54067
1962 1 -0.421216 -12.0281 -5.02955 3.42485 1.32513 3.11678
1963 1 -0.0175211 15.0603 -0.21144 1.42058 -1.29438 -3.77228
1964 1 20.7872 25.5074 -14.4544 -1.27691 -1.7221 2.84253
1965 1 18.8123 -4.34541 20.7119 0.909836 -2.68584 -2.91292
1966 1 -19.2524 -13.9385 -12.0595 0.852338 -2.82026 -2.40117
1967 1 -14.1419 -22.5636 16.5898 -0.708197 1.63272 1.06805
1968 1 -22.8765 11.4858 11.7232 1.88973 -0.357718 5.13167
1969 1 -3.92695 -9.14902 11.2936 -4.92588 3.75576 2.70879
1970 1 22.8588 -5.4686 -1.66603 1.41994 -4.56791 2.65748
1971 1 22.5634 -3.8283 7.58914 0.948509 1.10435 5.48162
1972 1 -4.22023 -6.84858 9.82617 -1.68244 -0.951556 -0.6742
1973 1 12.8838 -17.8472 19.3218 0.110089 3.79979 -1.49282
1974 1 14.9265 -10.7503 12.0658 -2.61703 2.25897 -5.32319
1975 1 13.0393 -17.3692 -19.5941 1.66643 0.579306 -0.235494
1976 1 21.3235 -10.0131 23.3554 -3.00094 -2.90968 -0.373901
1977 1 15.1969 -15.8356 13.2119 5.08448 0.408418 1.41508
1978 1 9.1803 -2.4763 22.2877 -1.17463 1.64555 -2.13519
1979 1 -0.624838 24.4239 12.1627 -2.19781 -3.43153 0.463656
1980 1 -24.1357 3.3882 -19.7675 -0.48775 -3.39078 0.132217
1981 1 15.1944 22.9737 -3.03486 -3.4407 3.46911 1.33789
1982 1 -19.3215 -3.17719 23.6742 4.16807 3.83701 1.69843
1983 1 16.5475 -5.2417 -4.61574 -2.44069 2.85144 -2.45082
1984 1 2.61349 20.4539 20.1408 3.27694 -2.7772 5.01758
1985 1 1.34494 -23.1939 -9.85237 0.798007 -1.48245 3.19408
1986 1 13.7696 -5.32637 4.03887 0.761817 -4.15029 -2.87814
1987 1 -21.4145 4.5177 8.5896 0.629504 -0.170418 1.34833
1988 1 7.57759 16.7668 9.81623 0.345817 -0.891488 3.45357
1989 1 -12.0065 -14.0777 10.1283 -0.920629 2.50827 0.30885
1990 1 20.1487 -14.9714 -4.75181 3.33711 0.238041 3.79596
1991 1 -21.3721 -24.1405 21.3158 -0.463407 4.5479 -3.27474
1992 1 12.4002 21.2603 5.55303 -3.06692 -6.79396 5.72017
1993 1 3.97589 12.0334 -13.1278 -0.878412 -2.15638 -2.03393
1994 1 -23.4246 -18.4551 2.97794 0.516524 3.18756 0.282403
1995 1 2.85645 3.87458 11.9918 0.431661 2.39545 -1.92231
1996 1 -8.82209 6.39354 -22.1503 1.4093 3.6204 -3.94998
1997 1 19.696 25.7181 7.87728 -0.601107 -1.8471 6.31146
1998 1 -12.4396 10.4885 -0.634294 1.91634 -2.02689 4.11531
1999 1 -3.67762 -11.1486 23.58 2.57725 1.0693 3.19692
2000 1 3.57121 3.95597 -19.5166 0.235794 -1.74133 1.33407
2001 1 -8.60545 -13.4686 -3.04959 3.19252 -3.16567 -6.20637
2002 1 -23.7045 22.1794 -6.23201 -0.191099 0.38395 -2.86232
2003 1 9.36095 -3.20407 -11.0626 3.98387 -6.19957 0.303416
2004 1 0.545145 -22.9572 23.2638 -7.30084 2.4283 -0.892933
2005 1 1.58188 -7.60325 18.5776 0.922502 0.234792 -2.50526
2006 1 9.43284 -10.8805 -6.56223 2.5448 -3.00224 -0.245644
2007 1 -9.01181 13.2519 -11.6151 1.42831 -3.7123 4.46087
2008 1 -9.92613 23.7527 13.0145 7.95437 1.29071 5.71663
2009 1 -3.60664 2.59388 0.502593 0.841865 4.9139 0.142024
2010 1 -7.85998 3.29483 22.3808 -1.64235 0.759522 6.82127
2011 1 -0.854544 8.86156 18.4946 0.110369 0.846122 -0.878499
2012 1 19.0128 -20.7673 14.1445 -2.31191 1.92993 -3.87722
2013 1 -14.5893 23.368 4.66728 -2.01498 -1.84918 0.593197
2014 1 -7.82581 -7.80309 12.9601 -3.14405 -4.17075 0.113567
2015 1 -3.6956 -6.22862 -2.33913 5.01406 -3.87569 0.561002
2016 1 -6.50004 -16.1099 -7.31269 0.638567 -1.22897 3.77413
2017 1 12.4399 10.4476 23.3761 -4.53219 -3.14411 2.13139
2018 1 -17.5878 -1.96391 5.53616 -0.43879 4.09176 5.43342
2019 1 1.18308 24.743 19.5882 -0.327053 -0.263697 -2.69104
2020 1 8.52476 -14.5173 -14.9084 -1.48729 2.63453 -3.08796
2021 1 -4.07402 12.4113 12.4905 1.21671 3.85168 1.25686
2022 1 16.8328 23.0249 10.5819 -0.00435124 -5.01792 -2.68949
2023 1 -21.7205 -12.005 6.97602 -0.30841 -4.46731 0.484359
2024 1 10.0842 10.6277 13.2547 -0.196206 -1.9518 -0.761282
2025 1 2.64137 -11.6085 22.347 0.316431 5.79739 4.51141
2026 1 7.10595 21.9282 9.85642 2.06522 5.38564 1.10448
2027 1 5.45925 17.1379 -7.99076 -0.143728 4.55284 -2.41849
2028 1 0.0449638 -2.08032 -18.6567 -1.9382 2.89009 3.14074
2029 1 16.6214 -9.33551 -1.85308 -1.84306 -1.44849 0.192394
2030 1 11.0246 -18.9652 -21.0278 4.0814 3.46911 -5.4989
2031 1 -6.53968 -20.8243 -11.2063 -4.56748 4.02356 0.372943
2032 1 -8.73897 4.72186 6.58808 -2.2724 5.38704 -5.12966
2033 1 10.4057 12.4468 0.064204 0.682677 -2.92349 -0.113821
2034 1 -10.2156 -2.32269 -17.7272 -0.0541369 -5.24532 1.6871
2035 1 17.8481 -15.4592 23.729 -2.07601 -3.30469 1.09126
2036 1 -14.4143 5.44551 -23.1895 -4.65751 -3.95269 -0.90201
2037 1 -19.0222 10.0176 12.2981 1.50058 -2.10611 3.95517
2038 1 19.7695 1.60925 13.8462 -1.95117 -3.49209 1.49199
2039 1 9.46048 -22.1884 -20.8003 -1.82912 -1.86984 -0.59164
2040 1 -6.07467 -23.0246 -7.32034 0.261456 -1.87876 4.4982
2041 1 -13.2621 -12.6205 22.3872 1.9873 7.65292 -2.37225
2042 1 7.04422 -18.868 22.082 -6.94648 -0.651269 -2.70261
2043 1 17.424 13.7505 13.8251 -1.89811 5.45551 -2.92661
2044 1 3.09344 -7.35205 3.20105 3.1305 -3.36716 1.49377
2045 1 6.52616 -18.1596 -18.7093 -0.149459 -4.34095 -0.685917
2046 1 -8.10701 16.0494 17.153 3.78049 1.87071 -0.294912
2047 1 -5.06494 -13.5527 7.21299 -1.19996 -1.54696 0.070598
2048 1 1.90474 14.5634 -17.2486 -1.05362 -0.240392 -1.88147
2049 1 17.267 22.1577 -17.7617 2.13996 -0.796486 -1.64041
2050 1 -12.3926 6.39238 -10.5976 -0.987711 -7.98548 -2.40668
2051 1 23.767 9.88335 -5.49372 1.9001 0.425341 -1.13659
2052 1 -10.6305 4.95433 -20.2896 -0.457457 0.439225 3.22135
2053 1 -22.0676 12.0779 -18.5659 1.45515 -4.49748 0.80141
2054 1 14.4894 1.4287 0.842339 1.08717 -0.983075 2.39127
2055 1 4.75891 15.9142 9.41791 0.198346 2.00563 3.9651
2056 1 -5.47297 24.4031 -23.51 1.01904 1.62546 -0.39996
2057 1 16.2712 -5.72883 5.55041 -6.44788 -1.10494 3.989
2058 1 21.4726 10.2988 -11.4736 2.70571 -1.83598 -1.00167
2059 1 5.70479 -9.95698 17.372 -3.34994 -0.777787 -2.87938
2060 1 -10.1659 -1.91313 -3.71442 -4.03538 1.59493 -0.956789
2061 1 -13.6461 -24.0781 -21.8852 1.06855 -3.54722 -3.99384
2062 1 -16.5138 19.8899 -8.59887 1.09666 2.28696 0.535586
2063 1 -9.29548 -11.5152 -20.5987 7.3823 -0.848186 0.139265
2064 1 -14.5319 -17.6531 9.57486 3.7256 -0.949225 0.170918
2065 1 13.269 -17.1063 22.0179 5.78541 -0.867179 -2.33368
2066 1 18.9086 4.72905 9.71199 -6.2271 -1.3641 0.821971
2067 1 -23.1566 9.1282 20.4111 0.34552 -0.659841 1.09999
2068 1 -15.9007 8.88063 -5.01283 -1.83924 1.66839 -0.637038
2069 1 21.5426 -23.877 -11.9026 0.17183 1.24078 -1.39853
2070 1 -23.4481 -0.24601 -1.46074 -1.18124 1.19022 -0.392333
2071 1 -19.1107 -13.7999 22.6208 -0.513318 -1.22475 -5.37226
2072 1 -18.5081 7.21359 20.6158 -2.72631 4.9044 -2.14938
2073 1 -18.9606 5.30746 -17.7494 0.304144 4.35906 0.189591
2074 1 -0.0183279 9.69345 -11.4428 0.550356 3.21698 3.05817
2075 1 -6.53775 -15.9722 -24.2406 2.87409 -1.2639 0.144253
2076 1 -13.496 24.9425 -7.67123 3.77739 1.80579 3.97116
2077 1 -17.2243 -4.79695 5.78321 -7.04344 -1.27713 -0.748264
2078 1 -15.8324 1.05943 -21.4498 1.07929 -3.06646 0.0199764
2079 1 4.06369 -12.7588 -20.8373 0.652281 -0.712922 0.548357
2080 1 -22.163 46.4831 -17.5918 -2.34163 1.35268 2.94503
2081 1 -23.9996 21.0144 -15.7808 3.89894 1.77554 0.586119
2082 1 -8.84039 20.8202 3.71688 -3.15279 -2.54003 -0.483443
2083 1 21.6186 9.13822 -7.18904 4.92762 -2.07442 0.907881
2084 1 14.6245 19.5705 20.4663 2.48618 2.18593 -5.26906
2085 1 -20.3782 -20.1821 -10.1943 -4.10895 -0.989701 0.514439
2086 1 -11.832 -10.8733 4.16313 -2.34515 1.54191 2.60982
2087 1 -9.25728 5.91168 -15.0371 2.71192 -2.8454 1.43161
2088 1 7.95687 21.5169 20.9643 -4.13258 4.47919 -0.68806
2089 1 7.97887 13.9075 -18.1555 -0.398024 4.97333 5.38141
2090 1 16.3368 8.51035 16.9773 4.554 0.676211 0.320668
2091 1 -8.01379 7.85236 13.5683 -0.760143 -3.18465 0.0661045
2092 1 -19.4737 24.1618 -22.669 2.2867 -2.50912 -2.12549
2093 1 -2.62963 14.3561 -4.09192 -1.7218 0.759193 6.84359
2094 1 -23.3284 12.066 -1.80285 1.68389 0.175617 1.9765
2095 1 -21.8199 -8.48565 4.27446 -1.34103 1.03515 -0.027709
2096 1 9.96751 -4.06946 -0.536099 0.599702 -3.56284 1.87307
2097 1 -5.64507 6.97224 11.9475 -3.12791 0.479114 -4.31304
2098 1 -16.3757 -15.807 -5.9717 1.52409 4.45261 0.558696
2099 1 13.5434 -10.6379 6.372 2.62536 4.03046 -0.434685
2100 1 0.242601 -5.6222 21.8623 -1.73033 -0.747399 3.89284
2101 1 -22.1131 -7.5348 17.47 0.511453 -2.87449 -1.92436
2102 1 8.5214 7.25124 -7.63181 -3.34731 2.07728 0.970781
2103 1 11.1945 -15.2928 -15.901 -2.147 -1.04759 -1.47881
2104 1 -20.4063 -3.75795 19.9091 -0.875158 -6.36554 -0.66382
2105 1 12.2652 8.77505 -12.9054 -2.46593 1.53481 2.31651
2106 1 -20.3485 -15.4754 -19.9795 2.49831 -6.48692 0.355996
2107 1 -8.46686 5.08676 -12.2609 0.885947 4.23844 1.70588
2108 1 -8.92487 10.9565 0.834794 0.74171 3.08016 -3.14074
2109 1 -2.89256 9.95688 20.294 1.38909 2.8902 2.82163
2110 1 4.34607 8.36711 0.626028 3.00033 4.1638 0.877243
2111 1 23.0009 -11.4124 20.3164 1.01371 3.41146 -0.592667
2112 1 -10.5715 3.15752 15.7454 -2.48495 -1.99934 -3.96267
2113 1 -17.7602 -3.72762 21.2557 -0.861465 -0.613294 -0.210976
2114 1 -1.01162 -24.146 18.9922 0.488744 7.21293 -2.48575
2115 1 17.8244 -14.4346 -9.8617 -1.03947 1.79644 6.057
2116 1 19.4412 -5.13269 4.52603 -0.901057 2.34012 -0.304227
2117 1 23.385 23.7539 5.43656 6.21737 -0.32482 -1.6494
2118 1 -12.4733 -2.9858 -4.97055 0.445969 0.988619 3.17208
2119 1 -11.0519 17.8571 1.9184 -0.679938 2.18162 1.76323
2120 1 16.6877 -19.7026 10.2637 -3.36035 -2.51171 -2.22956
2121 1 7.56335 -18.9917 -23.156 -0.372865 5.46654 -1.74522
2122 1 11.2903 4.61658 -10.5077 -2.45906 0.168604 -0.0804896
2123 1 20.367 -9.2837 -17.5996 -0.9508 3.78177 -0.82665
2124 1 20.2135 -2.78967 -17.7649 -4.56005 1.97994 4.05528
2125 1 -0.201772 -16.036 14.3604 4.76163 -3.9733 -0.157339
2126 1 10.2801 -6.32257 -4.32679 0.0129182 3.11582 0.192157
2127 1 -24.0605 -9.85352 -21.2183 -2.00403 -5.66311 -2.26993
2128 1 -16.8623 -20.4393 -3.75361 -3.94947 0.599172 -2.2208
2129 1 -12.1781 -23.3453 12.6576 0.144749 -2.66328 -3.09565
2130 1 -21.7216 9.30531 -6.14888 -1.12214 0.158035 -0.973316
2131 1 16.8412 -5.68572 0.00462794 3.6597 0.749063 3.01308
2132 1 11.7693 -22.9084 -22.2247 -4.02511 0.695231 0.121252
2133 1 -12.9455 -10.913 6.7908 -4.28242 0.353049 -0.240303
2134 1 11.7018 23.6511 7.55395 -2.35858 3.8652 -0.143653
2135 1 16.3771 13.0276 23.1186 -0.536058 -2.15197 -1.32584
2136 1 -4.67262 -20.9919 4.41381 0.538655 1.36045 0.249643
2137 1 16.0208 17.8272 -23.42 -0.813006 -5.26694 6.00982
2138 1 16.8359 24.1646 -14.7332 1.13034 -0.393881 -1.56994
2139 1 -8.39278 3.34641 -16.0783 -1.8828 -6.30982 0.840077
2140 1 11.3625 -12.1846 17.7365 -0.2664 1.54668 -3.45622
2141 1 -20.2717 -23.3993 1.08479 3.29513 0.154204 2.89671
2142 1 -16.2919 -7.97803 18.0715 1.09271 2.55177 2.70781
2143 1 19.2342 5.41375 -13.6851 -0.281935 -3.32272 -1.5665
2144 1 5.90117 -0.542688 6.84537 -3.56534 -0.787114 2.26116
2145 1 21.5232 9.36032 23.4205 0.0198929 1.4323 3.65309
2146 1 3.67489 10.2829 19.0567 -0.904794 -3.20085 -0.521157
2147 1 3.47207 5.85105 15.5064 -3.46049 -0.54714 -4.33587
2148 1 11.5504 -23.1178 21.1243 6.01836 3.63386 -0.779413
2149 1 17.6713 -2.72661 -3.43733 -0.355135 0.271988 2.39944
2150 1 16.8388 -10.7584 2.45195 -5.5106 -0.406685 3.97428
2151 1 6.97333 4.10193 -10.9945 -0.603314 -0.463933 2.6125
2152 1 7.03924 22.0933 -6.65258 -5.74751 0.0764109 2.6712
2153 1 -10.1802 -11.2875 -2.27841 0.180606 0.806048 0.947171
2154 1 -10.459 18.7711 -23.5011 -3.57668 1.42796 -0.439322
2155 1 14.5279 1.85641 20.3044 0.152686 -0.283812 -1.58819
2156 1 -22.5603 19.7606 -7.64011 2.70841 2.59136 0.62264
2157 1 -2.77484 17.0703 21.3248 -1.47086 1.17448 1.81653
2158 1 -18.3852 15.2631 13.764 -3.89023 -5.93211 4.60884
2159 1 3.8568 -21.7581 12.7081 -0.494339 -3.01095 -2.16647
2160 1 -20.3724 -0.241132 20.83 -2.03274 5.77361 -1.12293
2161 1 0.046502 8.87659 -4.23596 6.67174 0.0548062 -2.69537
2162 1 20.2682 11.8805 -4.58879 -2.65589 5.3515 0.466614
2163 1 5.4099 -8.72199 13.2571 2.45155 3.46369 -0.122931
2164 1 12.7235 1.2124 -8.0787 0.002324 0.407742 1.09369
2165 1 18.2152 21.1099 -12.3727 2.60371 0.295946 -1.47764
2166 1 -16.2995 21.0932 -13.8701 -1.18922 -2.84666 2.95321
2167 1 -14.4933 -9.75948 -16.646 0.222495 0.595135 -1.64642
2168 1 -17.358 17.8862 3.38707 3.41853 -2.39106 2.28915
2169 1 10.7808 -6.20009 -18.718 -1.79561 -2.59916 -0.177915
2170 1 -7.84093 -15.252 0.386982 0.233058 -5.35484 0.499506
2171 1 -3.98588 3.47994 5.97294 3.6527 3.29274 0.85487
2172 1 -0.0731628 22.0636 -4.57337 -0.226069 -2.11628 0.159717
2173 1 20.2976 0.903246 -14.2112 2.21206 6.11433 0.684195
2174 1 5.09812 6.16758 -4.66527 3.79472 -2.33222 1.38531
2175 1 11.6028 46.9981 9.7794 -5.97106 0.895977 -0.416193
2176 1 9.19486 -20.696 16.845 -1.15222 1.08916 -1.60181
2177 1 17.5081 17.3508 17.4128 -6.42588 -4.20743 -3.18624
2178 1 19.9144 -16.7203 -8.08044 -1.52765 5.86279 0.137984
2179 1 11.6756 -5.14617 6.00555 -0.208814 5.0704 -0.570873
2180 1 9.15696 -5.83421 -10.8319 -2.44045 1.11943 1.12264
2181 1 -14.7155 -20.2611 20.8771 1.64664 -4.86813 2.16565
2182 1 -0.606249 -0.99823 11.1741 2.20812 2.51902 -3.70196
2183 1 5.13662 -2.81646 15.295 -6.63317 -0.59133 2.59653
2184 1 14.4492 18.1111 -17.3716 2.59268 3.51224 -0.828618
2185 1 6.17229 6.12878 17.193 1.67337 7.11443 -0.548302
2186 1 1.48913 -9.51987 -18.4741 -3.9341 3.31174 5.49623
2187 1 15.1921 -6.49674 8.08816 -3.81248 -2.40056 -2.37911
2188 1 -11.7251 6.28999 12.1353 1.68915 0.713757 -3.54057
2189 1 3.97045 20.489 -10.319 3.91126 3.8383 -1.98071
2190 1 -0.899345 2.71029 -13.384 -2.8021 1.87999 4.60733
2191 1 12.9692 8.46072 4.10267 0.520196 -0.246728 6.48186
2192 1 0.726313 2.57642 -21.9049 -0.352815 -5.36078 0.652371
2193 1 15.7066 -13.7311 -13.582 1.29744 0.623928 -0.825461
2194 1 -18.2883 4.13186 21.7451 -1.62924 -5.92922 -6.9546
2195 1 -9.52213 -18.1747 -9.4885 -0.133028 2.53618 -2.74696
2196 1 -2.52624 7.03037 -11.7395 -2.35797 7.34614 4.01376
2197 1 15.6769 22.3155 20.7945 -0.186079 0.559093 -3.0582
2198 1 5.18603 8.8119 -4.07159 -1.69002 3.79071 -1.61813
2199 1 -16.7491 13.6091 1.49931 2.29622 1.31714 -5.70421
2200 1 -3.14925 -23.4 3.13104 1.13702 -2.88175 4.94105
2201 1 12.2622 -10.7739 -21.0763 2.32807 2.99459 -4.61283
2202 1 18.1028 -19.4774 -19.3255 -0.358171 0.52687 3.33912
2203 1 7.93852 -1.92734 -2.71947 1.47986 -2.45252 -1.22191
2204 1 5.71429 -1.42673 -0.44215 -0.639917 0.841453 -1.15821
2205 1 -21.5702 7.80597 -16.2782 0.427427 -3.03568 -0.528801
2206 1 -3.86929 -10.7354 -14.1014 1.40605 0.412824 -2.21906
2207 1 -21.4469 -7.90545 -2.01144 -1.41017 -2.58553 3.1498
2208 1 16.1331 18.8616 -4.33815 1.13179 6.88232 -0.00434193
2209 1 22.0232 22.7808 20.8674 0.640858 6.25665 2.1707
2210 1 23.7539 -19.2107 -3.05773 1.11837 1.92249 -0.118104
2211 1 -18.816 4.50761 -20.6432 0.148547 -1.67428 3.73944
2212 1 -17.6146 -4.76256 -5.95776 5.47648 -1.42643 2.39658
2213 1 19.5629 9.12616 -4.88569 2.9857 0.562902 0.630965
2214 1 11.1854 8.78878 19.4656 0.189334 1.38532 -4.35099
2215 1 9.6361 14.6815 -3.28411 2.42711 -0.0884301 -4.17102
2216 1 2.09782 -0.5357 -14.3021 -3.70478 -0.288001 -0.613936
2217 1 13.5807 -14.3597 22.81 -6.03674 0.651682 -0.603011
2218 1 -16.9024 -6.1743 22.052 -2.53061 4.19799 1.07853
2219 1 -11.6208 -23.1817 15.4717 -4.5744 1.95679 -0.376355
2220 1 0.670148 15.2884 -13.7145 7.64452 -1.85972 3.27219
2221 1 18.1045 2.90892 20.0093 -0.292569 -2.61604 0.203545
2222 1 3.17332 7.36263 3.92028 -1.35813 -2.70728 0.677056
2223 1 -21.4534 16.3398 -21.7288 0.931595 -5.03213 5.8092
2224 1 -14.7107 14.7297 -4.12677 2.11777 -1.46538 -4.49625
2225 1 -0.145109 -18.2292 23.4828 0.637609 0.125626 5.62464
2226 1 21.0778 -0.522267 15.3134 -0.569836 -1.39281 1.84273
2227 1 11.0475 1.77031 -2.57771 3.99554 -2.43279 -2.47512
2228 1 -8.78145 -6.88656 -21.8629 -2.9339 0.33958 -0.440006
2229 1 17.6422 3.04858 17.2404 -0.341032 -3.18111 -0.725468
2230 1 4.48156 17.5554 -2.27926 -2.85751 -1.55292 -1.2382
2231 1 -14.0015 22.19 11.6145 -0.421958 4.41253 1.83035
2232 1 -22.5955 23.5618 -15.3487 -2.71065 -4.28666 -0.06649
2233 1 -11.1 1.90908 -16.2866 0.585258 -0.456362 -4.03571
2234 1 -3.97421 2.66982 -3.53814 -0.0408028 -1.72335 2.82156
2235 1 10.0217 -23.2904 11.6917 3.24816 2.89167 0.160183
2236 1 22.8379 5.49016 -18.3825 0.874822 -5.95828 -1.84602
2237 1 0.99091 46.5747 -22.6994 1.07835 -1.43564 1.44101
2238 1 15.8724 13.67 -17.5403 5.28025 0.0673002 0.00993498
2239 1 -14.3751 -9.03012 22.1034 -1.98647 -3.03149 -2.56379
2240 1 13.5181 18.6994 15.1236 0.840875 -0.479936 0.397174
2241 1 -23.6408 -3.26107 -17.5291 0.119204 0.807597 -3.48902
2242 1 -10.6015 -17.3955 19.0535 -1.02925 2.93761 4.18252
2243 1 10.4813 24.1793 -11.3961 3.93885 -0.976657 -4.9954
2244 1 22.371 22.4715 -13.4689 1.04249 -2.69315 0.916611
2245 1 21.8954 -20.1157 8.63332 2.02796 1.96099 2.43932
2246 1 2.17959 17.8906 -14.2014 -1.59059 4.1834 1.49547
2247 1 22.514 -13.8346 9.85119 -3.4265 -3.14614 2.98437
2248 1 -0.621518 -7.95261 -12.1937 3.82928 -3.51184 -1.63643
2249 1 -14.7767 13.0174 -16.2863 0.600553 -6.54941 1.10199
2250 1 -0.95681 1.98658 10.2899 3.72074 3.83167 -2.8501
2251 1 -9.48431 -10.8056 -11.4784 2.05963 -1.15631 4.59027
2252 1 -23.5178 -13.8743 -1.26314 2.21573 1.38547 0.604061
2253 1 5.72862 -17.9806 -4.64434 1.30571 6.47085 -4.76687
2254 1 3.34538 19.2828 16.2214 2.18526 -2.82371 1.43811
2255 1 -0.148453 -1.92885 -15.7985 -5.42258 -6.58485 -5.80497
2256 1 14.9214 20.2694 -22.2158 -4.85316 -4.53687 2.19685
2257 1 -0.994469 2.59948 -7.58781 -1.19584 -2.21833 0.594592
2258 1 -11.158 16.1605 -22.4301 3.46323 0.420448 2.63113
2259 1 -21.8726 -9.3127 23.0172 -5.48525 0.417725 -1.9145
2260 1 19.9248 19.0058 -16.5201 -4.1183 -0.0784181 -0.89125
2261 1 12.2946 -2.18362 -11.3466 -1.73099 5.57549 4.54507
2262 1 18.8385 -24.1126 -2.34978 -2.4253 2.34364 -0.404411
2263 1 3.65939 -14.7886 -1.75808 0.356108 0.0914408 0.41735
2264 1 -1.78624 18.9601 1.44908 -3.47092 -1.5257 -1.04912
2265 1 -1.4748 3.20909 18.9797 -0.550207 -0.770635 -1.21635
2266 1 -23.599 7.04626 13.7109 2.81266 -0.339512 -1.21133
2267 1 -10.2671 -14.072 0.309713 2.04463 2.40173 3.8497
2268 1 11.9108 0.998418 -5.26462 -1.06332 -0.401628 -4.48672
2269 1 18.1441 11.9692 -22.8228 -4.43591 -2.53251 0.463101
2270 1 -5.68451 21.1774 1.70083 2.53105 2.26295 2.4692
2271 1 -24.064 -18.3131 -8.64665 -4.53431 1.69644 -4.11527
2272 1 0.791188 12.4836 10.8738 -2.64406 2.64236 0.280935
2273 1 -21.9499 -20.7047 15.5438 -2.83983 1.84824 -2.34961
2274 1 -5.18551 -0.291298 19.9061 0.998043 -0.522619 2.16961
2275 1 -10.9349 24.4231 -15.1452 -1.45805 -5.73807 -1.97583
2276 1 1.68854 11.1755 2.56574 2.0769 -1.90734 -4.21431
2277 1 -12.614 3.74234 22.3024 -4.85926 3.60333 0.45903
2278 1 -16.5034 -12.2896 -4.21073 -0.987153 0.112406 0.374652
2279 1 -10.5511 0.147075 8.51484 2.39662 4.31587 -4.755
2280 1 14.1835 -10.9649 -2.97319 3.94032 -0.328727 -1.49446
2281 1 18.74 14.773 22.7179 0.5719 0.624902 2.77099
2282 1 -5.76459 24.0825 9.04413 -0.90292 0.595432 3.33018
2283 1 23.2043 -14.2667 6.96753 2.74552 -1.40775 -2.31004
2284 1 -22.1548 23.2967 -22.9919 -5.21881 1.07778 -2.18985
2285 1 -20.8495 17.9889 1.47448 1.45408 1.63147 -2.35709
2286 1 3.35149 -10.2738 4.23347 -0.202423 -0.790788 -0.653351
2287 1 22.4649 16.9877 14.5455 1.47202 -0.675082 -1.05988
2288 1 21.076 -6.40674 -6.53584 3.86489 -3.44813 -0.273984
2289 1 -2.61976 13.3292 -19.8649 -1.21592 -1.53188 1.64613
2290 1 18.0065 -7.34508 19.9956 1.8827 -1.98208 -1.90233
2291 1 0.1037 22.1244 19.6867 -3.38042 -1.54725 5.22962
2292 1 -14.2061 -9.79993 -1.05508 -3.39703 -1.85231 4.33207
2293 1 2.61662 7.442 9.95401 2.69616 -4.68766 -1.69761
2294 1 -17.6622 8.77029 -20.4838 -3.38718 3.00257 -3.84265
2295 1 -15.4625 12.3667 -23.2833 -1.13168 -2.32667 1.03184
2296 1 -21.9212 -9.57821 -17.6689 8.50651 0.487635 1.14969
2297 1 12.1038 5.97355 -21.0611 2.09787 1.73049 1.97797
2298 1 -3.54241 -20.8063 -5.47505 2.83844 5.17118 -1.00246
2299 1 10.1255 -12.1793 -3.40272 1.59923 -4.92876 3.26074
2300 1 7.61474 12.1203 1.321 0.800527 0.630725 3.77383
2301 1 6.15291 -23.6931 20.5588 1.75742 4.43329 -0.585554
2302 1 14.9009 11.935 -15.468 2.99623 3.54006 -6.33368
2303 1 -12.5647 15.649 -12.9422 -3.79882 1.45399 -4.71342
2304 1 8.12963 15.8231 6.35781 2.33731 -1.74701 2.49594
2305 1 -14.8477 19.2431 11.2628 0.787228 -1.30234 -0.177817
2306 1 3.25973 -4.23321 21.481 1.61058 4.62377 -4.39451
2307 1 -17.0967 14.251 23.124 -1.19029 0.83225 -1.81688
2308 1 6.30868 3.46541 -19.7223 -0.457026 0.805636 -1.04645
2309 1 20.3059 18.0743 -23.5866 -0.0829113 3.93865 0.958432
2310 1 5.52999 -18.7259 8.53802 -2.83607 -0.15563 -4.32253
2311 1 5.14548 -0.610826 4.04962 -2.98306 -1.53983 -0.396812
2312 1 -19.0656 -21.7325 7.40534 3.30222 -5.55596 4.37318
2313 1 -8.65566 15.9676 -20.8104 0.604963 -4.36652 -1.29227
2314 1 -17.4318 6.56571 8.54942 -1.85997 1.98363 -2.05605
2315 1 -12.9935 16.7206 17.3697 0.233721 4.64429 2.58573
2316 1 -20.1458 -13.8572 3.86677 -0.718936 -5.85571 0.595914
2317 1 -4.27247 -11.0196 -7.14128 7.24385 2.73164 1.89084
2318 1 20.7467 -4.88544 -3.09798 1.44978 -2.55874 4.79787
2319 1 5.37299 -10.4958 8.18404 -3.23589 -2.39237 5.7794
2320 1 21.3674 2.18972 -18.9721 -3.60046 1.79048 2.23177
2321 1 -1.42491 26.4186 23.9039 0.0319343 -1.80828 2.27498
2322 1 -4.54391 21.4403 20.1077 -5.53495 -0.458782 0.705754
2323 1 3.24038 -5.89647 -3.82594 -2.57817 -4.40384 -0.211191
2324 1 8.8339 -19.8111 -19.0612 -4.09432 -3.77733 3.07107
2325 1 16.1944 -21.6493 -15.729 -2.55208 -2.33668 -1.75386
2326 1 19.7469 -8.81886 -12.518 0.580821 3.09255 0.222974
2327 1 12.3537 -0.618353 -17.8741 4.33522 -0.585621 3.04262
2328 1 -10.2497 -7.08448 -3.45198 2.28121 -0.0528899 1.50021
2329 1 6.85313 6.46364 11.5546 2.08758 -7.11878 -2.57756
2330 1 13.5739 -22.1889 16.0339 -3.36238 -1.21197 -1.97414
2331 1 -16.5723 -15.8388 10.863 -1.883 -1.2483 3.94225
2332 1 20.1038 -16.5503 9.87953 3.15057 -2.24272 -0.894161
2333 1 10.5396 -20.6284 -14.748 -4.62385 -0.0444924 -2.36938
2334 1 -8.76027 21.492 14.741 -4.76793 4.63297 -3.74695
2335 1 -5.30137 19.6705 22.4566 -3.6185 1.48458 2.22007
2336 1 14.595 -12.3906 -22.0424 -3.67534 0.374982 2.8093
2337 1 8.50878 2.27686 -0.889639 5.72641 -2.19269 -0.49945
2338 1 0.786332 -3.33685 -22.4455 7.02323 -0.499379 -0.918171
2339 1 9.23975 10.241 -3.75384 5.1828 -1.02392 -5.23448
2340 1 8.60059 7.4489 15.9137 0.0461262 -2.14877 4.26636
2341 1 3.31658 -17.0979 -20.6831 -2.58321 2.29296 1.47362
2342 1 9.82674 -14.7818 0.748382 -2.37882 -0.189141 4.45024
2343 1 8.7195 22.1912 2.51122 5.56219 -1.773 -0.972251
2344 1 12.8858 23.6589 3.94908 0.660759 -0.415626 -1.4041
2345 1 7.85364 13.1174 -14.1882 2.86235 -3.17214 1.42154
2346 1 -4.57075 -20.7018 9.8525 0.487528 5.19179 -4.30522
2347 1 -12.4777 13.1143 -14.5041 -0.832808 0.776692 0.0469267
2348 1 8.59794 -2.16425 3.96001 -4.6091 -1.99343 1.15491
2349 1 -9.52284 23.9905 15.9804 -0.899825 -1.075 -0.00549179
2350 1 10.4008 6.39795 -12.8779 2.77224 1.78071 -0.694033
2351 1 17.3144 11.6385 -12.2971 -0.400827 -4.84647 2.7417
2352 1 -2.80229 21.6316 -21.2237 6.65759 -1.52852 -1.04399
2353 1 13.4667 -2.42131 3.9399 1.49113 3.49127 -4.77501
2354 1 20.3147 -16.4255 23.7168 -2.80769 7.21517 3.45651
2355 1 -5.90536 0.53688 3.5942 -0.861935 1.52501 0.938601
2356 1 15.5432 -22.313 -10.6502 2.91531 -2.67427 2.41954
2357 1 -3.21215 -0.17693 0.261089 5.38522 -4.47672 5.69528
2358 1 0.955612 -14.5223 -10.3179 2.77767 -0.0615089 7.16511
2359 1 10.6454 10.8563 7.21668 2.92671 -0.0122795 2.6729
2360 1 14.5305 16.1551 4.36886 -0.41943 -1.43427 0.583923
2361 1 -21.6576 12.3526 -12.3854 -6.79661 -3.36293 0.0731046
2362 1 -20.4897 12.0767 13.145 -3.65988 2.13066 0.680987
2363 1 17.9524 -11.817 -0.926083 2.52411 -2.39174 -1.71298
2364 1 2.92278 -2.82816 -0.207986 1.65744 -4.12216 0.926163
2365 1 -23.6826 -6.92283 -3.84202 -2.6876 -1.54233 -1.70306
2366 1 10.9541 1.85602 2.48085 -2.19006 -1.80238 3.37021
2367 1 4.30024 18.555 13.4492 3.81137 2.90802 1.73689
2368 1 -7.71489 -20.487 -8.55489 -1.9335 0.128028 2.56497
2369 1 20.2802 3.63669 15.8937 1.48793 0.903702 1.23051
2370 1 -24.601 -9.28322 -8.19044 1.98051 -0.697478 7.02865
2371 1 17.922 -20.6537 1.64454 1.16709 -1.45021 3.20182
2372 1 23.4235 4.54037 -0.169113 0.684374 -1.35547 1.10738
2373 1 13.745 11.0047 14.1745 -1.76472 2.02016 8.18568
2374 1 -6.17564 7.87409 -0.803124 2.7524 -3.18995 3.67755
2375 1 8.53398 25.6472 12.357 -1.50961 -4.70399 0.672395
2376 1 -15.105 -1.36876 23.101 1.54518 0.992179 -1.69598
2377 1 -6.2835 -7.49061 -4.83848 -0.777186 2.37381 2.06505
2378 1 7.24231 -0.0330884 19.5795 2.62565 -2.97893 3.6358
2379 1 -23.3402 12.9962 9.27779 2.56965 -0.216555 3.83669
2380 1 8.41957 -14.7565 21.0638 1.76599 -2.70405 -6.41865
2381 1 13.3608 -8.11151 -4.12407 -0.138064 -1.17094 -1.30741
2382 1 -15.433 16.1825 -17.7861 1.58861 0.205949 1.60527
2383 1 21.2285 -19.1686 4.08281 0.650945 2.86074 -1.07374
2384 1 5.15567 -13.088 -23.6294 2.21611 0.811622 -1.23895
2385 1 0.430066 7.35492 2.93008 0.651763 -3.7683 1.16842
2386 1 3.2063 -3.63521 6.16992 -2.86518 -0.698351 -1.98017
2387 1 -10.9788 -4.74913 15.5868 1.24252 -1.61072 1.69928
2388 1 8.2851 24.1805 21.2839 7.07172 1.29362 0.487423
2389 1 7.41049 -12.4035 12.1355 -4.09728 -1.42415 -5.59939
2390 1 -23.3715 -7.43858 -6.52445 6.84101 -2.08464 0.167809
2391 1 -6.59426 -2.39905 8.91504 -6.74594 -2.33905 6.00478
2392 1 7.71712 -20.6836 -15.3591 -0.385475 4.21523 2.2911
2393 1 5.49849 -17.1206 18.6461 -0.374107 0.24554 0.871018
2394 1 17.5008 12.7831 -5.52283 1.68143 0.568489 -0.15571
2395 1 3.34265 17.9219 18.9429 1.87206 -2.40694 -1.02358
2396 1 -15.2964 -21.0968 -1.25144 -2.15508 -0.0801319 -2.56067
2397 1 -14.7043 -6.12181 19.8476 -0.903902 -0.967281 -0.786547
2398 1 -8.78938 -2.77189 14.8445 0.919876 -0.538152 -1.80968
2399 1 -13.7334 -9.5014 10.2115 -0.160898 -1.12746 3.30714
2400 1 12.2635 -8.05432 16.0318 -1.12164 -2.71581 -0.507156
2401 1 -17.6185 20.1524 -3.63802 -0.181803 0.65043 -6.79617
2402 1 16.9533 15.7984 -19.5145 -0.97058 -0.270174 2.05452
2403 1 -12.0215 0.659057 -22.5588 3.35891 -0.143076 -1.48585
2404 1 -21.3212 -9.58393 -22.1868 -2.85031 1.25506 1.96116
2405 1 -3.76513 -9.15046 -20.4609 1.42436 0.55709 2.51267
2406 1 -24.2706 9.06414 -12.4389 -6.45976 3.14991 1.51966
2407 1 -14.127 -12.6107 13.1196 0.457264 -4.59585 5.45086
2408 1 -21.528 -2.62391 -11.8885 4.39435 -2.71972 0.398456
2409 1 5.03296 11.8012 14.2668 -0.380568 -2.34085 2.97371
2410 1 8.51523 -21.7588 -23.478 -3.76518 -4.70961 0.8433
2411 1 8.51838 11.2179 -18.1543 -1.5981 3.68851 -1.46733
2412 1 8.58081 19.2253 14.3266 -0.853985 1.53283 -1.76952
2413 1 -5.87123 20.91 4.57144 4.99379 2.49058 0.736101
2414 1 12.2198 -6.0819 -6.26974 4.0437 0.462079 0.466987
2415 1 22.4097 -21.8842 -23.3749 -0.888608 -0.795154 0.0915035
2416 1 6.5634 13.4202 8.96124 2.1185 0.598977 2.09578
2417 1 -3.56945 -3.81449 -1.07931 1.08405 -4.0849 -0.975517
2418 1 13.1808 4.15427 -8.08734 0.592006 -1.79532 0.885502
2419 1 22.209 9.50219 -21.8161 -2.21476 -2.65371 -6.15331
2420 1 -2.21997 -6.09056 -7.66507 5.75822 -3.91945 1.29162
2421 1 -24.0693 17.5079 -8.12151 -2.86851 0.550609 1.22003
2422 1 -18 6.27801 17.8182 -1.1631 9.40585 -2.22569
2423 1 13.8797 21.8809 8.00584 6.01672 5.38751 1.66383
2424 1 -24.2927 17.7236 7.67961 0.766711 5.30219 8.21655
2425 1 -16.0036 9.35047 -23.6704 2.7069 4.89859 3.08211
2426 1 -0.19916 19.4712 20.4325 -3.12285 -0.732718 -1.87088
2427 1 15.4592 3.37292 3.93096 -0.139077 1.45916 -0.778384
2428 1 12.5716 -15.6011 14.9824 4.69003 -2.60914 -5.05508
2429 1 -7.97758 -8.59825 -12.5466 0.214286 -5.18303 -0.393637
2430 1 -13.4025 -6.33571 16.4586 -0.96225 3.29306 -0.261585
2431 1 -21.0466 18.2658 -9.35939 6.6806 -0.950576 0.497653
2432 1 18.4164 15.0745 -15.6197 2.38741 0.254625 1.85157
2433 1 18.4726 -22.6629 20.6124 -0.17429 -1.7149 0.922024
2434 1 0.677924 -22.0946 -3.11917 -0.465575 0.607598 1.81934
2435 1 -15.9634 23.9488 10.1131 3.8719 2.93255 1.13269
2436 1 -6.57426 10.7347 18.5697 0.325926 1.23018 0.099207
2437 1 -14.4964 -5.52019 12.0311 -3.41849 2.34801 -0.387295
2438 1 -1.63647 46.3116 -21.6205 1.46018 -3.31195 -3.97885
2439 1 -12.4294 20.2699 10.0093 -4.17098 3.86293 -0.89879
2440 1 5.827 -3.43732 -15.7414 -1.82812 0.689517 -0.208679
2441 1 21.9016 14.4296 22.796 -2.36723 1.30846 -2.41676
2442 1 -2.05499 -9.74923 -16.1737 0.898342 -3.26497 0.9113
2443 1 8.59401 9.8537 -23.1959 -0.902241 -0.547721 -1.33089
2444 1 11.8974 21.7703 18.4503 2.94744 -4.64411 0.759707
2445 1 2.02194 3.79732 22.9263 0.472449 -1.93371 0.147421
2446 1 0.112759 -3.94512 14.7911 0.173788 0.792785 1.41211
2447 1 -2.43323 -16.0886 17.7143 -0.751317 -1.01036 0.413992
2448 1 -0.913223 -17.0056 -9.92004 -2.35742 -1.2713 1.93802
2449 1 18.4935 -24.5833 12.6322 -0.703278 -4.01433 0.0145184
2450 1 8.05467 11.8188 21.6433 -0.440856 3.10166 1.33374
2451 1 8.54414 -22.8784 4.45435 -4.48241 -4.55816 -1.2216
2452 1 12.0407 17.0633 -14.5986 0.00369341 0.652 4.46151
2453 1 -1.35525 10.2777 13.6218 5.30841 -1.66471 -0.513628
2454 1 -5.2621 10.1418 -18.1335 -6.80294 -2.84594 1.7596
2455 1 11.5971 9.78785 15.6322 -4.07091 -2.51523 1.22552
2456 1 19.4802 20.0677 20.2779 -4.60796 6.08464 0.0906904
2457 1 -3.25988 2.03862 12.2546 5.25182 0.849826 3.35165
2458 1 23.6709 20.377 -3.01649 0.946617 2.42088 1.02132
2459 1 -19.4302 16.7053 -7.60825 -2.3903 5.40834 1.60865
2460 1 10 7.76323 -15.5344 -0.722146 3.1035 2.86644
2461 1 -23.3772 17.782 -2.86452 -0.645886 -0.954592 -2.93784
2462 1 -13.984 25.2079 2.6441 0.483774 1.35591 -3.51492
2463 1 -11.8389 -20.082 23.3361 3.38075 4.80709 1.4755
2464 1 5.96967 16.5373 -13.5012 -4.55444 -2.00011 5.31153
2465 1 -6.44729 -14.4211 -10.582 2.96681 -3.28313 4.04333
2466 1 2.43356 1.93554 -3.34847 -1.65755 0.276568 -1.37946
2467 1 2.72383 -18.9045 8.79705 1.14309 4.20487 -2.49002
2468 1 -19.9603 45.5358 -5.81601 -2.03084 -2.83775 -3.48334
2469 1 12.0617 47.2233 23.5723 -2.82888 -2.2314 2.17128
2470 1 13.1865 -18.9863 -10.5502 -2.53402 0.217132 -5.1359
2471 1 -3.29142 25.7615 -22.2705 3.77974 -1.48741 -2.05409
2472 1 -18.6979 2.72705 12.3457 1.25796 -0.247133 6.42628
2473 1 12.8478 9.85478 -7.21657 -8.23529 -0.774964 0.39663
2474 1 -4.37208 -6.56314 -17.6776 -3.8775 -2.39826 -0.0882171
2475 1 -17.6473 11.6353 10.4744 4.75409 -0.526906 2.30475
2476 1 -4.57097 -19.8801 -19.6637 -0.319153 -4.22983 -5.16481
2477 1 12.8166 7.08636 -2.0482 4.13495 1.69318 2.50003
2478 1 -4.00513 -22.0634 -2.43897 -3.94214 1.70054 2.55459
2479 1 -20.8963 -4.59875 3.01071 -2.47813 1.53003 3.87167
2480 1 0.32449 17.7601 -6.53611 -4.17403 3.25109 2.84662
2481 1 -14.6452 -6.60978 -9.77485 2.51294 1.97599 -0.110428
2482 1 8.73918 -7.94093 -0.601239 -0.776845 -0.178909 -0.706061
2483 1 -2.527 10.9108 -10.7342 3.2461 5.144 -2.80526
2484 1 1.89075 -16.9945 -8.48708 0.761065 -2.93468 -4.06856
2485 1 -0.474557 -18.7364 5.52301 3.56994 4.1081 -0.506998
2486 1 -4.09124 -19.8718 6.95636 -3.62589 0.649868 1.92643
2487 1 3.12982 18.3089 1.04858 0.455952 2.62283 4.69779
2488 1 -9.19532 20.7217 17.4121 -1.6186 1.73633 -0.153542
2489 1 6.19051 21.4846 -12.2817 5.63887 0.454761 1.17552
2490 1 -10.5931 22.3744 21.6214 1.90475 0.968371 5.09549
2491 1 12.1665 -22.481 -4.30948 -2.11135 -1.84052 0.292227
2492 1 -24.4483 13.2262 4.01426 -5.13894 -1.78781 2.05051
2493 1 19.6996 22.6842 -21.08 -0.430038 -2.08504 1.36416
2494 1 -13.123 -13.745 -21.8308 -1.59834 0.0254193 3.86707
2495 1 13.4759 -11.5788 -10.1288 2.58504 0.309978 -2.98678
2496 1 3.50957 2.17119 -22.0469 1.96091 2.44951 0.601038
2497 1 3.63887 7.77505 20.5377 -2.71388 -2.05835 1.34346
2498 1 -5.78398 5.61171 5.93293 0.320821 -1.52887 -0.507577
2499 1 -23.5172 -16.8265 7.2961 -6.41184 -0.223108 0.671208
2500 1 9.21326 22.3162 6.82034 6.13076 1.25543 3.7804
2501 1 6.50969 13.3774 5.90066 0.525009 4.98326 -1.43371
2502 1 -4.92301 -13.0109 10.7116 -0.960327 6.55657 -0.100019
2503 1 16.0212 14.9846 -2.80476 0.935383 -1.8719 0.724416
2504 1 9.85936 11.9785 9.90171 0.869867 6.47598 -4.15157
2505 1 -11.0823 18.3953 22.0539 -1.18309 0.428742 3.6061
2506 1 23.2812 11.3095 -9.74315 -3.31257 4.54725 4.62035
2507 1 8.64679 -2.72117 -16.3974 2.67122 -5.71612 3.56142
2508 1 10.8458 23.3268 -6.42593 2.14483 1.00123 -0.132518
2509 1 -4.87139 -7.44013 2.49737 0.25421 5.31758 -4.12386
2510 1 -20.8226 3.68963 -1.18485 -3.69658 5.7136 -0.0429177
2511 1 3.5343 5.45981 18.5208 -5.4447 -3.26174 4.994
2512 1 -10.0837 12.755 15.2254 -0.313903 -2.8385 -1.0898
2513 1 20.829 5.20891 7.69019 -1.26357 -4.42207 -4.54074
2514 1 -23.2154 13.6899 22.7705 1.50805 -0.800307 0.695431
2515 1 1.91458 -18.6073 2.75378 -4.38802 1.04066 2.9707
2516 1 5.8735 10.3071 -18.4857 0.110775 3.39977 -3.41957
2517 1 -11.3126 -13.3974 14.0453 -1.49148 -1.7823 1.85478
2518 1 -0.889244 -3.28727 -1.12591 7.09227 -2.27318 4.37079
2519 1 -24.3407 22.8445 14.6875 3.83208 -0.59454 2.6109
2520 1 -23.1107 -0.444148 -7.96575 5.28641 -1.36149 2.92194
2521 1 10.201 6.27203 13.8304 0.574177 -3.18861 -2.27082
2522 1 -2.95569 11.1899 1.74953 -0.699463 5.20966 1.85316
2523 1 -16.3928 -23.7796 -22.9418 2.06754 3.06196 -6.24616
2524 1 11.2358 22.1679 -20.2215 3.72753 -3.18933 -0.117991
2525 1 -13.3069 -14.2261 -8.18242 -4.77653 -3.59932 -2.38504
2526 1 -11.5442 -1.99953 -14.9006 -3.07488 4.61572 2.10392
2527 1 4.62564 4.76367 7.89483 -1.42624 -3.38945 0.975865
2528 1 -8.1403 14.2019 6.92116 6.13389 0.317165 -1.81472
2529 1 -19.1187 -7.94498 -3.63212 -1.07728 -1.16367 1.13718
2530 1 3.95784 -14.2967 -16.8368 3.96861 1.06322 -2.9787
2531 1 -19.859 -9.16909 -15.7036 -2.25766 2.97709 0.860529
2532 1 -13.9156 -16.2578 0.774406 -0.414945 2.05198 0.399578
2533 1 -15.0075 22.7875 -1.98821 1.5825 1.62098 -4.43356
2534 1 -18.7422 -10.3078 -2.06755 -0.481059 -4.8897 -0.330028
2535 1 15.0897 -5.44945 13.9395 0.551358 4.03656 -5.26522
2536 1 -22.2442 -18.1363 -22.342 0.00567281 1.22793 0.185554
2537 1 -2.19366 -24.2831 13.8937 -5.98809 -4.11511 1.8706
2538 1 -6.72509 4.81116 -23.5295 0.480631 -3.5009 0.485324
2539 1 13.6101 -11.4777 21.4551 0.451158 -0.710875 -3.02
2540 1 21.3889 -8.92917 16.5746 -1.43063 -2.17814 2.67925
2541 1 5.82089 7.00352 14.3484 0.17245 -3.40778 -1.59566
2542 1 -11.2071 -8.27645 -20.9091 4.61378 -1.26677 2.38939
2543 1 -15.7506 -7.14057 -6.45661 0.931683 1.75033 1.45071
2544 1 12.9675 2.67254 6.95514 -1.42038 -3.78828 0.193631
2545 1 -10.9796 9.27872 -20.4813 -0.0292084 0.637314 2.53274
2546 1 -15.8171 5.81935 14.127 2.1682 1.81024 3.16312
2547 1 -10.7245 -1.14583 4.80518 0.837405 0.191517 0.355532
2548 1 15.658 -5.41613 -10.2105 4.96982 0.0370914 0.176032
2549 1 7.96137 10.7875 -15.4753 3.12243 6.05179 1.08679
2550 1 -22.765 -17.2857 -19.4609 -4.94826 -0.001695 2.16219
2551 1 -8.06867 11.1973 -13.8595 -1.2903 3.63862 3.44496
2552 1 -1.31482 -14.1232 7.77095 2.86791 4.69246 0.752746
2553 1 0.875213 24.054 14.5841 -3.86362 -0.418856 2.17385
2554 1 17.9885 24.6221 -5.22121 1.80965 4.26997 -6.51405
2555 1 5.002 12.749 -7.02047 -2.07607 -7.79115 -3.47705
2556 1 -7.68618 -13.5655 9.08915 1.11394 -5.9935 0.500536
2557 1 17.3526 46.7258 -14.0097 1.28249 2.32648 2.99171
2558 1 -20.3214 9.2486 -22.444 -2.89704 -1.04041 -4.67306
2559 1 -14.3201 6.7054 5.57524 -0.618678 -4.3759 0.403732
2560 1 22.4497 -23.0144 8.75682 0.28803 0.60309 0.183505
2561 1 -9.73103 -1.13262 12.5248 0.265353 -4.44442 -2.20715
2562 1 -22.5327 -5.03482 -10.8048 -2.20673 -0.569165 0.486259
2563 1 19.6532 -4.14713 -21.9023 4.47138 -0.284559 4.5586
2564 1 -10.9388 -14.5176 -10.147 -5.84989 -3.48255 -0.271924
2565 1 12.641 16.748 13.0836 2.12606 0.531469 1.09804
2566 1 -24.2996 -10.692 14.1167 -3.46126 -4.91178 -4.23452
2567 1 -14.1129 0.252134 -17.945 -3.13063 -2.3263 -2.66258
2568 1 18.2051 -10.0676 -19.0275 1.14935 -1.30882 0.717023
2569 1 23.2806 -19.8631 -13.5949 1.31284 -2.56328 2.54125
2570 1 -22.4855 17.4449 -15.2198 -1.61443 5.56243 1.44906
2571 1 13.3215 -0.927791 20.2553 -0.223207 0.490493 2.81641
2572 1 -21.7203 -19.4875 -7.75296 4.23311 3.36468 -2.13124
2573 1 20.2801 46.9131 -4.64371 -1.31237 0.573573 -0.224909
2574 1 -19.9478 45.415 -10.6533 -2.6923 5.34218 -2.11156
2575 1 3.92461 15.6658 1.92363 -0.484684 3.57405 4.76584
2576 1 20.7952 19.2488 14.0015 -2.91073 1.9868 -2.79048
2577 1 13.3178 19.2388 -2.87194 -2.14027 -2.96202 1.08149
2578 1 -15.6635 -14.8226 -3.19854 0.701947 -4.57565 -1.4469
2579 1 -7.46232 12.0488 3.22567 -1.93139 0.61783 -0.72716
2580 1 -23.9207 13.2493 -20.3523 -0.465735 2.98723 1.66989
2581 1 -6.748 17.0362 21.7364 0.344733 -4.03066 -2.2848
2582 1 11.2779 25.2945 9.76553 -2.05835 -5.32118 -3.78663
2583 1 5.62562 19.2372 -0.219852 -1.55445 4.65642 -2.30538
2584 1 -12.7486 -21.4043 -12.3096 0.982571 -2.64852 -0.963044
2585 1 15.0072 -15.8043 18.3815 0.918404 -1.27357 3.8493
2586 1 -14.4702 15.0263 14.5378 -3.65495 -1.52881 -4.20578
2587 1 18.1466 -20.5922 7.47847 0.676071 -4.48692 -2.74369
2588 1 16.2481 2.93347 -16.988 -0.881036 2.00107 -0.374286
2589 1 -1.38917 -5.99406 9.22575 2.99188 -3.7333 0.678794
2590 1 12.4516 2.99169 -12.6397 -1.24837 -1.61663 0.00775736
2591 1 -4.85286 -23.5803 13.7957 -6.12108 -0.292124 0.334693
2592 1 -2.26182 -17.6826 7.58677 -4.35926 0.0602162 -1.40756
2593 1 -23.0029 -6.18542 -22.0183 1.14805 -2.51424 1.79146
2594 1 23.2519 -7.8197 18.4433 -2.69419 -2.49973 -0.428371
2595 1 -0.79507 -18.3451 -19.9654 -2.42349 -0.653182 4.31774
2596 1 -13.7462 11.6232 -20.9378 -0.834214 1.16627 -0.0504361
2597 1 -20.6876 -2.65393 -16.7075 5.0915 -2.36164 -6.64629
2598 1 20.7772 -0.0834202 -3.48133 -0.256487 -0.137682 2.17367
2599 1 -7.37436 4.89933 9.44407 4.93244 -0.00327281 -0.685069
2600 1 5.22117 21.0495 1.89736 -0.505788 -0.77497 -3.33111
2601 1 -3.82549 7.5861 5.45209 -4.51963 -0.680347 -1.55219
2602 1 -6.14882 -10.9692 -1.46193 -5.32547 1.38539 -1.5676
2603 1 21.2343 19.967 -4.07068 -0.647479 -1.66762 1.73207
2604 1 14.3197 -13.3784 -1.65331 -2.36004 2.06247 -0.790401
2605 1 -18.4502 9.79971 -4.32844 -1.45962 0.936021 4.74837
2606 1 15.6761 16.9273 19.7431 1.76009 -0.692683 -2.25396
2607 1 11.7906 2.03814 24.026 3.19124 2.22115 -2.01575
2608 1 14.3228 -17.9484 -23.2626 0.782296 -4.87423 -4.02668
2609 1 -13.7983 -4.59911 -17.5842 3.76939 1.96738 -1.35408
2610 1 0.0768111 2.72149 -17.4193 -4.17921 2.91923 -1.97977
2611 1 -22.8003 22.7076 -20.3193 4.18438 2.94124 3.51732
2612 1 -16.0537 -18.8839 18.7632 -0.0857265 5.92398 -1.85326
2613 1 -22.7155 4.24414 13.5519 2.53835 0.463357 -0.349556
2614 1 -11.4077 11.8217 -18.8814 -2.82476 -2.18846 0.00768127
2615 1 -1.96307 2.40973 14.8663 0.101305 -2.87868 1.19183
2616 1 22.1119 -4.1992 -8.46578 0.172991 0.741235 3.28223
2617 1 -7.96017 14.3616 -18.4064 0.865042 -0.939785 -1.8942
2618 1 -5.76265 -16.8939 -11.7707 -0.0346339 -0.15588 -1.9639
2619 1 0.681326 11.9226 -22.9919 -2.11615 -5.61043 0.957065
2620 1 -9.5353 16.5467 6.48843 -2.11824 2.3205 1.26515
2621 1 1.20256 -21.5042 4.08528 -2.64385 2.73464 0.369215
2622 1 -1.3427 -20.1658 21.631 -4.69004 -2.92997 -0.437935
2623 1 -22.8871 18.8029 -21.9121 -1.64053 1.14546 -4.62537
2624 1 -18.1992 17.8283 -5.24151 -5.51398 -1.28187 -1.26805
2625 1 -5.36531 -3.84294 -23.0958 -0.344028 3.19489 -0.573168
2626 1 -1.79447 3.97868 22.4047 -0.650649 1.67533 3.50197
2627 1 14.7842 26.1802 9.30733 -2.51246 3.35451 3.55517
2628 1 11.9179 -8.10554 -21.9307 -0.903876 -2.31114 1.94687
2629 1 -20.4635 -2.35835 7.16991 -0.603177 -1.32911 3.36699
2630 1 -12.6961 -8.03783 18.8593 -1.19109 0.941864 1.54541
2631 1 18.6839 15.8789 2.02162 1.99621 1.67543 -2.53885
2632 1 15.2791 -1.83508 -18.2266 3.32088 -1.04523 -2.25778
2633 1 -2.92358 -17.5483 -18.4889 -2.45319 -3.14222 -1.11413
2634 1 -4.7883 11.545 -20.5843 -0.409087 -1.61111 -2.39669
2635 1 -0.783668 11.5639 21.4211 6.10001 -0.582524 -1.22165
2636 1 -14.8167 -20.0238 13.2059 -0.543667 -1.12001 0.413416
2637 1 10.625 -16.2463 -18.4198 -4.59581 0.0501177 -0.862862
2638 1 13.5667 4.54868 -5.22919 10.5689 4.84028 -1.65394
2639 1 -2.3101 -8.0369 19.6016 -4.35734 1.13028 3.43316
2640 1 4.55294 13.619 -17.3358 2.51607 2.65736 -0.164678
2641 1 23.5236 7.98306 -15.5182 5.09125 5.66592 -2.97848
2642 1 -5.67447 -18.541 3.60748 1.03573 -2.17249 1.00764
2643 1 -2.9856 -15.3164 -22.9408 -3.29666 0.735451 2.13738
2644 1 19.3495 -20.1037 -13.5534 0.115514 5.02064 -2.89812
2645 1 6.65499 -24.0156 14.7145 2.56658 -1.49997 2.04187
2646 1 -4.00838 11.1625 -2.1219 0.543332 1.40293 2.78328
2647 1 -9.45451 4.3404 3.7134 -2.97365 -5.99685 0.203845
2648 1 20.6303 -0.074102 2.87543 -0.462006 3.27328 -2.41533
2649 1 -19.2814 20.6592 -8.94315 -1.10886 2.12595 -0.912631
2650 1 -3.93059 9.93373 14.9759 7.54207 -1.96686 -0.127084
2651 1 -17.0299 -19.0535 14.7524 -0.321496 5.47455 1.51565
2652 1 -21.5346 -5.06268 -13.5331 -5.99451 -2.6463 -1.65676
2653 1 -8.93695 9.25407 -3.82076 -5.1826 0.508989 -1.50373
2654 1 19.4634 -8.48726 -1.93702 -2.20145 3.45153 1.51338
2655 1 -5.69102 -9.75457 1.12115 1.65664 0.496092 0.542457
2656 1 -5.84682 7.90802 -19.8781 3.08929 -1.2671 -2.16079
2657 1 -10.3698 -7.64185 9.93063 2.9244 -2.16656 3.06158
2658 1 -3.73781 1.32037 18.3215 -5.80599 0.701799 3.75475
2659 1 15.7354 -6.3436 24.0393 3.16717 -3.24575 -1.44163
2660 1 -12.7377 24.2863 13.3781 2.84818 -0.379727 1.80285
2661 1 7.08041 7.09605 20.8761 -2.90083 0.0497573 2.63984
2662 1 -21.389 -23.645 12.218 6.41285 0.0101481 3.09887
2663 1 -6.80033 10.0323 23.4367 -4.35617 -1.13116 0.0121724
2664 1 -16.6117 18.7329 22.1756 -0.570583 -5.44985 5.64705
2665 1 -21.1702 4.12561 1.5629 -1.27438 1.14683 1.32861
2666 1 20.6409 -24.0621 1.7719 -3.39203 -0.980424 -2.09299
2667 1 -7.64248 -3.24808 -4.21146 -1.99419 3.48279 -3.16115
2668 1 -6.71024 -17.9135 -19.7284 -2.81641 0.496583 3.46821
2669 1 -0.8832 -8.14406 16.789 -1.19042 1.22001 2.01078
2670 1 22.8853 24.5605 -15.8024 4.0424 1.80397 4.92831
2671 1 10.43 20.2204 20.0653 -0.129916 -5.66082 -1.59724
2672 1 7.92519 -5.5239 7.8877 2.17337 -7.3492 2.41016
2673 1 -14.3039 -23.7513 -2.0962 1.77064 3.28879 -3.38442
2674 1 -7.55397 -21.445 -2.94391 3.2927 -0.640061 -1.25487
2675 1 18.5296 5.12142 -9.46055 0.469725 -2.87441 -1.03011
2676 1 19.5861 20.9481 -18.6376 -1.29135 -1.13467 -2.63337
2677 1 -1.55197 -21.6842 0.962056 1.07002 3.57264 -2.8206
2678 1 4.56891 -19.3856 -17.0541 -1.6591 -2.40581 8.21053
2679 1 6.28775 -2.30939 2.14306 1.14662 -2.92733 -4.43094
2680 1 7.81812 -6.45359 -8.42888 -0.933583 -4.28336 0.417205
2681 1 -15.8982 -7.4365 -16.9231 -0.79635 0.21671 1.91742
2682 1 -20.9247 3.92259 11.29 5.65999 0.97565 -6.39339
2683 1 -15.9941 5.73979 -17.5683 -0.846084 0.529241 -3.42003
2684 1 22.5423 -11.272 3.22749 -1.99686 1.73553 -4.42747
2685 1 -3.7882 -7.99266 5.29183 -2.28374 0.019819 -3.43762
2686 1 6.78271 -21.7835 -20.0823 -1.57545 2.92813 -0.596853
2687 1 16.9763 -16.0551 -16.2328 -1.67313 -6.63531 4.65222
2688 1 -17.1354 -2.11827 0.352228 -0.943423 -2.3684 0.512571
2689 1 -7.72122 -2.08264 -7.56996 -0.470859 -1.54358 -0.0633884
2690 1 -13.0232 -13.7179 -19.0193 -1.23335 -2.66363 4.74689
2691 1 -18.6563 -23.5419 20.7563 -1.68183 -0.953965 -0.491611
2692 1 5.19986 -0.566561 -16.5032 -1.70239 2.67921 2.33707
2693 1 9.44211 18.5304 -16.4724 1.84527 3.56057 -0.0414739
2694 1 -6.32467 -9.90152 19.0376 -0.968713 -3.48077 -3.9968
2695 1 14.1669 7.25728 12.472 2.41677 -1.59258 -3.43305
2696 1 -22.0805 -16.6532 23.4174 1.16946 2.14632 3.39384
2697 1 6.33577 -3.30004 -5.08133 0.696237 0.3471 -1.01598
2698 1 16.046 -15.3215 21.3393 0.708506 1.36876 0.790677
2699 1 -15.7808 15.6394 -1.61771 -2.32569 -1.83594 1.79008
2700 1 -7.83 -20.5313 0.998272 -0.347859 0.524254 3.79315
2701 1 -21.4154 22.4605 -0.751937 -1.28066 -4.99446 1.31069
2702 1 -7.43516 18.3369 -19.3955 3.2377 -3.02412 0.298838
2703 1 11.5523 -5.92808 -13.7725 -1.43391 4.73316 2.21898
2704 1 0.73524 -23.394 1.88974 0.452874 2.57029 -0.286789
2705 1 -2.49694 -5.82741 6.51293 -5.89419 -3.84384 6.23092
2706 1 3.50273 -22.7405 20.3324 -0.523353 1.72643 1.92078
2707 1 -9.83488 -11.4882 1.74457 3.41477 -1.34488 -4.0803
2708 1 -14.41 0.982768 -23.8496 2.73632 -3.87185 -1.62905
2709 1 21.3858 -2.98654 20.1029 2.10158 0.0508514 -0.485318
2710 1 -4.48469 16.3387 17.6495 1.09716 -2.89486 0.219677
2711 1 -12.8916 -6.12009 -21.3655 0.978103 -2.58622 3.53244
2712 1 17.7954 14.4184 6.01742 0.180463 -6.17609 -0.990918
2713 1 22.8918 3.76517 -7.29863 -1.06893 -2.98124 0.813677
2714 1 -19.7004 5.59833 -10.3687 -1.68768 -3.4968 1.95529
2715 1 -13.4362 12.7713 21.0053 -2.10126 0.458059 1.12363
2716 1 17.9059 13.3128 1.16577 -5.64613 4.14941 -3.10618
2717 1 9.74371 21.5569 9.56249 -1.52287 0.604829 0.0829923
2718 1 11.0271 -13.6691 -21.4723 0.646425 -1.0803 1.17693
2719 1 19.7687 -11.5622 2.46289 0.316997 -1.55876 1.02466
2720 1 -12.9149 -10.6837 -18.7724 0.401762 0.455839 -1.47108
2721 1 4.89172 -11.4725 10.8945 4.35376 -4.06653 -1.49192
2722 1 -8.55278 18.6237 -7.67244 0.655712 -0.597451 5.17488
2723 1 -5.60805 15.5391 13.4234 1.42869 4.32152 2.78461
2724 1 -6.16813 7.31548 8.28236 3.51516 4.29457 1.03774
2725 1 -2.60955 8.78161 -17.5311 -6.81976 4.66215 3.30746
2726 1 -10.9875 -7.02594 -23.6662 -1.13699 -0.597241 -0.104491
2727 1 -11.3756 -19.4601 -1.93837 -1.45856 2.08098 3.38085
2728 1 22.2433 -2.73919 11.7062 1.26303 1.97738 1.73249
2729 1 -2.73184 46.2067 -18.8036 0.640635 -1.55169 -5.44242
2730 1 -7.87628 -16.3619 9.61167 -0.128837 3.85675 4.85684
2731 1 22.3902 24.3728 -6.97186 -1.181 7.86686 -0.789568
2732 1 0.56175 3.23278 6.01461 4.5356 -0.102986 -0.970717
2733 1 -8.2151 9.81068 -17.8783 -3.32867 -2.72513 -1.09841
2734 1 15.6068 -8.46974 18.4427 0.342423 1.58622 8.59572
2735 1 -4.93159 8.24025 -15.5761 1.87571 0.676956 2.03511
2736 1 15.9757 16.0066 22.4117 -7.34226 -3.00805 -1.65627
2737 1 -19.561 -19.5495 -3.36735 -0.876372 0.416692 -6.40777
2738 1 -6.50446 10.3088 14.0424 -0.871762 1.33363 -0.567779
2739 1 -11.1553 -5.92881 20.6385 -1.40383 -3.74063 0.260605
2740 1 -12.1816 -16.744 -19.3959 3.80998 -0.431521 1.64187
2741 1 -7.45845 6.4465 3.6954 3.09167 -1.54684 2.54788
2742 1 -13.3614 14.3135 6.19382 -2.70573 -1.52278 -0.894843
2743 1 1.3967 -19.9767 -7.81251 3.79227 -0.764255 -0.133561
2744 1 -14.9653 -17.7987 -20.059 -2.44702 6.11619 1.30827
2745 1 -11.7586 22.147 1.61678 2.36684 -3.97632 2.79255
2746 1 5.00763 -13.0783 -3.72306 4.71304 -4.05009 -3.81477
2747 1 1.36592 3.76265 15.1944 1.0153 -0.464388 4.87698
2748 1 -6.74034 -1.73884 -11.241 -0.461124 2.84908 1.20008
2749 1 -13.2484 -6.55195 22.7062 0.755632 0.414731 -2.8356
2750 1 -14.7824 22.828 -21.3537 1.34688 0.848186 0.867308
2751 1 9.43808 -23.6638 7.11527 -2.72664 -0.669319 -5.30433
2752 1 -8.51696 16.1553 -11.3866 -4.68983 1.16289 1.406
2753 1 -0.551458 -5.11351 11.8528 -0.0593 0.535795 0.594361
2754 1 -13.2077 24.1067 0.204203 -4.99449 3.36379 -0.227949
2755 1 2.05356 -14.3161 14.9812 -3.18387 -0.952665 2.07555
2756 1 21.0347 10.2531 18.5355 2.05313 0.361631 -0.112864
2757 1 16.9457 -17.8128 19.9231 0.573526 2.24249 2.55235
2758 1 -20.2758 -15.2245 -9.52969 -1.75124 4.11431 2.29539
2759 1 -18.1865 -15.1488 7.52388 1.9079 3.47303 -2.94873
2760 1 -0.19442 14.8683 -19.0758 -0.221395 -3.68799 0.671644
2761 1 -6.76018 -12.7292 19.0867 -4.71534 1.30804 -4.0638
2762 1 -10.4526 10.9345 9.20677 0.963847 -2.18113 1.55075
2763 1 -8.67112 -11.7993 15.9849 2.33931 -0.423578 -1.58583
2764 1 10.7011 19.286 -12.9503 -1.12135 2.56381 -3.41309
2765 1 7.97828 -15.7257 -19.0927 0.596922 2.42873 -0.46396
2766 1 10.1101 6.42967 18.273 2.09731 1.32095 -0.490369
2767 1 -14.4646 -16.6634 -22.854 -0.397324 2.06847 -3.82519
2768 1 -7.39031 23.3238 1.24688 -2.25085 -3.03918 -2.58135
2769 1 -15.1733 17.6732 15.7485 -2.56617 0.322566 -4.52366
2770 1 -23.4757 10.6731 2.9966 0.151798 -4.50631 2.55994
2771 1 -18.2252 -14.5428 -17.7935 -2.00541 0.674394 1.3595
2772 1 -14.5646 18.8506 -18.3688 -3.11952 4.22312 0.739053
2773 1 8.13875 24.0559 4.78108 -1.99176 3.27194 -1.84212
2774 1 21.584 -1.21826 -15.8494 2.05063 -3.81832 1.03867
2775 1 -3.2874 -18.7734 14.7028 1.61995 -3.33737 2.09178
2776 1 11.7699 7.52643 -10.2962 2.00614 1.8125 -2.51249
2777 1 -12.4663 17.3811 6.0585 1.10797 5.8702 -4.16567
2778 1 -22.4294 19.1281 18.6031 3.37252 3.70385 2.33764
2779 1 19.4067 15.9579 18.8763 0.384695 2.83851 -3.74293
2780 1 -10.3411 -0.157466 -6.16352 -2.22974 4.41771 -3.60212
2781 1 11.0591 24.9017 12.8192 0.628148 0.717153 -3.68225
2782 1 8.4481 -12.5423 14.7936 -0.373807 -2.98008 -5.0542
2783 1 10.8109 -10.4132 -13.1129 1.57807 0.0462974 -0.486922
2784 1 -10.5379 2.58406 0.369391 -9.76725 5.81438 -5.07226
2785 1 20.7789 -7.08737 -15.4286 0.33807 -0.55473 2.68013
2786 1 6.69104 -5.3465 2.95483 -3.38098 2.50623 0.418706
2787 1 -14.4468 14.9939 0.784785 -0.820254 -7.80273 1.50172
2788 1 -22.2623 16.6965 12.2268 -1.24221 -2.85001 1.41039
2789 1 8.91677 -8.03702 -6.23366 -0.741232 3.69183 -1.01554
2790 1 -9.64737 -5.52397 -15.1352 -4.45017 -0.50561 2.21847
2791 1 22.0906 15.1387 -5.06219 -1.68378 -0.260437 0.825537
2792 1 -6.3935 -3.89559 4.85508 -0.919446 -0.579146 -1.2625
2793 1 -1.68645 1.94878 7.32312 0.0983848 0.0450146 -0.876012
2794 1 7.27331 18.9361 -6.73037 4.09624 1.4144 3.34534
2795 1 19.4148 14.318 -18.2311 -0.284821 -3.51622 0.610164
2796 1 17.5248 -16.9145 11.4663 2.90855 0.936775 6.36283
2797 1 17.1763 -10.9983 23.762 4.73693 2.36564 -3.52727
2798 1 -20.01 0.691897 -4.23953 -1.56349 -4.39874 3.89909
2799 1 0.184292 -17.5535 -6.36569 -6.10751 0.469366 -3.18285
2800 1 -11.5885 -14.4854 -16.4434 -1.17661 0.990097 1.66751
2801 1 2.90623 18.1179 9.61925 -2.89489 -3.0579 -0.35632
2802 1 6.6552 10.3502 -10.3286 -1.77682 -2.44688 -0.349358
2803 1 23.4651 -7.01206 -16.4964 5.44167 -2.85502 -3.25835
2804 1 -16.951 16.1078 -9.3368 0.1255 3.15045 -0.928051
2805 1 -15.1258 6.91677 -11.474 -7.67499 1.11764 -3.79957
2806 1 -4.05302 20.2758 -17.7247 5.24187 -1.9135 0.351672
2807 1 -20.7418 18.0006 -1.52937 9.52681 3.2884 -2.89694
2808 1 3.6575 -23.5887 -11.5425 -2.69458 2.44628 2.15129
2809 1 -11.6434 19.4905 17.4644 3.13872 -2.73583 -1.00145
2810 1 6.18707 23.2299 -15.7134 2.09061 3.99499 -0.67574
2811 1 -11.3141 12.8284 4.16517 -0.207051 3.45493 1.34872
2812 1 -8.64473 -1.9191 22.8524 -1.63414 1.05623 -1.62539
2813 1 0.750716 -10.8241 -16.1791 2.95182 -5.85211 -1.1184
2814 1 21.3348 -3.5446 -5.54305 2.97852 -0.439157 -0.864698
2815 1 23.2945 5.18096 6.28326 0.460315 -4.32399 -0.655033
2816 1 0.61599 -15.678 19.8476 -2.52579 6.67221 -1.5808
2817 1 8.20096 -14.9176 -21.7618 -3.02783 1.04005 -4.4129
2818 1 1.15947 -3.44063 2.92435 0.892494 -2.60648 0.486469
2819 1 18.1649 14.5404 16.5804 -1.37704 2.17732 4.45159
2820 1 -15.6519 24.543 7.18743 0.468657 -1.03797 4.61173
2821 1 14.6138 -7.47525 -11.8499 -3.01264 0.529116 -1.74711
2822 1 -12.6072 -2.6882 6.21937 2.57596 -1.17476 -1.87325
2823 1 11.6352 -16.4095 4.49711 3.55308 -1.4672 -3.76782
2824 1 8.54321 14.4799 16.1373 2.44405 -3.3431 -2.73448
2825 1 14.6431 19.2974 -8.64283 -3.41028 1.69534 5.08579
2826 1 7.54789 -19.2571 -2.96518 -0.507175 -2.04843 0.036179
2827 1 4.2524 -8.71802 21.7603 -2.92573 1.13525 0.909422
2828 1 -0.0989887 -5.29129 -18.2415 10.5384 -5.63937 4.6514
2829 1 18.3229 -23.1906 8.73042 -2.00059 3.90407 1.27967
2830 1 -23.0594 6.87803 0.267721 -4.25717 -4.88774 1.001
2831 1 17.0369 5.3108 -11.8988 1.48691 2.10692 2.30453
2832 1 -22.1337 -22.3668 -10.8401 -6.2052 -1.52339 1.25817
2833 1 -22.23 2.18429 5.49072 3.22091 0.215176 4.27158
2834 1 -9.38714 -16.2172 22.9669 -4.94999 0.159568 -0.579636
2835 1 -2.73913 5.15456 1.87274 -0.75856 -0.77422 1.09079
2836 1 -12.0265 19.5382 -4.25536 -0.409349 -0.203557 2.65644
2837 1 -16.0748 9.59314 -10.4962 -2.02621 -0.130708 0.12433
2838 1 19.2066 -10.0558 20.6081 -1.01981 -0.690441 0.813205
2839 1 -19.7138 -3.56139 -21.5221 0.515361 -4.61454 0.389524
2840 1 4.21137 -19.4643 22.3253 4.91675 -1.78701 -1.16246
2841 1 19.4393 -17.6618 -4.11162 2.18807 5.89095 -1.693
2842 1 -4.23551 -13.006 -9.53888 2.42333 1.85654 0.711224
2843 1 16.8048 4.36806 -20.9258 1.55154 0.582484 2.95366
2844 1 21.3224 16.3556 8.05232 0.251859 -2.93655 1.20397
2845 1 20.7495 4.96787 -22.6858 -2.17748 -1.20214 -1.17297
2846 1 -21.7766 1.68231 2.76584 -4.00818 5.36987 -1.03707
2847 1 8.05193 13.8806 -0.961942 1.72731 -4.53632 -2.85544
2848 1 -17.8181 46.8748 -9.88973 -0.923848 -0.876202 -3.58764
2849 1 -22.3793 -24.5729 14.8542 -3.03536 -2.65559 4.5967
2850 1 2.77542 2.45625 -9.7345 -1.47443 -1.99163 1.24084
2851 1 -6.66281 23.4247 19.7991 0.794585 -2.8052 2.48543
2852 1 2.98668 -7.24391 0.43447 -2.4921 1.89622 1.15949
2853 1 -2.67775 25.3883 21.3515 -0.705882 -1.34908 -3.68242
2854 1 4.30888 -9.27372 -6.72818 2.55363 -3.18961 -5.3459
2855 1 -18.0459 -6.75973 -19.7772 3.5926 3.86784 -2.15655
2856 1 17.1389 -17.2572 -0.727472 1.90225 -1.14192 -3.12213
2857 1 18.8866 7.62845 10.448 -1.11909 -1.12499 -1.44919
2858 1 10.9037 -1.48299 -22.3691 3.18428 5.9054 -0.687832
2859 1 -23.1531 -23.7377 -19.9613 1.9133 0.122509 0.710112
2860 1 -22.6047 6.36534 18.1177 -0.486262 -0.278589 4.36256
2861 1 14.3545 12.3902 19.645 3.37394 0.0329614 1.3387
2862 1 10.5172 -3.3695 -19.6933 0.909141 -4.33443 -1.20757
2863 1 20.3607 -18.1827 -18.2058 -4.84717 -2.4892 -2.98151
2864 1 -16.5817 12.9268 14.3944 0.902494 1.43756 -6.7926
2865 1 6.71222 9.83848 0.0240847 -4.20899 0.636067 -4.71796
2866 1 -19.8212 23.8553 -6.54724 -4.07342 3.12938 -2.42871
2867 1 -19.5868 17.9391 -12.8175 4.33059 1.73736 -0.322883
2868 1 3.3523 -23.5856 17.804 1.218 2.38141 0.595098
2869 1 -18.8257 -17.871 16.6213 -1.74865 -3.15937 0.421425
2870 1 -11.5666 14.4171 -10.5497 1.14875 -1.25051 0.703857
2871 1 -14.8339 20.2563 23.4385 -0.381191 1.75295 -4.22083
2872 1 8.47689 9.46592 9.1859 -0.87154 1.09776 -1.97432
2873 1 -8.86058 0.59182 6.20257 3.85074 -2.50788 5.37575
2874 1 -2.24149 -13.2532 -13.5058 3.39401 1.86111 1.26154
2875 1 19.2069 -4.19807 -8.82643 -4.13776 -1.49575 -2.22902
2876 1 19.5733 -22.2761 -23.289 -3.43841 0.966772 1.50396
2877 1 10.5399 -7.13798 4.02359 4.08397 -1.24547 0.0357497
2878 1 -17.5856 19.7579 -11.2902 0.597886 2.69653 -1.07417
2879 1 2.84241 18.3147 6.66052 1.29862 -1.14448 -0.780892
2880 1 0.403644 1.50529 16.6727 -1.9916 0.126089 -0.342214
2881 1 -17.9183 16.378 -21.2908 0.547956 -1.87194 4.82832
2882 1 -20.2492 -16.8711 19.0768 -0.444025 3.371 4.31185
2883 1 12.4769 -14.8733 -0.417934 5.1861 4.2127 0.423513
2884 1 8.31778 -5.29861 -21.875 -3.14273 3.03246 -4.21938
2885 1 -7.75694 4.67473 -5.68226 3.16368 1.56718 0.141377
2886 1 11.0616 23.8825 1.87486 -0.0714013 0.094873 2.59438
2887 1 21.7513 17.1627 20.6094 -1.02125 1.85371 -0.386959
2888 1 -11.5097 4.41238 -23.0353 2.57538 -6.2268 -2.0195
2889 1 5.37627 -3.1415 7.98424 -4.12335 -2.84546 -0.155297
2890 1 -2.29351 -7.73528 -22.5432 1.3256 0.67314 0.453592
2891 1 8.70217 -3.53141 16.6435 0.090675 4.1102 -3.17212
2892 1 23.0789 20.2132 -9.40834 -2.79155 -0.181869 6.3014
2893 1 -11.2646 -14.1697 23.9682 -2.54682 0.530723 5.39443
2894 1 -9.82927 8.03607 17.6136 -0.514331 3.67702 -0.766045
2895 1 -18.6374 22.4438 20.1546 -3.23609 -4.16157 4.57221
2896 1 -13.8357 6.36197 18.3805 -0.706988 5.39609 -1.74721
2897 1 -2.80428 16.5202 -2.33852 -0.929483 2.86714 0.797871
2898 1 -7.3647 -9.41798 -21.6015 0.298427 -3.07134 4.63129
2899 1 -3.44094 -20.6749 19.86 -0.774677 3.65168 -4.72552
2900 1 17.4105 3.05298 -23.7103 1.34238 -2.44075 2.85461
2901 1 -10.9214 -18.9786 -18.3399 2.87287 -1.36168 -0.509059
2902 1 -22.9555 0.726225 -19.6971 -1.35291 2.09993 1.49084
2903 1 -13.7514 -13.434 3.79898 -3.84786 0.406007 4.08509
2904 1 -3.71256 13.8177 -1.13786 -5.12167 7.96263 -0.381371
2905 1 -15.9452 23.4402 21.1106 -3.11135 -0.753824 1.91648
2906 1 13.6604 2.65941 17.4996 -3.22585 0.698235 1.55979
2907 1 -17.5949 22.4273 -5.38565 1.397 2.56188 -3.78696
2908 1 1.17415 10.9652 17.755 -4.07829 -0.154754 0.739442
2909 1 -9.95726 -3.96272 -22.061 -1.96839 0.262646 3.24359
2910 1 -15.2095 9.03914 18.9389 -0.0543342 1.60955 -6.00803
2911 1 0.720667 4.54019 -19.5868 3.90953 1.00762 2.41951
2912 1 10.8108 -15.3372 -7.37505 -2.34147 3.27582 -0.256201
2913 1 17.3603 5.87159 -2.34194 -1.28855 0.405114 -1.23013
2914 1 0.031613 0.332669 13.9431 -3.26701 0.341282 2.26273
2915 1 -14.4834 -11.0358 -23.809 -0.602585 -0.226874 1.94749
2916 1 18.3674 17.4616 -5.98508 -4.17367 0.503096 -0.703152
2917 1 -7.45713 9.6381 7.07425 2.92032 3.35383 0.602677
2918 1 20.4932 6.27793 -5.39663 3.10887 -1.22201 4.65478
2919 1 23.5233 -16.5 -4.11612 0.364195 -3.65705 -3.63773
2920 1 21.8799 13.8429 8.99321 0.576338 -2.51488 2.70652
2921 1 -15.9113 19.4676 8.45001 -1.09033 2.51387 -0.266033
2922 1 -14.4714 -19.2037 23.7967 -2.90762 -1.77017 2.03227
2923 1 -12.0764 1.90179 20.2612 -3.97764 -0.321148 1.76591
2924 1 -2.48751 -16.6263 22.5508 -0.0126408 0.00984589 -0.00816362
2925 1 18.5646 -7.92278 12.0112 1.75091 0.205037 -0.739638
2926 1 -8.26492 7.86628 -12.2312 0.476127 2.11171 -3.10142
2927 1 11.111 4.46054 1.60078 -0.270426 2.69994 3.26547
2928 1 22.2798 44.1449 -11.8061 0.964993 1.58005 3.59649
2929 1 6.41119 -12.8329 5.03034 -2.43641 -2.5196 1.75638
2930 1 -19.0618 8.35142 0.866407 4.04848 2.60924 -2.68757
2931 1 2.27013 -10.1884 19.9175 -4.04906 1.17378 0.785279
2932 1 8.11466 18.8328 16.9073 -2.97107 -1.92885 -3.11329
2933 1 20.1315 -4.64308 10.6599 1.97912 0.484714 0.629143
2934 1 10.5221 2.4044 -21.3458 -8.28723 -2.12837 2.22737
2935 1 6.56078 23.3472 0.855043 -3.45778 -0.0405821 3.59721
2936 1 -23.9433 8.5001 -9.03613 -1.64492 -3.3867 -5.23604
2937 1 -19.0154 4.87076 -13.3383 -0.850717 0.501483 -1.52541
2938 1 -7.48616 -4.6306 -1.62796 -3.03328 2.74051 -2.04771
2939 1 -11.5353 19.4624 4.29255 0.395174 5.82742 0.169256
2940 1 13.5937 14.1016 -1.4666 -0.484164 -3.52674 -5.29872
2941 1 -5.74032 4.05037 -11.6376 -1.20394 1.30099 1.35885
2942 1 -21.2435 14.5767 20.7563 -4.13384 2.75854 -0.35953
2943 1 22.9501 5.0242 12.017 -2.02535 -1.39145 3.07686
2944 1 9.31213 -23.1798 14.4335 -1.15299 3.62858 -0.0307779
2945 1 -7.29367 10.6499 -8.15595 3.50587 1.07697 1.98291
2946 1 12.4959 -0.953402 11.6161 1.92548 -4.37114 -0.697898
2947 1 18.7748 -14.039 -22.115 5.93237 1.10129 -1.72049
2948 1 2.39387 -20.3472 -1.65904 4.73518 2.03533 2.53381
2949 1 -8.01983 -19.673 -21.682 0.301809 1.40335 1.88932
2950 1 -19.6774 16.7297 5.44968 -0.621271 2.74717 4.38091
2951 1 12.3803 -16.8157 -11.8625 -0.80661 -2.30076 -0.707155
2952 1 -11.9102 22.9015 -21.1615 7.5074 0.0661853 -0.376894
2953 1 18.6551 3.34587 1.27484 2.16211 -2.06597 0.70748
2954 1 -14.6454 -1.55957 8.97287 0.388805 -4.14058 -5.2408
2955 1 12.6929 -11.0604 15.2822 -2.8311 -2.71115 -1.69811
2956 1 -13.4581 20.2626 -1.53915 5.3381 1.68831 0.626697
2957 1 2.58923 -19.7397 14.4316 0.762543 1.59873 1.32034
2958 1 5.3521 -7.94184 -11.0478 -2.47237 -3.19856 1.49219
2959 1 -17.5843 18.8765 -22.2054 -0.510248 -1.80719 -0.692589
2960 1 -13.2954 -1.85031 -20.9907 3.55382 3.79347 -3.83825
2961 1 -11.8577 -10.9497 -22.1948 4.13764 4.79788 2.30262
2962 1 -9.11465 -0.306243 -15.9764 -4.99753 0.844482 -2.3011
2963 1 -21.9265 13.2845 -4.1977 0.802591 0.920992 2.26496
2964 1 0.316178 -20.3994 -23.1067 0.639826 -0.638978 -1.80873
2965 1 16.2502 -0.048079 -15.9573 -2.55389 6.25112 -1.96778
2966 1 -2.61756 -22.1799 17.5673 -2.96732 1.5863 -0.165338
2967 1 1.84951 10.1506 9.65513 1.30004 -4.13475 0.524221
2968 1 -3.39326 -13.6522 -1.34278 -1.01649 -3.08974 2.15733
2969 1 -2.90477 -1.34252 17.7088 -1.22333 -4.89442 2.95313
2970 1 19.9748 -11.8422 -12.3996 2.94447 -3.1504 0.287123
2971 1 -4.04666 21.0388 11.8244 -2.60444 1.54525 -1.68043
2972 1 -9.52753 7.52324 -9.41224 -2.29201 -3.95739 5.72587
2973 1 -12.7629 15.7316 21.3371 1.63599 -2.50934 -1.2953
2974 1 -24.2171 -0.194367 20.2453 -3.83127 0.707435 -1.57852
2975 1 16.0391 11.8288 -0.397415 0.191732 1.33766 -0.942376
2976 1 -19.0267 21.4001 -14.5388 1.82185 -1.05388 0.0182191
2977 1 2.80842 -10.0886 -0.0544258 1.00034 -0.606497 -0.241296
2978 1 12.1082 19.4938 -16.0816 -2.36513 -0.66809 2.13335
2979 1 7.20969 3.50794 16.3043 2.7676 1.86062 -0.226713
2980 1 -1.09931 12.4215 -0.396677 -2.84703 -3.61876 -2.92526
2981 1 -13.5651 9.68371 16.357 0.940249 0.38832 4.43169
2982 1 -12.4642 -6.40207 8.42109 1.275 -2.64829 -0.267989
2983 1 -7.86768 12.8834 23.8711 3.79707 3.2812 -2.21897
2984 1 0.499698 -0.370607 24.0448 3.3443 -3.31764 -1.67078
2985 1 -14.1598 -12.2563 10.3279 -2.71852 0.637369 -2.42337
2986 1 -6.88822 19.8565 -23.3678 -1.31214 -0.722245 -1.32544
2987 1 -21.2796 45.8739 -8.12354 -1.7352 -0.167263 0.895638
2988 1 1.74133 -23.5191 -5.40303 -2.35458 -3.53194 -1.14619
2989 1 20.595 20.118 -10.8133 -5.29362 -1.55296 -5.16041
2990 1 11.8715 -18.9883 16.075 -2.92709 2.3242 0.59241
2991 1 4.50883 1.64063 11.155 0.910523 -0.611158 -1.82311
2992 1 20.7322 13.1407 -11.8137 -1.24219 4.05839 -2.28528
2993 1 -23.4308 18.0202 16.0016 1.09323 -5.34116 3.73027
2994 1 18.5201 -0.219097 11.6504 -1.83954 0.333179 7.19672
2995 1 -2.50222 10.1317 -4.44 1.95978 2.48167 2.61517
2996 1 12.2617 5.36723 5.94419 4.10916 1.6906 -2.85391
2997 1 -6.12205 -17.8602 6.66965 2.37218 1.83961 -2.17675
2998 1 4.38204 -16.0237 15.3942 5.58207 -0.196226 1.61525
2999 1 13.3204 -18.4449 -3.29547 1.805 1.79 -0.872459
3000 1 -1.41736 13.7078 15.7306 2.19766 1.79256 0.416553
3001 1 12.4746 13.3209 8.83998 -1.07291 1.8366 5.9012
3002 1 -19.9364 15.1171 16.3012 0.0463614 -1.31351 -1.9576
3003 1 15.9177 13.95 10.3247 -1.41858 -2.89788 -2.20424
3004 1 16.8648 18.7552 -16.0946 -0.0441513 -1.97278 -1.53993
3005 1 3.26068 2.51266 -6.80742 1.49316 -6.17264 0.321289
3006 1 20.1737 6.53009 -18.9592 -7.41459 -5.99939 -7.17083
3007 1 -5.84241 -21.9161 22.698 -1.38804 2.56794 -4.411
3008 1 -3.05863 -21.2968 23.6756 1.49357 -2.27462 1.57024
3009 1 -14.1387 -22.1028 9.13298 2.98289 -0.55433 3.61153
3010 1 -18.2483 -20.0814 -16.8936 -3.93675 -1.5385 -2.93068
3011 1 -10.0331 -1.53886 -12.4205 1.07974 -5.55529 -0.759013
3012 1 3.19537 47.0134 -20.9257 1.20261 1.86292 -3.11006
3013 1 10.4092 -16.0459 22.6642 -0.241832 -2.46836 0.796715
3014 1 21.9179 12.5503 19.9741 -1.13871 -2.08614 -3.60623
3015 1 -2.82034 11.7138 8.46154 -1.22565 1.2695 -1.10529
3016 1 17.471 -11.6419 -21.5093 -1.88003 1.72244 -1.60876
3017 1 -13.2533 9.44261 -22.4477 -3.08672 -5.33903 4.05316
3018 1 -23.4032 -0.792561 -12.9042 3.30249 0.167134 2.3624
3019 1 -19.436 -21.7392 12.2819 0.529398 -1.83173 -0.297621
3020 1 -14.4386 -8.35629 7.59519 -4.75155 -1.87563 -2.53678
3021 1 -18.499 25.6751 -2.91639 -5.61795 2.75125 5.50196
3022 1 15.633 -12.5516 0.71414 1.10146 -1.78618 -1.9436
3023 1 5.07145 19.2996 -4.59795 1.45595 -2.77175 2.01513
3024 1 -23.2152 6.42936 4.44333 -5.54441 0.896302 -3.29758
3025 1 5.62106 -24.5847 9.57619 1.37435 0.775643 -1.46169
3026 1 0.491742 -21.9818 6.86763 3.71512 -1.20847 -3.02485
3027 1 13.3364 4.76084 11.146 -0.323153 2.11795 -0.857351
3028 1 -17.2911 13.6934 20.2859 0.329499 5.46349 1.13074
3029 1 7.16251 3.79576 12.2748 -2.22485 -4.54623 -3.21498
3030 1 -14.6244 20.5389 -10.7244 -2.33758 0.733017 -2.51633
3031 1 22.4247 -11.0261 -17.1473 -4.1458 1.51591 -1.62862
3032 1 18.5388 -8.90375 -6.2531 -1.56082 0.0150945 0.636086
3033 1 -11.7189 3.86264 7.31756 2.06122 7.42587 0.836178
3034 1 -12.0487 -6.52718 -15.8697 0.201784 2.53859 0.89528
3035 1 19.8484 16.2579 5.60598 -2.09467 5.74547 -3.88527
3036 1 12.2087 19.0966 21.8806 2.08165 -1.05949 0.78186
3037 1 -3.77291 -10.2335 7.21468 2.7769 -1.40682 -6.9779
3038 1 -17.2084 -24.3661 -18.0527 -3.8271 -1.29425 2.88706
3039 1 17.6548 -21.6136 18.1213 1.39531 -0.291098 0.285901
3040 1 7.04979 -18.9484 13.5547 -3.03429 0.535361 -2.01495
3041 1 -20.3663 20.4964 -2.53135 3.04998 -0.865574 -1.74539
3042 1 -6.08241 21.6998 13.9623 0.574259 -3.59299 1.67322
3043 1 5.90137 -12.1171 -16.9881 -0.146043 -4.02195 -3.44562
3044 1 -6.42632 15.5465 -4.27438 -0.999402 -4.88042 1.23085
3045 1 0.0265873 -4.36172 5.54662 3.14133 -5.56588 -1.42138
3046 1 15.7529 -10.5192 -15.0345 3.1827 3.59597 -5.04644
3047 1 7.29517 19.6786 3.41601 2.00314 -3.49384 2.56415
3048 1 5.92916 -10.7102 20.2556 4.40547 -0.273789 -0.465251
3049 1 -10.7901 -22.3793 -15.4139 -4.70249 4.8721 -1.77036
3050 1 0.765015 -24.0499 17.0326 -4.04602 3.88759 -4.71
3051 1 -18.9494 0.388055 -14.3156 -2.95811 2.05671 -0.128148
3052 1 -21.4945 14.8563 -13.763 0.325377 0.0273053 -1.81571
3053 1 21.0455 -22.7934 -0.921792 4.77201 3.05984 1.9367
3054 1 21.5922 -2.28572 22.6781 2.62785 -2.86151 -0.947602
3055 1 18.5752 1.35141 4.51215 -0.0291228 0.713123 1.6043
3056 1 -24.1333 13.4536 13.4544 1.82945 5.63757 -1.09326
3057 1 17.2003 7.20223 24.0213 0.266241 3.47577 3.82669
3058 1 12.1741 -6.89897 8.4641 -1.55534 -2.88513 0.133699
3059 1 -10.5048 -22.313 -5.74209 -0.556494 -1.22911 -0.648923
3060 1 -23.4208 24.3459 -4.04687 -3.15603 0.150695 -2.68278
3061 1 -8.91592 24.4863 -17.1411 0.765579 1.3421 1.1251
3062 1 -11.4136 14.9835 -16.435 -1.16614 -0.220648 -4.63371
3063 1 9.05076 21.7488 -11.9187 -2.39163 -1.06007 0.923538
3064 1 -0.986789 11.2979 -20.9628 -0.107944 -1.97276 -1.2203
3065 1 5.59519 -12.2736 -11.7715 0.131715 -4.46625 -5.88524
3066 1 20.2717 -4.10734 1.60669 1.36551 -2.4514 -2.4296
3067 1 16.053 19.0187 -13.2583 4.70518 -2.25054 0.728099
3068 1 19.3317 16.1194 -1.32909 -4.30997 -0.961283 -2.72753
3069 1 6.15396 -7.6567 -4.9777 -2.89879 -1.72596 -0.693497
3070 1 22.574 -7.0613 0.709495 1.24519 -0.538637 -1.22145
3071 1 -3.39668 -2.76313 -5.64845 5.7141 1.30608 2.57344
3072 1 1.91255 10.2442 21.4347 -4.53757 -1.90645 -6.49242
3073 1 2.69463 21.2855 0.440286 5.16139 -0.711845 2.5932
3074 1 -7.96639 -9.0194 8.70018 2.53231 -0.994733 0.345173
3075 1 19.0184 9.57352 -23.5104 4.53402 -5.06685 -5.19629
3076 1 -10.6349 18.9202 11.9096 -3.3344 0.542701 1.41201
3077 1 -13.8256 -23.6337 -8.36105 -2.77445 4.71237 5.11659
3078 1 -20.7786 5.2332 -15.3525 0.524683 3.45732 0.278443
3079 1 12.3531 -3.55358 -4.79987 0.346244 1.18156 -0.0967937
3080 1 -21.0109 11.1134 -8.13979 0.756301 1.52501 0.358299
3081 1 -17.9483 9.04614 6.95648 -1.78492 0.29359 -8.0657
3082 1 -2.90759 1.57847 23.4008 -2.49323 -1.60919 -4.05242
3083 1 6.71944 -13.4667 -9.38726 -5.41756 -1.09058 2.20791
3084 1 -15.4048 -23.6245 7.04089 -4.96077 -0.143814 3.88279
3085 1 -16.2314 -2.6281 -7.12911 -2.23083 3.40327 1.57899
3086 1 13.8617 18.9888 4.24989 -0.0882385 1.37115 0.388035
3087 1 -9.8157 -20.8435 10.9661 -7.28206 4.90642 3.08858
3088 1 9.20232 3.51618 14.0892 -5.18627 3.84246 0.621258
3089 1 9.5887 -20.3143 13.9265 -0.923074 3.43353 -2.69727
3090 1 15.4935 -1.68378 -8.2543 -1.26709 1.91775 5.74382
3091 1 -5.12859 2.17291 21.4655 1.7303 0.0999974 -2.45769
3092 1 -8.15771 -5.71325 21.4738 2.4137 3.41047 0.294041
3093 1 -13.7399 3.21001 -21.3693 -1.22886 -3.41853 -0.0183129
3094 1 15.5041 4.46143 20.4258 3.01108 -4.76346 -0.554688
3095 1 -17.1713 -14.3099 1.04184 -1.14943 -1.80032 -1.99023
3096 1 8.45322 5.40251 -23.5474 2.05134 -0.71332 -1.87627
3097 1 -5.33061 -11.4264 -20.9186 -1.1469 2.29706 3.92779
3098 1 -8.50922 -18.4479 3.23349 2.14862 -4.45951 5.71318
3099 1 -19.7478 9.37509 22.5809 -0.63972 1.45316 2.3873
3100 1 19.3871 -9.30542 -21.7182 -0.736876 -4.45986 -5.8003
3101 1 21.6728 -14.396 -18.8769 -0.742253 4.20917 3.74094
3102 1 4.31785 4.28038 -23.7261 0.656424 2.36302 -0.252645
3103 1 -7.06251 -12.4928 22.9057 0.683896 0.455338 -1.20186
3104 1 -20.4012 -7.35993 9.60872 1.61385 -0.612078 -3.06244
3105 1 -22.7665 -5.14742 20.7092 0.602834 -7.02152 0.359903
3106 1 2.03774 -11.1527 -6.49776 -1.17028 1.62143 -0.975371
3107 1 21.4327 -12.8152 22.3838 -0.168602 3.24945 -2.16287
3108 1 8.54712 -17.5032 -7.5248 -1.58729 -0.465506 -0.911311
3109 1 1.76379 -0.683748 1.48278 -2.14409 2.06474 0.56449
3110 1 8.32861 4.92181 0.563292 1.63839 1.58672 0.759436
3111 1 10.8011 -19.0127 -17.0022 1.94852 0.730017 -1.32066
3112 1 -1.59763 -11.7235 -22.0261 3.16686 -0.454893 1.5076
3113 1 8.49376 -13.2936 -17.8668 -3.74701 2.94895 1.01247
3114 1 3.2997 5.16134 -17.04 5.50849 -0.551257 -1.50717
3115 1 -19.7441 18.5954 -15.4907 -3.41858 -2.25236 0.24961
3116 1 -10.5861 16.0577 -0.37614 2.5848 0.638284 1.57988
3117 1 16.3336 -9.8628 -4.91764 2.39746 7.24797 -5.29157
3118 1 5.4604 5.94862 5.19234 2.02598 4.79862 1.92689
3119 1 -8.64543 -7.20483 3.35681 -2.3663 -2.61988 -1.6226
3120 1 -10.6213 -6.63949 -18.3811 3.97529 1.75248 -4.57221
3121 1 -0.818822 -22.0685 15.4416 6.24589 -4.01724 -0.656043
3122 1 -12.9284 25.4997 20.2801 0.730033 4.26114 -2.95762
3123 1 15.1323 15.3152 12.7473 0.0018828 -1.34396 1.22422
3124 1 -13.8696 11.8854 -8.24226 2.50469 -4.4472 -0.109577
3125 1 -1.78145 -15.3437 -2.97946 0.861581 -0.453045 2.44935
3126 1 1.167 7.07329 -8.19485 -1.91096 3.38714 -3.18776
3127 1 18.4723 6.08497 1.68059 -2.75514 2.4532 -1.21006
3128 1 4.17709 8.46253 -15.2964 -2.30962 4.87828 1.38199
3129 1 -2.27405 -11.479 11.3268 2.39396 -2.76152 3.06499
3130 1 21.0331 -9.66644 11.2757 3.40317 -1.27327 2.18568
3131 1 -9.53708 13.5859 1.96481 -2.42605 0.736181 1.53318
3132 1 4.12566 9.84574 3.25089 -3.90381 -1.7136 -3.68197
3133 1 -2.32329 14.1704 -13.3401 0.145122 -3.88503 2.03629
3134 1 21.6471 7.86405 -2.954 -3.13417 2.97738 -3.09042
3135 1 -18.9368 -13.0729 -3.05888 -0.473682 -1.13012 -3.66442
3136 1 -17.6981 -22.8157 5.14682 5.51035 1.32755 -2.6838
3137 1 2.12327 -6.82374 -18.217 -0.13415 -2.71834 -0.106109
3138 1 19.445 -3.55329 23.5374 0.535662 -1.86771 3.49697
3139 1 5.23574 9.43357 -12.6889 2.74454 0.631314 -2.92122
3140 1 2.62209 17.0996 -17.0298 -1.82333 -1.64803 1.84129
3141 1 8.1833 -3.89484 -7.1714 3.85147 -1.34423 1.21243
3142 1 2.23397 23.3841 -19.2732 0.76068 -3.94766 1.00611
3143 1 22.4946 22.0731 -20.3152 4.78328 -0.363896 3.05834
3144 1 -2.36191 13.005 4.18147 -3.84789 3.23013 1.49323
3145 1 19.4605 -19.4985 9.91781 1.74542 2.17386 -3.58582
3146 1 0.176796 7.07345 -10.9662 -0.0788492 3.94106 -4.61557
3147 1 -1.14841 -17.3956 0.828484 -2.68164 0.384657 -0.355982
3148 1 8.45077 -9.01987 4.79267 2.05481 -1.26733 -4.47054
3149 1 12.4311 6.96131 -16.905 -1.51359 0.688776 0.538498
3150 1 -21.6946 14.4107 4.70738 -3.77146 -0.268694 4.46998
3151 1 -12.2136 46.3289 -17.4176 -4.07785 2.79851 0.305773
3152 1 -13.8801 19.0284 -22.4281 5.40384 -3.33587 -2.72374
3153 1 16.9056 7.22832 -21.1823 2.43501 1.05477 -0.402936
3154 1 8.07242 18.385 1.12065 -0.656612 -0.284164 5.12768
3155 1 -5.25861 -12.2103 2.67119 -0.265687 -1.56157 -1.33543
3156 1 19.901 -3.16302 8.09387 -2.53593 1.85752 0.869934
3157 1 13.0584 1.50307 4.38403 -6.74877 2.67883 -3.95226
3158 1 20.4951 -20.8092 -7.47627 -3.72257 3.45645 0.129618
3159 1 19.4754 3.37722 -5.17647 -3.15961 3.23648 1.49354
3160 1 -10.0631 -24.1426 -23.6139 -1.13758 5.78855 2.8875
3161 1 -9.5634 -17.3227 -2.7972 -2.99462 1.47355 -0.72949
3162 1 -14.2468 -14.7712 -15.1542 1.00576 -3.78096 -0.370832
3163 1 -24.3085 0.220013 14.654 -0.928892 5.86285 -5.96353
3164 1 -19.6426 2.84604 19.3662 -5.77435 -0.426761 -4.54733
3165 1 -7.00542 20.5173 -17.4075 0.59837 -6.93252 2.48354
3166 1 17.0965 -9.27146 15.9317 -1.33091 1.0089 3.33131
3167 1 19.538 -16.1768 -19.9149 -0.925343 -1.15703 -0.417714
3168 1 -16.638 -21.2073 16.8306 -2.75277 0.795302 0.211643
3169 1 13.3295 -23.9831 -19.9578 1.52313 1.01422 1.11805
3170 1 5.63903 22.5959 23.792 -0.937835 4.70333 3.57182
3171 1 -6.37618 15.0151 -22.7534 3.68754 -1.1575 -0.29992
3172 1 -7.18995 2.39066 7.81359 -4.30112 2.70305 -1.4278
3173 1 9.38845 18.8232 8.93354 0.731216 0.0290159 0.792818
3174 1 23.7819 13.5119 -11.6417 4.93097 5.5485 4.92982
3175 1 20.5279 2.51398 -2.61793 -2.18497 -3.07098 -1.14466
3176 1 16.3118 -1.16986 15.2549 -4.80408 -0.883889 0.985856
3177 1 -0.995691 -9.86235 23.8696 0.656114 3.72035 2.34321
3178 1 13.702 19.1383 11.495 -0.205729 3.4719 0.819012
3179 1 1.88887 1.12044 22.1671 -4.80897 -1.2986 3.70076
3180 1 0.49365 13.477 3.82035 6.26429 -1.04167 4.44717
3181 1 -20.3239 -18.087 21.6011 2.76366 -0.987335 2.26875
3182 1 -16.2832 -24.591 22.3602 2.0055 -1.18524 -2.4868
3183 1 -23.6145 16.8044 -5.34136 2.66267 1.54803 0.929344
3184 1 15.2384 -3.85833 1.87578 -3.64691 0.568129 -1.17274
3185 1 -15.73 20.2776 -20.7707 -1.74888 -1.68908 3.09619
3186 1 -5.43572 20.628 7.43732 2.17088 -0.444933 -6.0098
3187 1 -21.7674 -16.9703 0.839767 -0.0734986 2.81107 -1.44506
3188 1 -19.534 14.1346 -9.37209 3.75109 8.49366 10.5452
3189 1 14.659 11.59 7.46168 5.25215 -0.385132 4.86323
3190 1 -21.0474 21.0803 -16.6138 -2.06968 -0.18214 1.17365
3191 1 4.81239 -6.43971 -7.40902 4.16199 -2.34924 -0.214147
3192 1 23.1955 11.0909 0.526504 0.252753 1.36516 2.44793
3193 1 -19.0894 23.8825 -0.802392 1.90809 2.97881 1.25468
3194 1 -17.3368 -5.02985 2.67795 -0.356528 -1.71122 -0.645688
3195 1 -17.7109 1.56009 3.61092 -0.443219 7.75509 -0.00967818
3196 1 1.16969 -0.627843 -2.85168 3.93509 7.50806 2.5125
3197 1 -4.81962 9.39903 3.3675 -1.68773 -1.35407 -0.651462
3198 1 9.39772 3.73168 -17.0781 -3.30145 -4.83351 1.60506
3199 1 13.9645 -22.6606 4.92248 2.58248 -2.59404 -5.64571
3200 1 -23.0487 -4.03618 -4.17529 1.57635 -1.82273 -3.61581
3201 1 -15.2525 -0.939413 20.284 -0.359257 -3.43519 -3.91483
3202 1 -17.5005 -13.5462 -9.72877 3.16962 3.82624 -0.880409
3203 1 17.4211 9.22634 21.8728 1.41377 -2.65416 2.83987
3204 1 -16.3818 -8.70705 11.0022 -1.82481 1.24349 -3.65111
3205 1 -13.0249 2.39497 -5.98147 2.05342 -1.31305 0.520297
3206 1 15.6762 10.7812 -4.48579 -0.265082 2.38813 1.69116
3207 1 -1.74511 -7.63356 -17.9653 -1.10679 -3.05374 -6.08962
3208 1 5.87283 -7.68534 4.23222 1.79722 0.225024 -0.294975
3209 1 11.0093 -13.482 23.8057 -0.856206 0.00472316 -2.93081
3210 1 -13.823 10.481 -3.50162 0.228957 6.08958 6.19969
3211 1 -2.36149 19.1066 13.1858 -1.02048 3.95582 -4.68532
3212 1 -14.4442 8.00618 -18.5758 0.346086 2.30333 -0.197316
3213 1 -2.47747 0.938745 -14.704 -0.173722 -4.46921 2.40224
3214 1 -1.47776 16.645 16.2294 -0.467576 2.48278 -1.71074
3215 1 10.0704 2.41947 10.1492 0.0434065 -2.75943 3.61259
3216 1 22.9019 -1.30234 8.96914 2.14717 2.60384 0.163242
3217 1 10.3857 1.72946 7.55876 -2.42142 6.1678 2.15392
3218 1 -4.20911 22.3678 -9.01827 -1.2308 -0.508012 0.22624
3219 1 -6.73772 -19.8776 -17.3511 -4.53297 1.68588 -0.821835
3220 1 -4.76935 -9.24266 16.6444 6.51457 1.39461 -7.51702
3221 1 -6.29584 -7.10262 -1.97038 0.852718 -0.615158 1.39719
3222 1 -13.9413 -18.8023 -0.752242 -2.74254 0.946442 6.0359
3223 1 23.4059 8.34454 17.8217 1.5071 -0.745691 3.70573
3224 1 -7.10595 -6.28619 0.92998 -5.43065 2.09651 1.21621
3225 1 -7.05057 -7.75766 15.8096 3.27265 -0.235531 -4.50928
3226 1 -22.6543 23.9606 -10.2542 2.95029 1.91814 -1.14476
3227 1 5.79145 21.021 -2.39676 0.105331 2.35944 3.04135
3228 1 -11.2283 11.4605 -10.8647 1.61232 1.70382 -0.0378213
3229 1 -10.4646 2.89411 -2.53049 2.35794 -2.21049 -5.76312
3230 1 -23.3121 14.6375 -22.5626 -0.642447 -0.43562 1.93501
3231 1 -17.9295 -18.4145 -0.93399 -3.48453 0.755085 -4.19671
3232 1 -22.5377 17.349 5.48754 1.13717 -1.73637 -7.98757
3233 1 -0.590702 17.4901 4.91852 1.27471 2.93447 -2.55477
3234 1 7.06498 -6.14461 -12.8213 1.54782 1.44344 -1.50577
3235 1 -6.04703 11.5445 -11.864 1.04137 1.81658 1.24189
3236 1 17.7795 19.5725 8.16526 0.732786 1.48194 2.88449
3237 1 -5.04405 -13.4338 -23.2249 -1.2068 -1.29318 4.10761
3238 1 19.352 21.4599 -2.78387 -1.76907 -0.703935 0.163484
3239 1 -14.579 -15.8206 7.23871 0.231546 -2.27618 -2.23103
3240 1 -13.1779 -22.4388 -17.4395 0.0856868 -3.04939 2.37947
3241 1 1.13254 -22.261 13.2441 -0.660622 0.07144 -6.16386
3242 1 20.9571 -13.2446 -16.0658 0.474581 -0.103022 4.6606
3243 1 7.03186 17.0689 22.3238 0.489915 1.41611 -2.1916
3244 1 19.0311 15.6002 -12.5201 3.06248 3.79085 -8.05182
3245 1 -8.96986 21.1229 11.85 1.19676 4.64548 2.01485
3246 1 19.2759 4.77316 5.39847 3.63339 -1.5554 1.80341
3247 1 -6.45515 9.06938 -10.5236 3.52215 -1.20991 -1.30817
3248 1 8.84654 -1.66532 0.365869 -7.88896 -6.32948 -0.275448
3249 1 8.55487 -4.0927 12.6519 1.76715 0.422699 -0.638124
3250 1 14.669 5.07834 -17.5986 3.54363 -1.37777 -1.44238
3251 1 0.525083 18.4929 13.2259 -5.58741 -0.77897 -2.80498
3252 1 18.4838 -23.4226 15.0785 0.328822 2.54083 1.08101
3253 1 8.11999 15.3732 3.22576 1.6286 -4.13548 -3.02457
3254 1 19.9073 3.2274 -8.01679 -1.9607 0.659289 5.75631
3255 1 -17.4697 12.9541 -20.3425 -0.234592 2.64012 -2.73181
3256 1 -6.19313 17.8298 -10.6881 -2.7212 9.04564 -2.86217
3257 1 -13.4656 9.19589 21.2807 -1.07181 0.0282224 -0.996512
3258 1 -20.3657 -6.47734 19.2507 1.1195 -2.02714 3.04458
3259 1 17.9178 19.4538 5.33891 6.6809 4.44698 -1.73139
3260 1 19.6717 45.241 -6.95024 2.85464 -1.64708 -0.260455
3261 1 -15.2401 -2.14922 -15.2764 0.447603 0.936519 1.79468
3262 1 9.23618 8.22484 11.7951 -1.82014 -0.0649793 3.14255
3263 1 21.8285 0.225504 18.0152 1.81136 0.624668 1.55984
3264 1 11.7121 8.0699 22.2248 3.57879 1.60954 -3.65133
3265 1 3.33162 -3.24454 -13.8252 -2.81734 1.83323 -2.26348
3266 1 9.73423 0.180771 23.3987 4.48656 -0.209198 2.81185
3267 1 -14.9622 10.0191 2.14739 -1.55079 -2.27747 -1.25372
3268 1 8.05726 -20.444 11.0654 -1.25867 0.36861 -0.460263
3269 1 7.20492 17.3768 -3.44598 4.40084 0.371514 -1.70827
3270 1 16.2416 -17.1053 15.7081 -3.11367 -0.918488 -0.183264
3271 1 7.188 -12.5092 22.2702 0.652796 -0.0726705 3.05304
3272 1 2.31383 11.5833 -8.1633 -4.33216 -8.16346 -1.03924
3273 1 -17.0658 7.87626 -15.8849 -3.71294 -2.98584 6.54917
3274 1 14.189 -19.8897 4.22781 2.80072 4.04129 -0.663526
3275 1 19.7556 8.2716 13.0611 -1.44561 4.32383 -2.76912
3276 1 10.678 1.06637 12.5453 1.80671 2.96682 0.43051
3277 1 0.0585934 -16.484 3.42347 1.27275 2.18992 5.11915
3278 1 -0.263846 -5.56136 -21.0747 0.489323 5.78836 -1.25811
3279 1 7.50275 -1.21176 15.8755 -6.20221 0.953238 0.820202
3280 1 8.56456 15.2626 12.0169 -3.73362 -2.55134 0.650177
3281 1 -3.63937 -15.1733 12.4259 -3.10857 3.69198 -2.28002
3282 1 2.58049 -1.53191 -17.0527 0.161202 -1.25783 0.421608
3283 1 -2.8356 -0.45838 14.8865 -5.76334 -1.66342 2.14377
3284 1 14.6837 23.9649 -18.9465 -3.42438 -3.16707 -6.97079
3285 1 0.626752 18.7441 -11.6751 1.44198 -0.60883 4.58626
3286 1 -16.766 21.7439 5.04181 0.00472704 -0.344725 1.80286
3287 1 -5.00647 -13.3629 17.1031 1.71113 -2.5306 -2.79693
3288 1 -0.295234 8.54426 -20.3093 4.22156 -5.15188 3.07706
3289 1 -16.9009 -22.5031 11.5743 4.24455 -4.98127 3.74629
3290 1 -13.5645 21.8179 17.7328 -2.6177 4.45625 1.01066
3291 1 21.1459 24.6053 -11.3972 2.87663 1.92051 0.300109
3292 1 -22.1297 22.0341 1.75776 2.23193 1.24659 0.75811
3293 1 -10.6671 12.4417 23.9973 -2.90524 0.617185 1.32919
3294 1 -23.832 -0.327689 -17.2908 -3.61577 3.31264 0.0557761
3295 1 4.48883 -24.2828 -0.340674 -1.50822 0.667027 -0.410023
3296 1 -16.8133 -12.6925 15.4536 -2.92253 -1.51871 -2.26863
3297 1 -17.6262 22.9813 23.7268 -0.613287 4.85339 -4.02514
3298 1 4.09186 -8.98422 -17.1672 0.648102 1.62858 -1.49637
3299 1 -12.9772 24.18 -4.85301 0.41525 0.316523 -2.33294
3300 1 -1.07596 5.31753 -7.16936 3.30039 -2.08638 -1.15331
3301 1 -22.072 10.0482 -10.6235 -1.35103 0.388103 -3.17389
3302 1 -17.7734 -10.0702 19.8285 3.62424 2.623 -1.28164
3303 1 -24.463 -24.5277 -15.7858 -1.75317 -0.342118 -2.38086
3304 1 -0.987685 15.7627 13.3732 -1.97301 6.04858 -0.746474
3305 1 3.04253 5.46047 -6.47455 0.428057 -0.844388 -0.179227
3306 1 -7.40377 11.0009 -21.8768 0.44071 2.63097 0.693226
3307 1 -21.8054 11.2795 19.309 0.383612 4.20534 -4.12669
3308 1 -15.6054 18.2339 -2.6592 -1.30342 -4.14302 -1.20512
3309 1 2.75175 0.120003 12.7436 4.33573 0.815667 0.959297
3310 1 15.935 24.0766 7.964 -4.04182 -1.14713 -0.286453
3311 1 9.03414 3.08717 -9.55467 -0.00382863 -0.000388702 -1.63116
3312 1 -24.1801 5.02164 16.0372 -3.46008 1.1729 3.92798
3313 1 15.9039 9.74987 12.6889 -6.63529 -0.929663 4.58572
3314 1 2.12091 -1.04877 9.9574 -5.6563 -0.733432 -6.66395
3315 1 21.5471 -11.2776 -22.04 2.63633 0.820859 -0.566857
3316 1 2.18416 -6.28578 -6.35365 0.621895 4.46684 -1.62088
3317 1 3.88331 0.744475 8.42087 2.16402 -4.50966 0.792949
3318 1 -8.79599 1.24331 17.9081 0.186612 0.0340868 1.37188
3319 1 1.67629 2.05983 -15.0208 1.77533 0.395028 2.93449
3320 1 4.26985 3.98144 -11.9537 -1.06561 0.405217 -6.21214
3321 1 -8.89821 -15.5207 20.2588 -2.91611 -0.504757 1.88032
3322 1 12.8456 -11.102 -23.9402 0.238404 -1.64038 -1.0415
3323 1 -3.88539 17.3311 14.8892 1.3829 -5.89528 -1.53044
3324 1 15.0678 -15.3527 -11.1546 -0.412746 -3.87805 0.981297
3325 1 -10.3707 15.8529 3.65642 -2.63473 -4.04602 2.26422
3326 1 -22.364 6.92995 -21.9542 2.44293 -0.156084 0.837747
3327 1 7.18271 -23.096 -8.88692 -0.195111 0.280441 0.367481
3328 1 4.09964 -18.0507 -10.0131 1.62846 2.72118 -3.11846
3329 1 13.1959 4.75533 -15.0795 2.70844 1.38276 0.591985
3330 1 -8.31398 18.9606 -15.1719 -3.38975 -2.67122 0.348221
3331 1 -18.0347 -4.20467 -1.24708 -1.4977 -0.459128 5.5249
3332 1 -4.35937 7.26687 20.9148 0.509314 -5.21831 -4.16276
3333 1 6.56038 -7.74771 23.3611 -1.70697 -0.364434 1.41278
3334 1 23.3085 20.2487 17.4353 2.00501 2.7699 2.06668
3335 1 23.4445 0.454429 -3.89196 0.214798 1.17849 -1.55495
3336 1 13.5472 -16.8653 1.11156 -2.79875 -1.76352 2.92589
3337 1 -14.8607 10.7781 10.6489 1.59139 -0.697148 6.39945
3338 1 10.7176 22.3758 16.0595 2.87298 -3.78755 -4.74653
3339 1 9.49032 20.6882 -22.3289 -0.809816 -2.05051 5.87533
3340 1 17.636 -0.169002 -20.5223 -1.34925 3.19739 -7.05007
3341 1 20.078 21.1186 -14.4101 3.08003 -3.61137 2.91627
3342 1 -2.17096 -0.45128 2.93479 1.69621 0.776189 -1.41594
3343 1 -23.8134 -4.76558 -15.1092 0.229586 3.54909 1.60835
3344 1 16.1577 -19.2931 17.6306 -1.17109 3.77533 -1.38152
3345 1 13.9876 24.5369 -23.3307 4.24713 3.75219 0.755775
3346 1 8.96552 -23.5982 -1.00489 -2.37088 1.45307 2.0062
3347 1 -24.1483 13.8586 -14.6008 1.59995 0.714925 -4.96242
3348 1 -10.4812 -19.6025 0.802623 -1.59607 -3.39017 2.68306
3349 1 13.6283 20.3098 -12.7253 -1.48656 -0.463044 -0.455808
3350 1 -3.53833 -7.43401 13.6968 -2.06478 -0.107279 0.29325
3351 1 -20.5733 -9.50505 15.9612 -4.10939 1.03866 0.889523
3352 1 4.20911 14.5981 4.57259 2.77224 -1.81508 -3.06229
3353 1 -22.6769 2.67051 17.514 -0.807341 -0.168899 5.88865
3354 1 -15.0709 9.92073 -0.761485 2.00397 1.05057 0.218295
3355 1 -15.8534 -20.4069 -6.45247 -0.689956 -2.93476 -2.23242
3356 1 -8.82613 23.4841 6.84886 -2.53598 -1.21043 -1.03036
3357 1 6.60846 -6.75871 18.7244 2.52259 0.776836 -6.90755
3358 1 -1.72129 21.9716 13.3854 -1.48038 -3.00948 1.00528
3359 1 -5.84651 24.6211 13.5179 1.19166 0.577662 -0.357208
3360 1 -6.36776 -15.7164 16.2885 2.87001 -1.68986 -3.22456
3361 1 -2.50292 25.897 10.841 3.02266 0.541941 0.590712
3362 1 -6.29105 3.49807 -14.3591 -2.70065 3.23312 -5.34728
3363 1 11.7366 -3.19277 -16.8665 1.84686 -3.9728 0.377879
3364 1 -19.6785 -8.60278 0.409313 3.06696 -3.53709 0.718406
3365 1 -1.25998 -8.97438 10.1652 0.276403 0.538398 1.22775
3366 1 -20.4576 -23.0554 -20.1985 0.143762 2.04355 2.26345
3367 1 3.24774 -20.7006 -22.3677 -0.902251 -2.30964 1.10286
3368 1 21.5322 -20.3835 15.723 -2.64207 -0.0794457 -0.98995
3369 1 -3.68033 -4.16759 -9.14396 -0.158154 -0.731726 -0.472552
3370 1 -19.1243 -14.011 -15.1546 -2.98679 3.99072 -5.12531
3371 1 -8.48793 4.62756 14.6393 -0.770609 1.64385 -6.42006
3372 1 4.18479 -3.32878 -7.05939 -1.88882 5.2842 -1.96471
3373 1 12.8036 -5.63151 19.0337 0.198265 -0.668922 -0.713629
3374 1 21.5183 -13.9083 -22.9656 3.1412 0.598978 5.27956
3375 1 20.6949 -10.9057 -0.219473 0.0906656 3.49341 0.843212
3376 1 -17.3175 10.0623 14.6415 -6.21138 2.86429 2.73316
3377 1 5.43164 -14.2484 13.3781 -1.02986 1.18194 -2.36216
3378 1 -5.69549 -18.3111 -1.75268 -0.939468 -0.330854 1.75867
3379 1 9.67664 -7.89059 7.48414 0.842717 -0.971873 0.765183
3380 1 1.02187 17.8933 22.7634 -1.26297 0.611132 5.52194
3381 1 -4.54251 -15.6642 -20.3416 -3.27882 0.953928 -3.51675
3382 1 -21.4367 14.6183 13.9476 -3.47784 0.475356 -4.44331
3383 1 -21.1365 23.6259 -18.1656 2.53921 -5.86013 -5.65258
3384 1 17.7757 -18.6353 -11.353 3.34845 0.256221 -0.116048
3385 1 -3.32883 -19.5225 -7.94766 -1.00626 0.567938 1.54199
3386 1 9.10628 -8.23857 -22.4436 -0.118074 -0.341714 -0.64579
3387 1 -18.7924 -2.60833 2.72873 1.49094 -1.94405 -1.15766
3388 1 -18.5027 -2.14356 15.1248 3.09438 -1.25452 -3.74822
3389 1 -13.8951 -11.1305 -12.7131 3.22176 -0.297661 0.946713
3390 1 -24.2975 -22.1706 14.8965 -1.12799 -1.03998 1.37022
3391 1 -8.84287 -15.6287 3.2062 0.555433 -4.35461 -4.49978
3392 1 -7.59407 1.31872 -18.1013 -2.96945 -4.62186 -2.18493
3393 1 -13.2839 13.9346 -18.736 -0.581089 6.98186 2.96971
3394 1 -10.8296 0.634045 14.3719 -1.72256 -5.82527 -4.09776
3395 1 14.9871 -15.5031 10.3188 4.14592 0.263655 2.00754
3396 1 -19.3782 7.69874 -6.17591 -1.34486 -2.1105 2.95249
3397 1 -3.70309 4.70613 20.2312 -6.24823 -3.25748 -2.76948
3398 1 -6.70552 -20.4368 -5.54115 2.51411 1.50181 1.54446
3399 1 0.196118 -6.83573 3.77728 2.09349 -5.12136 -7.27818
3400 1 15.3433 -24.0704 -22.2591 -0.4886 0.403613 -0.926496
3401 1 -20.0648 -23.2654 -14.0057 -2.24938 3.3751 -3.41228
3402 1 13.8134 -19.2807 -17.3401 -0.400402 0.0566767 -2.75923
3403 1 -15.8115 46.9294 0.351506 3.7316 1.95705 7.02976
3404 1 -17.6382 -9.58289 2.08183 2.48554 -4.17282 3.1378
3405 1 16.1729 5.4135 13.5587 4.03597 5.98448 -0.126873
3406 1 3.85015 -4.6421 3.64841 1.18078 -1.98836 1.28232
3407 1 12.2141 0.781194 -10.864 2.20433 -0.321281 0.513528
3408 1 -19.2664 15.8321 -23.6611 2.01064 1.01657 2.3903
3409 1 -2.54543 -19.0125 17.7244 -4.85106 0.648442 1.21085
3410 1 -20.1322 -7.74341 13.8006 0.861281 -1.74014 0.575962
3411 1 -2.80232 -4.05626 19.1304 -2.24976 -3.6094 4.33728
3412 1 4.91649 -2.89811 -10.0992 7.7739 7.13712 -2.22912
3413 1 -1.15749 -21.1301 -18.7963 -6.07851 -0.925462 -4.75552
3414 1 -18.5191 4.78856 -5.89918 -0.262665 -1.17695 4.37543
3415 1 -18.3135 1.42431 -17.0516 -1.69287 3.16256 -2.27901
3416 1 21.6934 -22.9863 -6.44611 0.982327 0.312662 3.90871
3417 1 23.0456 -11.0071 9.96177 -0.950507 0.221797 2.64116
3418 1 19.0519 17.2583 12.5628 -0.652399 -3.13975 -4.37732
3419 1 -12.3646 -9.9867 1.44373 3.61062 3.32194 1.26421
3420 1 -19.4011 10.6632 8.67342 1.00547 -2.07828 8.67279
3421 1 11.2142 14.814 -12.8648 -1.46956 5.34941 2.98375
3422 1 7.58503 -15.8836 -5.06046 -1.03573 5.10767 2.89366
3423 1 -13.2783 3.23161 1.06917 0.191242 -4.52838 0.452134
3424 1 -1.12828 -11.4021 2.33537 -0.75568 -0.693229 -0.0436532
3425 1 -23.047 -10.2348 18.6261 -2.53374 -1.33254 -1.17754
3426 1 -20.1133 -6.0613 5.20025 6.70103 3.05315 -2.35169
3427 1 -23.2794 11.7649 -16.0899 -0.961949 -5.07249 2.18526
3428 1 -3.82422 12.7837 15.3761 2.34188 -2.35715 2.36835
3429 1 6.83165 -17.4101 16.1232 -3.95647 -1.56499 0.268476
3430 1 -12.2051 -15.5288 17.9161 1.42824 -1.63227 -0.911043
3431 1 -9.03278 -4.09112 0.882673 -4.689 2.36686 6.10768
3432 1 -2.90709 9.10306 7.72428 0.942063 1.98091 -0.169068
3433 1 -9.15491 -0.466969 -19.6232 -3.93924 2.38403 -4.07336
3434 1 12.838 16.1174 -10.6738 2.17084 -0.568118 -2.65141
3435 1 -3.12548 21.1797 -15.1806 4.14336 1.10017 -3.38533
3436 1 -3.82105 11.1666 17.8516 -10.254 -3.14948 -1.95359
3437 1 11.0428 16.3397 -5.57069 2.2129 1.9738 -3.81726
3438 1 -17.0906 11.5509 3.54629 0.362241 -1.60987 -4.41006
3439 1 2.94504 -13.6929 12.1541 0.472383 -5.51337 0.361939
3440 1 4.49215 23.3809 -9.28237 -1.42409 2.20051 1.93579
3441 1 5.90777 -14.302 -6.45755 2.93667 3.22539 0.322453
3442 1 -5.31864 0.531177 6.4671 0.304392 -3.17367 1.32734
3443 1 -23.1139 2.17911 0.224486 -0.0838147 -3.43293 2.86397
3444 1 -18.1674 14.3361 4.26729 -1.77323 0.702082 -0.608969
3445 1 -12.3943 1.70158 -9.77095 3.02452 -1.46523 1.73792
3446 1 -4.14609 -21.5437 -17.4823 2.25056 -1.55682 1.16436
3447 1 -5.40455 4.09689 -7.68266 -4.12951 0.461171 -1.05121
3448 1 -20.4683 5.66333 14.5706 1.45468 -1.59511 0.376663
3449 1 8.89494 23.2195 -16.0994 5.64244 -6.55545 -3.57684
3450 1 -3.21916 -15.129 -15.4353 -2.06985 -1.18823 -0.261841
3451 1 5.46469 -10.5346 -19.2414 -1.14205 -1.30295 -1.26587
3452 1 -12.3906 0.341182 -12.1566 3.37874 1.00697 -0.0335057
3453 1 15.6307 9.39972 -20.1078 -0.320052 -0.838324 0.259072
3454 1 -24.4403 20.2733 13.5519 1.01117 3.21657 -1.0166
3455 1 -19.226 15.4524 19.048 0.164339 3.57484 2.51239
3456 1 10.2376 24.7144 -14.1648 0.269949 1.53315 2.48624
3457 1 -24.033 16.466 22.0957 -0.276051 0.203916 2.45528
3458 1 14.4313 7.66934 -23.2857 1.46741 0.00225018 -1.71165
3459 1 -2.39815 18.465 18.6206 1.70352 0.775594 1.13921
3460 1 -0.525847 21.6723 16.9338 -0.339364 2.06518 5.42836
3461 1 -13.1321 -23.9697 18.9888 -1.0406 -2.23096 -3.6415
3462 1 -12.5279 21.5828 -6.24805 2.39604 3.29443 -2.14234
3463 1 -24.5328 7.40707 24.1054 -5.92662 -0.0140993 4.26735
3464 1 -17.6135 -18.0631 12.2386 -2.79133 -0.630261 -2.35686
3465 1 2.00494 -3.82496 11.3278 2.97142 1.0008 -7.7289
3466 1 -11.4825 4.3487 -7.54248 -0.411382 -4.0311 -6.42687
3467 1 13.1588 13.7928 14.2156 -1.84286 1.38938 5.00728
3468 1 -6.69378 -6.37217 24.3493 1.99463 -2.71339 -0.407818
3469 1 -2.7413 -9.56213 0.247089 4.52806 4.47857 -2.9304
3470 1 -17.8772 -21.7075 -9.86625 -4.05988 -1.24273 -0.432212
3471 1 -17.3132 -17.283 -17.3005 0.929926 2.19923 -0.478119
3472 1 -13.5028 10.6258 -17.3211 -1.82142 3.95069 0.795144
3473 1 21.9613 22.342 -17.2838 -2.62962 -3.07359 3.942
3474 1 17.3405 -3.55643 13.8968 3.38292 0.0296251 0.924178
3475 1 -19.6131 -13.1253 18.0777 1.19063 -3.47498 -5.24264
3476 1 3.44884 13.7925 15.4056 2.18516 3.31343 -0.979125
3477 1 -21.6166 -0.469473 -15.1899 -4.35712 -3.98503 3.5977
3478 1 10.6217 -13.8912 3.28415 1.92887 -0.675904 0.209283
3479 1 15.458 -7.7698 11.6796 -0.197977 -1.97736 3.39306
3480 1 22.2447 25.6259 -4.48306 -0.413445 -2.68358 5.39894
3481 1 3.45652 -22.0013 23.0554 -3.30163 -1.48877 1.43203
3482 1 14.6959 18.4548 -0.408946 5.69839 -0.109965 -0.665952
3483 1 9.14041 20.8531 -0.314842 6.58364 4.54027 -3.10969
3484 1 3.24611 11.0966 7.3572 -0.310357 -2.6364 0.0760924
3485 1 2.7391 5.12075 -3.64261 2.45878 -1.57675 1.58634
3486 1 16.2446 25.1404 17.2709 -2.58779 1.48136 -0.818755
3487 1 9.11668 -10.9987 -10.5222 1.54698 0.661548 0.801227
3488 1 14.4826 16.557 -13.0864 -0.213236 -3.44014 -0.712993
3489 1 17.8379 1.39812 -8.49005 -0.0551045 -4.30189 -5.25565
3490 1 -19.2053 5.21643 4.24982 -2.05779 3.42865 -3.21862
3491 1 -8.38557 8.77161 -20.6892 2.15485 2.15034 -3.08074
3492 1 16.6558 -2.78125 5.47825 -2.28439 1.82095 9.55952
3493 1 5.8074 10.8781 16.9594 1.23089 -0.831883 2.61598
3494 1 -15.6734 3.28061 23.2237 -3.38118 -2.24593 1.86074
3495 1 23.2473 -3.51657 16.1042 -0.343275 4.40188 -1.80568
3496 1 -10.3773 8.2721 -16.5931 1.89121 1.82684 1.64422
3497 1 -16.7861 11.6101 18.3109 -1.5696 3.34107 3.53567
3498 1 -16.8411 13.1332 7.84311 5.06354 3.42302 5.0742
3499 1 -20.8344 20.4302 -23.0217 0.351721 -2.70355 2.76534
3500 1 20.6844 14.609 -7.331 1.51447 -1.11651 4.26774
3501 1 -15.945 17.5804 -7.04242 -1.37391 0.812111 0.426424
3502 1 -7.00136 21.7358 -3.37337 0.708237 -1.98968 2.66634
3503 1 19.2434 -22.5632 3.61148 1.37898 -1.68292 -0.41636
3504 1 18.4156 -0.923724 1.23687 1.77864 -3.60662 -2.74344
3505 1 1.22479 -13.8987 3.37322 1.17825 -1.05009 -4.06965
3506 1 -22.2749 19.9661 -4.65766 -0.907935 -2.58054 -1.85302
3507 1 8.93465 8.79141 -9.80197 -2.38478 0.306303 5.34187
3508 1 -3.30033 -13.2283 -19.9561 4.23226 -2.39375 -2.55494
3509 1 -19.5289 -19.1523 -21.4032 -3.3698 1.25327 3.00035
3510 1 -12.5996 4.95792 14.4849 -0.27402 2.47373 -1.54843
3511 1 17.6291 9.70454 -1.36242 1.29536 5.46514 1.89092
3512 1 -18.3963 3.49941 1.85296 -1.49937 2.21623 -0.0591018
3513 1 -20.0062 -20.5456 -19.179 -0.330815 2.28227 5.20331
3514 1 -3.30034 18.0956 -9.63307 5.07148 -1.98132 -1.47135
3515 1 14.936 -17.8374 8.6719 1.37952 0.649726 0.0106901
3516 1 -21.5699 4.34096 -18.5516 1.46839 -1.0281 -0.260307
3517 1 -7.37759 18.7442 17.9367 2.7533 3.15769 2.66985
3518 1 -0.308318 -0.236838 -0.399373 -5.48502 2.16284 1.02256
3519 1 -4.09417 5.55973 17.4129 4.43885 -1.26532 -1.73317
3520 1 -4.53774 -12.842 21.2321 1.98826 -2.02808 3.62033
3521 1 1.88738 13.0583 -14.9813 0.399844 2.44478 4.32529
3522 1 22.3603 16.0192 -22.884 -0.0639302 0.0284474 -1.18157
3523 1 -13.1385 -19.4401 7.91023 -5.45551 -0.569992 1.16638
3524 1 -0.788295 24.3976 -0.511967 2.53905 2.8195 2.77362
3525 1 -15.6814 15.0002 -20.5944 -1.51746 3.23698 3.36459
3526 1 10.8916 20.5029 -6.92876 0.422524 -2.43571 1.35122
3527 1 -0.924286 12.8868 6.87191 0.938788 -1.62322 -0.375915
3528 1 -22.8424 -23.1843 0.0577575 1.19757 -1.01076 -1.42946
3529 1 -20.7036 8.21022 19.2294 -0.336459 1.17856 2.96906
3530 1 -11.8306 11.8871 6.92315 1.52447 1.6934 8.45619
3531 1 4.87993 7.08743 22.9543 -4.43516 -2.47773 1.8849
3532 1 -6.60001 13.342 -7.9118 1.68396 5.15145 -1.07981
3533 1 15.3961 10.1419 3.36967 -2.51584 -0.131357 1.08138
3534 1 6.75588 -2.89072 20.7119 -0.270855 -1.70186 1.80956
3535 1 14.1623 -21.9557 -17.6158 1.2641 -0.976589 -1.63441
3536 1 -23.997 -18.6077 9.6964 3.26865 0.0481447 0.915811
3537 1 20.0466 23.3376 17.0988 -0.577912 -0.924517 1.2786
3538 1 3.92885 -6.48683 14.4064 -6.21231 -3.83943 -0.317962
3539 1 14.1602 25.3621 -12.0898 -0.193836 2.11894 1.7318
3540 1 -0.69391 12.1924 -3.38878 -1.48204 5.07499 -0.269523
3541 1 13.5749 0.119705 -22.523 2.59748 2.35744 -0.727651
3542 1 19.0906 -1.55327 5.65562 -2.55977 -1.76407 -2.73361
3543 1 -15.5456 13.5252 -6.64787 0.0487841 -0.373659 0.479338
3544 1 -7.3311 19.1635 -2.26983 3.71787 -1.01115 2.02365
3545 1 3.13899 21.2412 12.4905 1.18548 1.96821 -2.93034
3546 1 18.4023 13.1347 -10.1099 -2.55893 -6.99739 -2.59438
3547 1 10.1549 -16.5577 -9.97039 2.57819 -3.52714 -6.28914
3548 1 9.38746 -11.6278 -20.2158 -2.03257 1.12527 2.5283
3549 1 -9.46204 7.45826 7.47495 1.92498 -2.67002 -0.617723
3550 1 -13.4396 17.7728 8.8799 3.40055 -1.84533 0.500451
3551 1 13.2165 1.56833 -19.8756 -1.05193 -0.427359 0.0240501
3552 1 14.9839 19.4302 8.74375 -3.71689 -1.80064 -0.239707
3553 1 -9.12454 15.1665 -4.63212 -2.30392 -2.34314 2.15965
3554 1 13.8014 13.6572 -13.4068 4.72596 0.412729 -1.50241
3555 1 -20.5246 -19.2886 -0.338285 -2.163 -5.84313 -4.44154
3556 1 -8.65006 -14.2018 17.5252 -2.49084 1.72852 -2.50366
3557 1 10.322 6.63821 -19.2777 0.765107 -0.246993 -2.18305
3558 1 -18.0281 -15.3642 -1.60193 4.67164 5.29299 5.06154
3559 1 9.59739 -4.98853 10.2482 2.76719 1.93642 -1.84043
3560 1 -18.104 17.3779 -17.5268 -2.00008 5.52474 -2.42802
3561 1 -19.2769 19.9719 4.9318 1.10198 4.26804 -0.982054
3562 1 19.8761 12.0055 2.82654 -0.306116 -3.198 2.97256
3563 1 3.57165 -23.2389 -7.91768 -0.0166194 -3.54434 7.44694
3564 1 19.4724 12.4102 -14.3716 -1.7643 0.406469 2.49765
3565 1 17.912 -17.8655 -6.38287 -2.13549 2.71969 0.748144
3566 1 -11.0822 -14.1367 4.90195 4.14995 0.894514 1.12074
3567 1 1.55483 -8.40889 5.8376 -0.159976 2.96062 -1.35182
3568 1 19.6436 -2.08938 13.1819 -1.0808 -1.9998 -3.16474
3569 1 -3.04326 4.55012 -12.8968 5.1116 4.7253 -0.859779
3570 1 12.1056 23.1723 23.1385 2.24365 -0.705289 -0.34469
3571 1 3.01728 22.461 9.29348 -0.342313 -4.01645 -3.34273
3572 1 -14.8048 -15.7715 -17.828 -2.23877 1.35617 2.54752
3573 1 18.9567 -3.982 -1.17221 0.678891 -1.70979 -3.7648
3574 1 -17.1453 -2.36422 -10.8627 1.97188 1.78233 1.55266
3575 1 -11.5 -12.3998 -12.2042 0.993677 -5.33301 -1.14143
3576 1 15.4006 4.07972 15.9666 2.51084 -6.20722 4.52401
3577 1 -6.90007 9.34175 -5.53751 4.07943 -0.120687 -1.90277
3578 1 23.042 6.77614 20.2793 -0.40389 4.58833 -0.132103
3579 1 -18.1249 -10.155 -7.14937 -0.343737 2.60608 -2.93715
3580 1 -1.42357 -11.3457 8.44259 4.37075 1.5792 1.67299
3581 1 -11.0302 8.20784 5.24172 0.589462 0.656217 0.883439
3582 1 -15.0135 -22.9973 13.8537 -1.89176 2.78085 -0.637309
3583 1 -17.6739 17.1742 7.89256 -7.57179 -5.84093 1.17564
3584 1 12.7342 5.38845 22.5074 7.92048 1.20151 2.81302
3585 1 11.675 -2.92765 9.52707 1.09038 -2.65633 -1.64877
3586 1 15.3145 0.658915 -6.90495 -0.768568 2.02527 -1.08208
3587 1 22.3916 -16.4495 -16.9154 2.3266 -7.77655 0.546585
3588 1 -22.9261 -7.62382 -10.0342 1.90545 -2.21947 0.147963
3589 1 -12.6399 0.0793005 -7.63226 -1.99737 1.01704 0.124975
3590 1 12.5353 -0.910855 -2.22715 2.76285 -2.57849 -2.44908
3591 1 -7.64837 -9.86425 23.7129 -3.71599 -2.02779 -2.8926
3592 1 -7.65733 -17.8474 -5.13509 0.820478 -3.01857 0.0285461
3593 1 15.556 -11.2014 -12.0791 2.1165 5.89686 4.70239
3594 1 15.4841 -0.417819 4.35193 0.641639 -6.37561 5.26427
3595 1 -3.70757 -15.4991 9.11411 -4.85533 -1.568 -3.09888
3596 1 -7.68386 -9.07989 -7.67237 -1.88526 0.242883 -3.64183
3597 1 -4.97319 12.0319 4.89564 -0.128887 0.983771 1.47907
3598 1 -13.4851 -11.6849 -5.02769 0.114754 -1.6108 -1.93877
3599 1 14.8677 14.1658 -6.95054 5.46767 1.28992 -2.38765
3600 1 -21.5778 22.4614 -8.25409 -1.58126 0.526434 3.43205
3601 1 -21.8533 -11.2683 -5.33536 0.0841006 -5.81997 -1.12462
3602 1 2.60564 25.222 21.952 -1.4543 -3.2305 -2.76509
3603 1 -4.50857 -0.930618 12.3831 -0.294378 -2.40842 -0.312641
3604 1 10.8785 14.619 -23.7396 -2.38126 -2.1448 -1.10274
3605 1 14.9494 21.2156 13.9887 1.58863 2.1844 -1.74651
3606 1 2.29173 7.31342 -13.1476 -3.23494 0.353213 1.62798
3607 1 -20.5475 4.74515 17.458 1.40622 0.628522 0.687831
3608 1 19.3553 23.4851 -15.971 1.54875 -1.4421 -3.18166
3609 1 10.8907 -11.8265 7.12428 4.12618 -0.368175 -2.8473
3610 1 15.303 11.6279 -21.8247 -0.431449 -6.00965 -0.37994
3611 1 -18.3086 22.4481 -17.2077 -1.47395 -0.388895 0.654348
3612 1 -3.42326 16.4098 -6.32798 3.1082 -0.549362 -3.44523
3613 1 1.94769 25.7853 12.6321 1.44862 -1.42409 3.8392
3614 1 -0.256415 -3.96452 -3.89117 -3.09924 1.8838 -4.22563
3615 1 3.76964 19.0932 3.93681 4.97494 5.42563 -2.00573
3616 1 -10.843 -11.0059 21.3283 0.494403 0.802324 1.15006
3617 1 15.6118 0.889477 -18.8003 3.73927 -5.25395 -6.96922
3618 1 -0.219512 -9.55911 -6.33127 -0.575263 -0.867206 1.16005
3619 1 -1.2462 19.9515 9.55735 -1.01388 -1.41289 -2.33905
3620 1 -2.29921 13.9155 -10.1199 1.17145 1.23537 -1.23715
3621 1 -8.32307 13.9325 13.2923 -1.27197 7.93404 0.466745
3622 1 6.45881 -13.1191 7.99035 1.6284 -0.0812483 -2.59057
3623 1 11.7796 -0.843474 16.0217 -8.39704 -0.888977 2.44385
3624 1 22.5838 -9.01539 5.29995 5.13744 -4.39578 4.58094
3625 1 5.98793 -16.2841 21.3682 -5.3523 3.48865 -0.95749
3626 1 -15.6792 4.39171 -7.16681 -1.9034 -5.47629 2.38534
3627 1 -1.88132 18.6975 7.19861 2.86626 -3.24664 4.38922
3628 1 9.58349 -1.0797 8.45888 3.52994 -1.85244 -1.20409
3629 1 -1.8904 -3.03483 3.53004 -1.5588 3.44593 -2.19882
3630 1 5.5419 -11.7394 -0.948156 4.34375 7.17073 4.46162
3631 1 8.47034 9.39373 19.8891 -0.304637 4.26096 -0.78821
3632 1 -14.9126 -15.2284 12.9873 1.76087 -1.16251 -0.588969
3633 1 11.2572 7.24732 -5.52785 -3.06692 -0.757578 6.07749
3634 1 -2.07629 4.4493 9.66019 0.860958 -6.69463 4.12352
3635 1 -0.678044 -15.8801 -21.2144 0.333914 -0.675347 0.665701
3636 1 3.78581 -19.4356 -13.8918 1.37148 -1.03224 0.190255
3637 1 -3.7587 13.5714 -23.9945 -0.650627 0.541131 0.274486
3638 1 -24.0607 -7.5624 22.4042 -2.48445 -0.923252 -1.23922
3639 1 6.6018 -18.9487 3.82635 -2.46018 -3.33623 -0.654354
3640 1 19.5889 -16.3934 -10.9008 -2.36027 1.05827 -1.63316
3641 1 5.63172 12.3284 19.8618 -7.58893 -3.05468 2.13938
3642 1 -2.05306 -15.604 5.30998 -0.911415 0.312503 5.81903
3643 1 -0.221637 5.37725 7.71668 0.367431 -2.34254 -0.705652
3644 1 18.0054 19.8337 -0.826939 -0.5028 0.962866 4.71857
3645 1 -16.5524 -12.9561 -6.91115 -0.253858 -0.862942 0.710831
3646 1 19.1119 3.89267 -18.0393 2.38602 -1.73858 0.479615
3647 1 20.4567 -21.2076 5.95069 4.93445 -0.89729 -3.37641
3648 1 -22.6135 -21.0109 -1.53868 -1.69239 0.0254293 -4.82142
3649 1 -18.3143 -1.43256 -17.7476 1.12371 -3.57072 -1.49307
3650 1 5.01535 -7.49615 -14.6174 2.08933 -2.02006 -1.60193
3651 1 -10.659 8.39878 13.8444 -2.791 4.16395 -3.75907
3652 1 21.9349 -12.8972 14.293 1.55131 -0.621804 -1.36443
3653 1 0.188422 17.4456 -2.34794 3.78572 4.70798 -4.08637
3654 1 -20.0888 24.0908 13.4223 2.44469 -0.809338 4.36354
3655 1 -9.11508 22.1276 -14.4722 0.835121 1.74868 -3.41104
3656 1 -10.7576 -20.172 18.8315 0.497685 3.38144 4.45751
3657 1 23.1046 25.2276 -9.48861 -0.864042 0.424946 2.90589
3658 1 20.8447 14.9024 15.9173 -2.93291 1.33497 2.01638
3659 1 22.4431 8.3719 -18.2214 3.17006 -1.95746 -1.62401
3660 1 16.444 9.08366 9.85396 4.6634 7.76855 -0.353379
3661 1 20.8519 10.6333 -19.4981 4.95684 0.102318 6.44354
3662 1 -1.63146 0.936937 -22.219 -3.99098 0.496061 -3.24439
3663 1 -21.9656 -12.985 -12.1448 -0.677648 -3.76602 3.75311
3664 1 7.1855 18.7655 11.863 -1.95481 -2.00367 4.65418
3665 1 11.6214 -9.32536 -17.1999 -0.65375 3.01334 -1.11911
3666 1 6.11703 -15.8625 -23.9053 -1.4686 -2.7073 1.44273
3667 1 13.0299 14.8189 -16.1596 6.43559 3.00069 -1.7464
3668 1 -12.3221 -2.30393 22.1858 5.54249 -4.3583 -2.23773
3669 1 1.17077 21.3753 4.02068 5.51591 7.66033 0.924107
3670 1 15.0824 7.6272 -10.5325 6.21882 -1.17028 -1.58182
3671 1 -3.62131 11.4459 -13.2723 0.621141 3.17874 7.85357
3672 1 -12.2737 12.3591 10.9193 4.39052 0.0596856 4.042
3673 1 -2.86428 46.4735 21.1758 0.132311 0.603776 0.721104
3674 1 0.264852 -0.829852 -6.43752 6.37356 -3.98965 -1.53341
3675 1 -12.5486 19.7937 -8.48915 -2.3569 -0.410559 -2.56434
3676 1 16.4231 14.4173 -11.7666 1.24316 -1.03418 -3.35216
3677 1 -6.1045 14.3748 16.2021 0.525902 3.71801 -1.38105
3678 1 -18.3021 7.50322 13.1343 0.0900552 -2.42286 2.42243
3679 1 10.3577 -19.4709 -6.28884 -0.0480398 0.0912973 0.950772
3680 1 15.3169 4.92786 23.388 -1.93758 0.490524 1.83425
3681 1 -5.40929 0.779842 14.7294 -6.778 4.43098 1.29824
3682 1 23.2795 -23.0527 17.759 -1.41748 -1.79331 -0.182241
3683 1 5.63183 10.5099 5.75483 1.82158 -2.07832 -0.570684
3684 1 14.1576 16.2333 -21.8749 -0.646961 1.55055 -0.46852
3685 1 4.84098 -4.77543 0.881853 -6.0655 3.66321 3.18153
3686 1 -21.3587 10.4522 0.987283 2.21689 4.55346 2.42854
3687 1 7.82208 -16.1099 9.8553 -1.16969 -1.01361 0.627847
3688 1 -11.7479 -23.4659 -0.948539 2.65099 -1.69413 -0.496095
3689 1 20.7599 16.877 -14.7537 0.972003 1.55737 1.08359
3690 1 -7.70033 7.07616 -7.29585 2.79921 -3.9889 -0.248209
3691 1 21.6025 44.7622 -9.10197 3.18518 1.96982 1.65995
3692 1 5.14603 -1.14039 -19.3624 -2.072 -7.14717 0.836704
3693 1 3.58914 22.7429 -2.17142 5.6163 2.8056 -0.628668
3694 1 -21.4163 1.63345 -6.72006 -0.586948 -1.19267 5.09567
3695 1 -6.18777 -3.59923 2.08565 0.213691 -0.159485 -1.28014
3696 1 8.2496 0.294756 -16.6199 -1.23854 -0.0946224 2.10955
3697 1 9.32254 5.70802 6.65795 -1.74599 1.23062 2.56565
3698 1 -21.889 1.6725 14.8145 -1.66518 1.08883 1.60487
3699 1 -8.13689 -4.92671 16.6827 2.74657 1.96823 4.21999
3700 1 -5.25601 -20.7226 -14.9206 -5.36561 4.53628 0.558396
3701 1 14.3341 -4.30352 9.94831 -4.22649 3.54304 1.5878
3702 1 -7.72426 0.25513 -13.3086 1.6218 2.71809 -5.09484
3703 1 19.9673 14.2697 -22.8173 -5.83719 -1.16036 -1.1028
3704 1 17.0715 -3.90867 11.1129 1.63597 3.5618 -1.77361
3705 1 2.42633 -1.34702 4.3821 -7.46888 4.88896 2.5609
3706 1 -13.4913 4.54635 -16.6964 -4.52217 -2.59555 0.379689
3707 1 19.1514 8.04356 -14.4429 -4.01391 3.71886 -2.49201
3708 1 6.05754 2.13576 7.48293 4.12119 2.53464 3.65867
3709 1 -20.2636 17.229 9.05483 -0.904865 0.629055 1.71493
3710 1 -6.82016 -4.44772 19.3353 -1.41683 -4.65503 2.48522
3711 1 -12.44 12.1691 17.0385 -1.63849 0.375086 0.965752
3712 1 15.0734 24.7425 -5.11444 -0.555014 2.68117 -0.570018
3713 1 0.876728 18.8139 2.75401 2.87996 -1.93887 -2.76907
3714 1 -10.7373 0.0547767 21.7144 -4.39907 -5.16616 -2.79457
3715 1 18.1956 19.9855 17.4775 -0.458859 2.38673 2.16015
3716 1 5.57103 5.71836 -0.115231 -1.42697 -0.984404 -0.662197
3717 1 -5.23636 18.8635 -21.2105 -3.53933 -6.5597 -0.154051
3718 1 -14.9367 7.46826 3.1474 -0.087171 -2.6153 0.180865
3719 1 -0.195776 15.5635 -4.6819 -4.19669 1.9153 0.912243
3720 1 15.6471 16.8916 15.2406 -7.36426 0.543961 -4.51643
3721 1 -1.48524 16.1043 -8.46299 1.55392 -1.3048 -2.75942
3722 1 18.7978 -9.4461 9.39333 2.21509 4.30732 0.0763893
3723 1 5.90231 6.19768 -15.8475 0.952122 -5.81457 -0.32263
3724 1 -3.60433 0.134665 -2.66531 4.08286 -3.74438 3.08021
3725 1 -11.8464 22.1762 -2.83144 -2.63909 0.2078 -2.14064
3726 1 -7.45977 -13.4412 -14.4031 1.62951 -3.83757 5.10987
3727 1 4.96665 -8.18923 -21.6334 1.00767 -3.26287 -4.3887
3728 1 15.0112 -9.11372 -23.7952 -3.4501 -5.21814 -3.98192
3729 1 -23.2784 -8.33259 -12.9369 -3.24291 -0.396545 -0.175884
3730 1 13.0215 -4.39039 12.5205 -3.35094 -1.57456 -1.0934
3731 1 4.17288 -17.9631 -23.2946 0.691656 -9.4862 -0.31968
3732 1 20.8107 19.1039 4.83284 0.38519 1.40773 -2.02956
3733 1 6.58469 -15.2983 -2.36912 -0.639916 1.18329 -6.16199
3734 1 14.6497 13.949 -9.64684 1.10895 2.77073 -2.4309
3735 1 -8.0774 18.4876 2.02855 4.46716 -2.78457 -0.166962
3736 1 -23.3996 15.4679 -9.74714 1.49845 -1.33991 -2.79899
3737 1 0.729764 4.64343 2.36169 -4.26811 4.2503 4.67564
3738 1 -4.3209 -6.66154 16.4599 -4.28279 -4.38685 -0.6266
3739 1 2.35131 -5.37598 8.52235 6.27296 -2.47574 2.72027
3740 1 5.81311 1.07508 -20.8835 0.0663733 -0.434637 -4.58482
3741 1 -19.2018 12.4393 -5.03112 2.44847 2.04311 1.91883
3742 1 -1.92914 -19.5515 -16.5526 2.2207 1.27409 2.56737
3743 1 5.76693 -12.399 15.6011 0.962667 -1.09468 -0.511411
3744 1 -15.0924 17.4272 4.69741 1.78664 -1.52981 -1.78137
3745 1 4.265 -8.5959 10.7523 2.48234 2.12053 4.10983
3746 1 5.81486 -20.8543 -4.91748 0.30539 -1.31931 -2.66997
3747 1 -18.8562 23.721 -20.0117 1.1718 -4.44914 0.196525
3748 1 -15.6295 -2.31586 -18.01 -1.57256 3.08583 6.08984
3749 1 -19.3918 0.310099 13.9947 1.20165 -3.79997 1.58661
3750 1 13.0626 24.4488 -14.4239 2.68219 -0.122445 -4.86778
3751 1 -5.90737 -0.993125 1.1814 2.58223 2.12609 -2.55655
3752 1 -19.326 13.9492 -15.4321 -0.848002 1.12001 3.74149
3753 1 4.47813 -4.21615 -20.3813 2.51296 -0.101213 -2.10724
3754 1 -10.9462 7.9607 9.85409 2.17568 3.88843 -1.85101
3755 1 16.5992 6.65497 -7.88565 2.49457 -1.86672 -1.30436
3756 1 -11.4392 45.4529 -22.2019 3.04894 0.530956 2.26954
3757 1 1.68319 23.265 1.93605 -1.62306 -3.30477 4.71597
3758 1 22.1272 -7.32632 -12.8973 5.42628 1.13039 -1.37584
3759 1 -11.7234 7.08498 -18.7512 7.01258 -0.370726 -7.74959
3760 1 16.1265 20.4597 3.36674 -0.17913 -1.30592 -2.4164
3761 1 17.0566 -12.2014 -17.4965 1.12177 1.80227 2.77338
3762 1 8.75993 -13.2314 9.58509 -0.409293 -3.03378 0.0665417
3763 1 13.0342 9.64461 6.69802 4.30563 -2.09798 -1.73118
3764 1 16.9392 -12.895 19.9388 0.952201 -0.169869 -0.606208
3765 1 -23.0774 46.5435 -2.17615 0.294969 -2.38431 -2.69297
3766 1 -11.1593 19.2336 14.7008 2.15702 1.76782 -2.25338
3767 1 -11.974 -22.067 1.57301 -6.37692 6.46452 -0.317107
3768 1 -0.85991 7.44814 -15.9552 -0.13143 -0.00636331 -2.91543
3769 1 -20.1244 -17.997 8.7572 2.13577 3.24327 1.213
3770 1 -8.1935 -4.6614 8.69586 -0.381932 2.16068 2.35973
3771 1 -17.431 19.5194 19.5823 -0.145452 -1.90857 1.00336
3772 1 16.0782 -15.3835 -2.55303 4.29241 -0.631052 2.95871
3773 1 2.57962 -2.72179 13.7573 0.0696356 -0.113777 -1.06079
3774 1 -6.4129 14.5235 4.73195 -3.14914 -5.15963 -2.10849
3775 1 2.533 -1.72346 -11.3916 3.56225 -4.87627 2.33925
3776 1 8.32177 -4.61519 19.0714 -4.21021 -4.78607 -2.14887
3777 1 11.1952 -8.04266 -2.21215 -0.164376 -0.0866036 -1.21144
3778 1 5.0769 14.5547 -9.19216 3.04061 0.705676 2.43609
3779 1 -7.8712 0.21968 9.84018 -5.59396 5.94418 3.87156
3780 1 23.0477 16.0991 -16.1023 2.82179 3.68412 2.37184
3781 1 -1.8177 -3.12222 9.13914 -0.12784 -0.777102 -2.13228
3782 1 0.292657 -14.1671 -19.3627 5.43693 -2.02769 -2.69167
3783 1 21.4036 21.3883 3.40255 0.207948 -0.63211 0.14475
3784 1 16.8722 1.25785 2.33289 -2.2723 1.23382 -1.67319
3785 1 -1.96585 -24.0469 23.6178 -0.504462 -3.77975 2.82383
3786 1 21.1478 5.17878 18.5424 -0.137776 1.65425 3.53165
3787 1 8.79752 20.6064 -14.5404 -1.36675 2.55277 -2.67582
3788 1 5.59544 16.1209 12.4875 -3.27089 1.76243 4.42771
3789 1 19.171 26.808 -12.0573 0.0639324 1.71936 -0.771524
3790 1 4.05621 -17.7982 -2.12089 0.00514674 3.68138 -3.31813
3791 1 -10.5344 17.8922 -13.1308 3.0895 -1.25529 1.07241
3792 1 -12.4149 -7.8528 11.9623 -6.87497 -0.853324 1.96248
3793 1 -13.6682 21.0022 3.31314 1.11758 1.50202 -0.552047
3794 1 -2.63317 -21.0603 -10.2877 2.01499 0.382993 -4.64448
3795 1 13.1722 23.3226 20.4932 -1.4222 0.805829 2.37047
3796 1 -12.477 -8.95246 -8.00358 -4.06559 3.69681 0.988609
3797 1 -14.8946 -13.066 6.42988 0.255796 0.095352 -0.822464
3798 1 5.05567 3.17827 -1.08609 -1.92186 2.44884 -7.5036
3799 1 17.487 21.496 -7.61538 2.47124 -1.65713 -3.02659
3800 1 15.6523 1.27917 -1.80469 -1.53122 -2.29113 -1.82188
3801 1 2.23068 14.5087 -8.68691 1.5982 2.55138 2.09865
3802 1 7.26638 0.637692 -23.2114 0.857263 1.0548 -1.16222
3803 1 -19.6108 -6.1837 23.5794 0.924355 -3.5707 5.5947
3804 1 11.9101 17.5782 9.86306 -2.27135 -4.00568 -0.538376
3805 1 -5.1939 17.9783 -17.0847 -0.201059 0.388412 -2.19571
3806 1 -1.26498 3.22541 -3.6144 0.152376 4.5706 3.69785
3807 1 -9.2806 20.6669 -19.1444 0.958751 -2.23388 -2.93513
3808 1 6.91227 -11.9675 -21.4923 -3.3442 -2.67381 0.123129
3809 1 5.08051 -22.9353 -21.8408 1.25716 -1.69254 -3.49418
3810 1 -17.2906 -3.38482 12.8641 -0.984469 2.26885 -2.23164
3811 1 15.1682 -14.9127 -23.0151 -0.0838842 0.728287 -2.32221
3812 1 -4.30739 -17.5147 0.898336 2.76951 -1.85953 0.703824
3813 1 17.9157 3.08973 -1.66008 3.00034 2.86952 -2.63808
3814 1 4.08885 9.60764 11.2972 -0.953615 1.2561 -2.73207
3815 1 -1.69309 19.02 23.0432 0.754437 1.22764 0.470161
3816 1 -15.7144 -7.52637 2.05395 4.67671 -1.74701 0.633589
3817 1 10.1729 8.27787 -1.83517 -0.410123 2.07745 -0.130835
3818 1 12.0706 17.9198 -22.2376 -0.63843 4.42074 -0.243997
3819 1 3.88665 24.3787 14.5716 -0.109381 6.55652 -1.69762
3820 1 -24.1995 12.7522 -5.84527 0.879266 -3.38293 0.953324
3821 1 10.1721 -10.3769 14.3323 0.75239 4.33779 1.37086
3822 1 10.0886 6.86095 9.12916 -0.0329316 -1.24302 -0.623604
3823 1 -5.71759 -18.4786 -9.24614 1.07542 1.62865 2.64336
3824 1 -8.73547 -24.0453 -7.47044 2.97844 -2.08328 -1.27718
3825 1 19.7348 -13.6669 10.1533 -0.326212 2.62993 -2.81283
3826 1 -1.65697 16.5675 -14.8456 -3.18693 1.28757 -3.24785
3827 1 0.653946 7.57037 20.3567 1.99983 1.50563 -5.8984
3828 1 -17.5342 19.8621 -18.4589 4.3121 -0.00168804 -1.07888
3829 1 -13.1052 -20.0302 -6.88347 -2.73286 3.31236 1.06888
3830 1 18.2086 -11.7175 -10.2052 2.64825 -6.77214 -1.82781
3831 1 -3.06434 21.29 0.618081 4.54704 -2.90981 2.27506
3832 1 21.2749 -2.65753 3.88984 -1.60849 2.75342 -3.42843
3833 1 18.8571 1.05668 -11.3541 1.66548 -2.65403 0.346437
3834 1 7.51586 4.48304 3.52761 -4.25283 2.06898 0.0130807
3835 1 22.56 -23.8713 -3.09769 2.41634 -1.16792 1.13874
3836 1 21.5196 13.4707 1.04739 -3.67497 -0.130437 1.40912
3837 1 11.3361 13.1677 3.63441 4.54006 0.576773 -3.17882
3838 1 -6.21915 4.17063 -3.0829 -0.483795 -3.36827 -3.55681
3839 1 22.7374 5.24659 2.52612 0.0459561 0.691254 -5.34922
3840 1 -10.6005 -20.9988 13.6522 -0.795103 -1.18348 -5.33107
3841 1 21.6567 2.25621 11.6696 -6.13853 -3.51935 4.92561
3842 1 23.3704 3.02363 22.0081 -1.61711 -3.20627 1.68074
3843 1 -0.464704 -18.9334 13.7172 0.285925 1.43733 -3.23616
3844 1 -22.3978 -14.2185 5.26638 2.87567 -5.07816 -0.976008
3845 1 -3.9766 3.55365 -22.8317 3.4578 -2.49708 2.84148
3846 1 -21.4674 21.6381 19.3109 -1.88543 2.16528 -0.463444
3847 1 -15.783 -17.5092 -14.6414 -2.44967 0.0188417 2.34767
3848 1 5.88149 -15.9826 7.55333 4.43529 2.89252 2.75309
3849 1 17.2799 13.1692 -20.3353 -0.182137 -4.23278 -1.7319
3850 1 21.0801 -18.8382 21.7188 -1.11577 3.87947 0.00141236
3851 1 -0.779301 5.49285 -0.0856212 -4.38439 5.69713 -8.58337
3852 1 -5.7409 19.4705 15.7559 3.4314 -0.00391329 3.00226
3853 1 19.1744 -14.0923 3.63957 5.47946 5.80081 -5.11171
3854 1 17.7025 12.2289 -2.79183 1.64111 4.71726 -1.2056
3855 1 -1.98228 -7.21642 22.6186 -5.45377 -5.56693 -1.76918
3856 1 13.156 -19.4646 -5.8317 -2.18898 2.21895 1.37437
3857 1 -13.1813 -24.2334 -12.1588 -6.18132 -0.779296 1.72366
3858 1 16.5778 7.00667 6.21087 -2.96776 -1.86249 -7.64532
3859 1 21.4824 22.4703 9.6483 -6.40608 3.47811 -5.77401
3860 1 14.1872 -18.1985 -14.7863 0.622011 -2.61137 1.43832
3861 1 -16.1933 -12.5398 20.8301 1.23374 -0.44558 -1.50916
3862 1 -5.15749 0.468989 -17.961 0.949786 1.67364 -2.17484
3863 1 -12.9042 -2.61299 15.7058 -6.34641 2.9218 -5.34523
3864 1 -5.64771 -4.64256 -13.8584 -0.246422 -1.46058 1.29286
3865 1 -0.132783 45.8262 15.0195 1.87104 -7.18093 -0.705007
3866 1 9.9406 -16.903 6.77907 -5.02524 -0.574619 -4.43814
3867 1 -23.2923 -0.746724 2.88744 0.601451 0.734543 0.557518
3868 1 6.92217 5.73566 -2.59807 0.532983 1.70854 -1.38604
3869 1 -9.54558 4.77175 11.8155 -1.05422 -2.19402 -2.06045
3870 1 15.8446 -19.6694 -9.65644 3.20206 -1.59285 4.26301
3871 1 17.8466 -1.26174 20.833 -0.210128 -7.04567 0.557303
3872 1 22.4252 -24.2971 -8.977 0.0765446 2.14045 -0.849948
3873 1 -4.98806 7.09255 15.0345 0.49023 0.604455 3.69719
3874 1 -19.7492 -24.2665 -16.6712 5.28895 -6.10922 -4.78358
3875 1 -23.4178 -0.342851 6.88785 -2.77241 1.48803 0.013231
3876 1 -20.7585 -10.8495 19.8703 -0.95034 2.79074 5.29497
3877 1 -21.5776 3.22529 -4.17684 3.04851 0.5375 -2.54194
3878 1 7.5265 -16.5993 5.49329 -1.16314 -1.23402 1.54331
3879 1 18.4705 -12.9312 22.4411 5.07933 -4.79866 1.00544
3880 1 -8.02945 17.2845 -23.4698 5.74852 -3.23875 1.45875
3881 1 -14.8993 3.02127 -14.436 1.41383 -3.46062 -0.64921
3882 1 22.1531 17.1427 -1.40827 1.3021 -2.51248 -3.66266
3883 1 21.892 15.7045 -11.2037 2.96184 0.379261 -1.34086
3884 1 12.0718 -17.9179 -7.9912 0.996947 0.143012 0.23462
3885 1 12.2272 24.5756 15.5047 -1.82005 2.31838 5.82056
3886 1 -13.5462 -16.4292 -6.30515 -1.57405 6.67152 0.837125
3887 1 1.21519 -12.8245 -21.877 3.45745 -4.49424 0.482625
3888 1 -5.89134 5.54805 -18.2544 -3.365 -3.62405 6.62194
3889 1 -16.5624 17.0752 18.3648 3.63303 -4.92006 -3.57114
3890 1 0.924858 21.2933 14.3937 4.75631 0.798047 1.99387
3891 1 5.127 -14.307 17.6046 -2.61851 2.43567 -3.9039
3892 1 -12.9362 24.1912 7.65393 0.245548 5.13263 -1.55828
3893 1 -6.77133 11.7802 11.6817 4.42028 -1.18399 -2.43926
3894 1 10.7122 10.436 -14.58 -0.631449 -0.744401 -2.06644
3895 1 13.5665 -8.02644 1.73413 0.0867543 1.86143 3.16209
3896 1 -8.34648 -8.9656 -2.37789 -0.546651 5.14883 -0.714687
3897 1 5.29249 12.2318 22.7473 -5.44768 -6.14894 1.06091
3898 1 16.5858 -3.73484 16.6717 2.17629 1.39028 -0.195809
3899 1 5.9168 8.46486 18.7952 -5.71567 -2.37197 1.22095
3900 1 11.41 -17.8557 -14.4023 -2.1882 0.383757 -0.773586
3901 1 -17.3664 13.3122 -13.3872 -4.24041 2.19137 1.41755
3902 1 13.5974 12.0511 -5.76051 -3.68129 0.0582349 -1.31073
3903 1 -19.382 -15.9782 2.22354 -2.5981 -2.41709 2.73959
3904 1 11.6171 -8.88734 -7.32801 1.81225 0.497083 2.17977
3905 1 0.553569 -11.0773 6.41105 -4.65755 -2.8309 1.17063
3906 1 -18.3982 10.7313 -8.99162 0.875736 -1.2288 -3.15633
3907 1 -19.4623 -0.153588 8.9332 0.315567 -1.04185 -5.27237
3908 1 -24.2924 -16.677 14.3547 2.11647 1.65342 -4.41107
3909 1 0.0708518 -12.0526 18.8743 -3.73412 -4.51846 3.62938
3910 1 -5.54272 17.9575 -7.75859 5.32765 -2.26614 -0.360864
3911 1 20.138 18.186 0.690805 -0.738153 1.91142 3.43417
3912 1 -8.53424 -9.06091 0.761529 -4.10944 -0.418422 -0.767666
3913 1 -7.08577 5.72285 1.05084 -0.665121 1.80119 1.47884
3914 1 12.073 -11.2921 -5.41424 3.0581 -2.23686 -3.09249
3915 1 7.94637 -2.68631 6.98143 2.70436 5.58598 -1.25125
3916 1 -23.6262 -13.3673 21.8772 -0.611353 -1.68109 -0.976934
3917 1 0.197595 -4.96477 -8.37551 0.0509214 -2.00125 5.39326
3918 1 11.2593 11.0646 -19.251 4.705 0.924709 -3.52161
3919 1 7.88725 -13.8292 18.4543 -1.09162 -5.48989 -0.535712
3920 1 -11.0077 12.3135 19.4158 -0.922354 -4.47099 1.59666
3921 1 17.3578 8.48521 -16.7266 1.98475 1.73191 1.28184
3922 1 -15.6808 -12.9391 -17.9277 3.92365 -2.59643 -4.7203
3923 1 -22.3775 4.21793 -8.30028 -3.19738 0.120865 -4.33327
3924 1 -11.1524 -5.28027 12.6454 2.839 0.157892 2.89651
3925 1 -21.2453 6.61116 2.28839 -4.78591 -1.69291 -0.203371
3926 1 8.189 -5.13232 23.0851 4.13378 1.95388 -2.17259
3927 1 11.8408 17.1588 -0.337188 1.31152 0.797877 -1.48836
3928 1 -19.0314 18.618 23.5113 -3.21322 2.79225 1.6875
3929 1 -2.38467 9.81292 -7.40213 -1.27215 0.402259 -1.43627
3930 1 11.2429 19.4971 2.77008 8.23338 -0.34637 -3.74074
3931 1 -0.39758 9.54502 1.19491 -0.478063 7.72953 -2.7575
3932 1 20.6234 5.60343 13.6618 7.76402 -0.310821 -0.587388
3933 1 -4.09736 -10.0567 20.815 3.69671 0.00856988 -2.80227
3934 1 21.8051 5.1878 -13.1 -5.69957 0.881705 -1.08198
3935 1 12.3921 -13.8695 -18.8948 -1.23887 3.54225 -2.68417
3936 1 0.449272 -22.1898 20.3859 -5.40629 -3.01068 0.116456
3937 1 15.0117 -15.2642 -18.6744 -1.62657 -0.35339 -0.736548
3938 1 19.2671 13.4262 20.1433 -2.22655 -2.01317 0.917997
3939 1 -23.8065 -2.48691 13.5671 -3.13349 -0.34425 -2.22962
3940 1 -1.0012 23.5744 -6.90047 -3.50872 2.83541 1.50925
3941 1 -18.0236 1.59856 23.5296 2.61119 1.98445 -1.85009
3942 1 10.9046 -22.9501 16.7016 3.59921 1.95155 -0.525966
3943 1 -19.8301 -20.9109 1.84415 -5.34395 -3.74508 1.81893
3944 1 -13.8066 -7.16818 -12.5441 -0.680161 4.90272 3.67325
3945 1 -21.6507 -13.8498 -16.2194 -3.29773 1.63698 0.267625
3946 1 -3.88967 17.1957 8.35647 -0.619229 5.33067 0.901397
3947 1 -22.0677 11.1585 23.8101 -2.31919 -0.084492 -3.01408
3948 1 10.4528 15.1732 -17.349 2.41596 1.06285 1.43679
3949 1 3.32848 -13.7759 -12.2511 -1.03708 -1.89389 -7.58938
3950 1 -6.40579 -1.72201 -19.7819 -1.33063 6.00875 2.18129
3951 1 5.46967 3.54246 -14.6833 -4.90825 -1.59571 2.80067
3952 1 -5.79787 -7.1998 -15.3911 1.73737 0.511625 2.57631
3953 1 18.5028 -17.8452 14.1119 -3.09898 6.41618 -1.45431
3954 1 6.6858 2.53167 -17.0216 2.93562 -2.47391 -3.18003
3955 1 -6.63028 19.7754 11.9135 -0.0158477 0.458626 2.50787
3956 1 -12.6155 12.9288 -4.06554 1.83712 1.66051 -0.035235
3957 1 18.9961 -22.3519 -18.6589 1.7621 -1.91961 -0.00642378
3958 1 -4.39491 7.96508 -5.15394 -3.33341 0.368339 3.16149
3959 1 -20.3177 -6.61815 -21.4841 -2.75851 3.47221 -7.19847
3960 1 22.6937 -11.9115 -11.0299 0.198372 1.7713 1.16174
3961 1 -0.50762 -20.2766 -5.27941 -0.3347 1.14631 -2.81873
3962 1 3.68801 -14.0168 4.65589 -1.94127 1.0818 -2.1527
3963 1 -15.6602 -17.9518 -2.89115 0.469178 2.45702 -0.526903
3964 1 8.99251 10.209 16.9488 3.74216 0.43687 -3.6327
3965 1 -3.43385 2.12214 3.31407 2.29884 -0.508698 3.394
3966 1 -20.629 20.9602 9.90108 2.18909 -2.88929 -1.15009
3967 1 0.0470251 -7.07853 -4.66832 2.09068 -0.399813 -3.87076
3968 1 -2.23005 5.9708 -2.75597 1.42469 -1.95848 3.0005
3969 1 15.9293 -23.4985 21.0665 3.26935 -2.63102 1.1848
3970 1 -7.63658 21.2936 21.6396 -0.605336 9.95932 4.13506
3971 1 -1.56323 -0.571916 21.9222 0.91111 -4.10029 -0.0758592
3972 1 -5.27712 -8.90889 -8.98643 -1.88796 2.37348 -1.56077
3973 1 -12.2143 -21.3618 -9.32189 1.28649 3.17547 -3.40167
3974 1 6.19863 26.0957 14.4701 -0.72521 -1.51714 5.9179
3975 1 3.86647 2.15456 -16.7933 2.90358 -3.24471 3.98286
3976 1 -2.76808 15.7327 3.72783 3.74908 2.9457 -0.659157
3977 1 -8.67025 -17.7243 -17.539 3.94575 4.81185 5.56866
3978 1 -1.84006 20.226 -10.7123 -2.49642 2.4568 3.4243
3979 1 -9.79422 -23.0318 3.13843 0.414353 -0.149709 3.10081
3980 1 -22.9229 -17.6767 -13.9464 3.43585 0.0425031 -1.94786
3981 1 12.4943 -9.26618 4.06247 -1.28003 -0.212503 -2.90361
3982 1 8.59012 -4.83269 -2.77048 0.514063 0.867587 -2.92897
3983 1 -22.5119 10.7907 7.65508 5.29709 -5.67846 3.33661
3984 1 -5.41065 14.3935 -20.0683 -2.95438 -0.794229 -3.22396
3985 1 -12.2971 21.3894 7.4021 3.11526 -0.873382 -2.74865
3986 1 16.4495 21.4285 -14.8966 -2.86755 -4.04801 -3.27384
3987 1 12.4279 17.2137 17.6117 3.5278 1.35605 2.1319
3988 1 22.4323 19.8374 20.0747 -1.38057 4.57817 0.791857
3989 1 -15.8409 -9.30904 -11.7722 5.3298 3.84622 0.611555
3990 1 11.0944 4.70643 -23.3699 -1.29005 5.50254 5.25362
3991 1 -17.8296 7.23657 23.393 -2.84936 5.42552 3.29645
3992 1 -23.5787 9.03997 -2.86925 2.64855 2.60609 -1.73029
3993 1 -7.64318 -10.1117 -4.85606 0.26807 1.55032 -1.86191
3994 1 -14.8973 -20.5807 -20.295 -0.558328 -1.70973 1.28424
3995 1 6.03656 -24.1472 3.82045 0.557569 -0.80594 2.88976
3996 1 4.85362 -14.4737 2.17551 1.09983 2.26102 -3.03719
3997 1 18.9249 46.4116 -11.5823 1.82987 -1.84594 -2.52109
3998 1 -13.1016 -4.32384 1.24075 -0.284716 -2.13537 -2.57799
3999 1 -6.9483 16.0715 10.9409 -2.39919 -0.736466 0.220672
4000 1 -19.5949 12.2177 21.1373 -3.21435 -0.61195 0.0103961
4001 1 -11.0099 25.8967 -4.11431 -2.64329 0.403275 1.02369
4002 1 -9.81224 27.9931 -5.53475 8.69409 0.857819 0.21595
4003 1 -7.475 27.9062 -4.27619 2.31983 -1.4358 3.8622
4004 1 -6.46781 25.4669 -5.19226 -1.79584 2.46872 3.475
4005 1 -10.7114 25.2995 -8.68637 -4.28418 0.82103 2.98989
4006 1 -12.3506 27.7147 -9.09866 -0.443095 -3.08723 -0.891807
4007 1 -8.47319 26.9822 -8.15953 1.08119 1.98644 1.27857
4008 1 -6.16357 25.2908 -8.04506 1.4701 1.37446 1.57347
4009 1 -11.3179 25.6441 3.42323 -0.362594 -1.21565 -3.7983
4010 1 -9.72185 27.682 2.58278 1.79023 -4.98211 5.51954
4011 1 -6.90829 27.5905 3.07003 -4.95538 4.00785 3.83441
4012 1 -5.59198 25.231 2.51032 0.904813 -0.0446224 -1.51422
4013 1 -11.0955 25.278 -1.45983 -0.0012474 -0.504764 -3.49348
4014 1 -9.75661 27.4836 -0.103639 1.85778 2.78948 5.86092
4015 1 -7.26632 27.44 -1.37606 -5.06855 2.36491 -4.3919
4016 1 -5.80804 25.0939 -0.469932 -2.76578 2.50324 1.11686
4017 1 -9.94978 25.0532 10.5158 3.00146 -4.29404 6.77116
4018 1 -8.98209 27.6345 10.4481 1.79455 -0.831956 -0.909298
4019 1 -6.28382 28.352 11.0207 -4.48185 -0.634699 -1.60712
4020 1 -5.2601 25.6933 11.0679 2.13708 -0.611384 0.289198
4021 1 -10.946 25.5057 6.37646 -0.406704 3.73705 -3.18015
4022 1 -9.2342 27.4653 7.52208 -3.23898 4.34422 -0.681341
4023 1 -6.78437 27.6344 6.05858 -0.864881 0.150677 -2.10817
4024 1 -5.22756 25.4657 6.53595 1.58123 0.364599 1.18224
4025 1 -11.5186 30.0019 -4.06571 -0.733833 -2.56943 0.598162
4026 1 -10.2565 32.2674 -5.01831 -1.84381 0.612234 -0.381822
4027 1 -7.61955 32.1685 -4.22404 0.0225308 -2.17167 1.50345
4028 1 -6.17111 30.0256 -5.27923 -4.58637 4.74939 1.62056
4029 1 -11.5539 29.4728 -7.09451 2.04678 -0.231487 1.65578
4030 1 -10.5272 32.0177 -7.90128 -2.79368 -5.44242 4.33255
4031 1 -7.99955 31.9674 -8.72916 1.14993 -4.83514 4.18257
4032 1 -6.89547 29.555 -8.03763 -3.19109 3.97567 3.79225
4033 1 -10.875 30.0699 3.8342 5.03374 3.6096 -3.3032
4034 1 -9.51771 32.4624 2.33494 1.69455 -7.19318 -4.71697
4035 1 -6.96429 32.2072 3.05464 -0.915274 -0.526857 2.21031
4036 1 -5.62717 29.8747 2.04912 0.808493 -1.07134 -1.31744
4037 1 -10.855 29.7278 -1.37567 5.60151 3.08578 -0.474288
4038 1 -9.68633 31.987 -0.461456 -1.28673 0.127956 0.675493
4039 1 -6.91887 32.2323 -1.47427 2.24215 0.173154 2.89487
4040 1 -5.66859 29.7915 -0.706228 3.45179 -3.58869 1.47407
4041 1 -9.58717 30.2148 11.2845 -1.51878 3.29786 0.982229
4042 1 -8.67762 32.4502 9.97437 -3.38067 -1.20633 -3.07287
4043 1 -5.96406 32.6044 10.3908 -1.39781 -0.446669 -0.980111
4044 1 -4.7643 30.2643 9.80139 -2.34136 -0.106073 -4.18798
4045 1 -10.6114 29.9227 6.63783 0.805142 0.364003 -1.41016
4046 1 -9.22666 32.2192 7.32428 2.7913 -1.84085 1.28989
4047 1 -6.91945 32.295 5.78191 -2.48089 -0.355123 -1.29003
4048 1 -5.42235 29.9739 6.88628 0.355192 1.90882 -4.03822
4049 1 -11.7677 34.5981 -3.9165 -1.6755 7.16928 -1.3245
4050 1 -10.4251 36.9294 -4.72422 -0.677092 0.0139476 -0.173234
4051 1 -7.755 36.6563 -4.75943 -3.13766 -1.87993 -2.74607
4052 1 -6.40774 34.274 -5.49395 3.17791 0.908371 0.651576
4053 1 -12.1681 34.5058 -6.86433 -4.82426 -2.424 -4.21238
4054 1 -10.8284 37.1389 -7.58343 -0.53588 3.18173 -0.681163
4055 1 -8.11883 36.7667 -8.90445 -1.41286 -2.29365 3.23898
4056 1 -6.83887 34.4174 -8.23332 3.49148 1.36455 3.85119
4057 1 -10.3265 34.8277 3.19377 -1.49551 -1.0234 -2.64717
4058 1 -9.31086 37.1165 2.27796 2.04854 2.24124 2.28075
4059 1 -6.59042 36.8136 2.98558 1.75494 0.910046 -1.59382
4060 1 -5.89743 34.4607 1.81215 -6.65223 8.39619 1.0719
4061 1 -10.6262 34.5483 -1.43068 -0.611144 1.01892 -1.12724
4062 1 -9.69887 37.0824 -0.687793 5.07109 -0.715196 -0.848658
4063 1 -7.0532 37.0745 -1.7519 1.19487 3.07034 0.107335
4064 1 -5.72248 34.836 -0.980316 0.0812604 -3.46666 2.42206
4065 1 -10.0374 34.7611 10.8643 -2.89214 0.0847055 5.52079
4066 1 -8.95902 37.0381 9.80678 1.31464 1.30963 -4.52287
4067 1 -6.18587 37.5182 10.0362 2.03292 -2.91796 -2.91337
4068 1 -4.94211 34.9076 9.23487 -3.74644 0.135488 5.43448
4069 1 -9.95515 34.5853 6.12627 1.40388 0.434644 2.45957
4070 1 -9.08978 37.0725 6.89 -1.0344 1.32076 0.529947
4071 1 -6.54569 36.9683 5.75233 4.14965 7.63469 -1.28328
4072 1 -5.49774 34.5842 6.54969 -6.22785 -1.65165 4.74204
4073 1 -11.3625 39.4185 -4.07387 -0.129521 -2.92384 0.482854
4074 1 -10.056 41.6174 -5.31107 -0.373141 1.28605 -3.0177
4075 1 -7.43074 41.4531 -4.61654 0.1505 -2.71136 -0.908312
4076 1 -6.52116 39.0041 -5.6536 0.79515 -2.7757 2.20891
4077 1 -11.8323 39.4057 -8.37058 -1.44273 -1.74813 1.01203
4078 1 -10.5327 41.8324 -8.05642 -1.51149 1.19303 3.65008
4079 1 -8.06374 41.3439 -9.28907 -3.96219 -1.73355 0.852685
4080 1 -6.76447 38.9973 -8.51203 4.33712 -2.61849 -1.5269
4081 1 -10.6132 39.3085 3.31791 3.30303 2.62915 6.61901
4082 1 -9.30896 41.5198 2.50624 1.21292 0.824712 2.30536
4083 1 -6.62524 41.3958 3.13844 -5.03324 -5.33471 -0.439209
4084 1 -5.47541 39.2396 1.97616 -4.90724 1.58345 -0.932476
4085 1 -10.8878 39.491 -1.41539 3.68444 6.43965 -3.4334
4086 1 -9.3701 41.5959 -0.306367 -1.84903 -4.61727 0.215245
4087 1 -7.02028 41.7389 -1.94409 -3.24997 1.64829 -1.39578
4088 1 -5.84746 39.2929 -0.775634 0.57732 -8.4115 2.46392
4089 1 -10.0719 39.4541 10.8161 -0.986344 -1.42281 1.00309
4090 1 -8.77911 41.8293 10.1238 -2.19176 1.69777 -3.92363
4091 1 -6.03418 41.8248 10.0565 -3.04386 0.899577 -0.966769
4092 1 -4.67716 39.5116 9.24824 4.85135 -2.33233 -2.47311
4093 1 -10.0995 39.3567 5.95651 1.21603 2.15084 -1.56746
4094 1 -8.95118 41.5868 7.31597 3.36521 -5.07782 4.03253
4095 1 -6.51479 41.5552 5.95101 -2.66698 -0.883931 1.23795
4096 1 -5.01505 39.2509 6.53144 -1.23286 -2.3884 -1.92441
4097 1 -9.86676 44.1751 -4.06181 2.0013 1.88037 -1.71779
4098 1 -10.5989 45.5871 -6.44608 -0.137947 0.831614 1.71614
4099 1 -7.78072 45.9169 -5.27753 0.682937 3.49734 3.35781
4100 1 -5.92284 43.6571 -5.60488 1.36935 -3.51993 0.102213
4101 1 -11.1601 44.4761 -8.81968 -3.16564 2.03216 -2.25608
4102 1 -8.54419 45.3575 -9.32354 -1.01798 -1.71424 -6.91238
4103 1 -8.6631 47.1018 -11.433 -0.237996 2.51965 3.09118
4104 1 -6.57413 43.5325 -8.3613 -2.3556 -0.0163717 -0.744362
4105 1 -10.8417 43.8358 3.5771 4.60955 -1.46468 -6.56718
4106 1 -9.51267 45.9857 2.39633 -0.616965 3.68698 0.743553
4107 1 -6.89315 45.4217 2.98306 -0.741202 2.15749 -1.36599
4108 1 -5.25551 43.5862 1.70072 -0.128583 0.711516 2.2284
4109 1 -10.0639 43.906 -1.37559 3.28326 -3.87461 -4.79663
4110 1 -9.45544 46.3792 -0.352902 5.10643 -0.063187 -0.681357
4111 1 -6.53665 46.8988 -1.08508 -1.10263 -1.86543 0.697875
4112 1 -5.56629 44.037 -1.13996 0.191081 -1.98043 2.83453
4113 1 -8.73323 44.1299 11.6734 3.93188 -0.0357769 -2.51564
4114 1 -7.30842 45.5134 9.92297 2.38924 -3.71765 -1.95553
4115 1 -3.89834 46.9152 9.87104 -0.814128 -0.532977 -2.97399
4116 1 -4.8055 44.1628 9.30008 -2.98224 -0.460436 -2.92681
4117 1 -9.81319 43.904 6.11491 -0.240813 0.781978 6.53855
4118 1 -8.47726 45.9852 7.28108 -0.440918 2.84881 8.35084
4119 1 -6.16602 46.0348 5.6865 0.100379 1.35325 -3.25115
4120 1 -4.83443 43.6399 6.57412 -0.774613 5.15622 3.15699
4121 1 -3.66647 24.9403 -4.94168 3.42584 -2.29997 -1.73483
4122 1 -2.34058 27.4342 -5.40505 -0.637904 -2.29411 -8.4728
4123 1 0.271087 27.6073 -4.82564 -1.21761 -1.66977 -2.89018
4124 1 0.82542 25.7197 -6.70393 -0.603796 0.397191 1.1106
4125 1 -3.33403 24.6316 -7.66197 -2.69441 -5.99692 -0.866394
4126 1 -2.61694 27.2652 -8.28861 -1.59597 -3.98852 -2.94091
4127 1 0.0411116 26.8825 -9.10623 -0.935594 4.56366 -2.57165
4128 1 0.420142 24.5811 -10.936 0.717527 2.52239 0.396753
4129 1 -2.77277 25.5417 2.9719 -3.46628 1.99345 2.43026
4130 1 -1.60104 27.8484 1.88621 -4.44978 0.179927 1.77215
4131 1 0.926145 28.1751 2.60786 1.31762 -2.07654 -1.00378
4132 1 2.38288 25.8568 1.82038 2.46192 -3.24753 1.23461
4133 1 -2.93497 25.4658 -2.01112 3.84494 1.87885 -1.00014
4134 1 -1.8705 27.7359 -0.820483 -0.411171 0.201301 2.13643
4135 1 0.682843 28.0682 -1.94722 -1.17231 -2.70055 1.79526
4136 1 1.72631 25.7791 -0.937965 -0.999596 0.965413 3.60652
4137 1 -1.93215 24.0932 8.35768 -1.89479 5.02336 -0.615662
4138 1 -0.976742 27.5535 9.32701 3.83119 -1.84525 -0.0590661
4139 1 1.82287 27.2628 10.1422 0.482102 -0.531236 -0.34739
4140 1 4.08991 25.4403 9.03418 1.70953 -2.57307 -1.9161
4141 1 -2.60155 25.2014 5.75794 2.67192 2.26005 2.90661
4142 1 -1.2142 27.6244 6.431 0.737641 0.598806 2.29104
4143 1 1.58352 27.5029 5.2163 -1.2271 2.72804 3.78703
4144 1 2.62046 25.1679 6.29481 -0.608323 7.31421 -2.83802
4145 1 -3.29497 29.9496 -4.85195 -2.50811 -0.193999 -1.903
4146 1 -2.28392 32.1426 -6.07268 -4.5638 -2.18993 6.11095
4147 1 0.322268 32.1614 -5.22171 0.443249 1.04995 2.45445
4148 1 1.49367 29.8137 -6.19002 0.845931 -1.93386 2.25258
4149 1 -4.29296 29.5637 -8.94717 3.54241 -3.31243 -9.30155
4150 1 -2.99579 31.9215 -8.66156 3.02471 0.982692 3.49666
4151 1 -0.185615 31.6512 -9.52823 -0.743022 0.477703 4.87808
4152 1 1.26671 29.3309 -8.9077 1.15068 -0.280363 -3.8696
4153 1 -3.13296 29.8446 3.06801 -4.17632 -1.66336 1.77561
4154 1 -1.75469 32.1964 2.00511 -1.49877 -1.69108 1.63457
4155 1 0.863032 32.3166 2.76618 -2.35513 -0.610727 1.33379
4156 1 2.28207 30.4576 1.36326 0.220814 -3.19878 1.19636
4157 1 -3.14081 30.0939 -1.9168 0.729436 -5.24839 1.11303
4158 1 -1.90381 32.4254 -0.826316 -1.47067 3.01246 -0.709068
4159 1 0.475889 32.5943 -2.30999 -0.164105 -0.687288 0.833477
4160 1 1.86388 30.4163 -1.39674 0.280912 -0.270019 -2.79293
4161 1 -2.09315 30.1189 10.1047 1.08323 3.13554 2.83801
4162 1 -1.17949 32.5158 9.4674 -3.94354 -2.50108 0.123269
4163 1 1.61266 32.1635 10.2286 1.51677 -3.31392 -0.345612
4164 1 2.89194 29.6987 9.31848 5.19177 -0.0807773 2.45308
4165 1 -2.8047 29.9058 5.7889 -1.33542 3.40339 1.41623
4166 1 -1.4068 32.2861 6.40534 -0.27257 0.235351 -4.23236
4167 1 1.24529 32.195 5.4761 -2.01501 1.155 -2.17541
4168 1 2.42285 29.9425 6.50975 1.87881 -3.22381 -5.04732
4169 1 -3.667 34.2842 -4.8378 1.35441 2.47466 -0.651761
4170 1 -2.84856 36.8263 -5.94272 0.679618 -0.372611 1.19325
4171 1 0.0727383 36.658 -5.22532 -5.72879 -3.52567 -1.94416
4172 1 1.56794 34.4329 -6.20127 1.89759 0.0814455 1.87423
4173 1 -4.15245 34.3557 -9.04683 -2.47325 1.02646 -1.89634
4174 1 -2.86271 36.5231 -8.75663 -1.01849 -2.10139 -3.41454
4175 1 -0.459088 36.5273 -10.0273 -2.38785 -1.49464 -0.447141
4176 1 1.22702 34.3496 -9.36179 -3.20678 -1.18446 -2.47803
4177 1 -3.06693 34.5081 2.81053 -1.54179 1.25915 1.49978
4178 1 -1.89511 36.8177 1.34154 -4.62019 0.654762 -0.902788
4179 1 0.625188 36.4345 2.04916 1.42563 2.12777 0.379472
4180 1 2.25351 34.2536 1.07349 -2.7269 2.48373 -0.304769
4181 1 -3.24287 34.6697 -2.25082 -4.67501 1.80212 5.88059
4182 1 -1.94522 36.9751 -1.31092 1.40134 0.531707 -0.650028
4183 1 0.843714 37.0711 -2.38457 4.85278 1.57361 -2.17103
4184 1 2.08718 34.753 -1.65991 -1.05614 -0.954044 1.04903
4185 1 -2.18643 35.0573 10.035 3.42604 1.79294 0.601335
4186 1 -0.489763 36.9083 8.85642 1.75196 4.79463 0.0711588
4187 1 2.10866 36.6445 9.41566 -0.859199 2.53817 3.40235
4188 1 2.85 34.1738 8.74538 -1.91485 3.1834 -1.64925
4189 1 -2.9167 34.6169 5.62338 0.475067 -1.44391 2.35133
4190 1 -1.45203 36.8671 6.10562 -1.30771 -0.81267 -0.272148
4191 1 1.0342 36.8775 4.8768 -4.60302 5.49105 1.69475
4192 1 2.53002 34.7732 5.9207 1.94995 -1.34956 -0.0193663
4193 1 -3.88329 38.9644 -4.72877 0.708737 -0.704566 4.36592
4194 1 -2.52976 41.1706 -5.96874 0.415124 -0.921327 1.91735
4195 1 0.258736 40.9928 -5.24151 0.367953 -1.68425 0.472727
4196 1 1.54637 38.6578 -6.19972 0.411019 0.635701 2.06018
4197 1 -4.16559 38.7413 -9.53779 -3.25727 -0.396245 4.22393
4198 1 -2.8297 40.9933 -8.80343 1.67164 3.7016 -3.06228
4199 1 -0.282341 41.0473 -9.75591 2.0126 -0.757383 -1.13948
4200 1 1.16203 38.5136 -9.19966 -0.0837043 -0.369329 -2.44911
4201 1 -2.60309 39.3867 2.43997 -2.63404 -2.95825 2.72497
4202 1 -1.2734 41.6207 1.34164 2.39084 -0.02765 2.66391
4203 1 1.3868 41.2332 2.39308 -0.222172 -3.30735 2.19324
4204 1 2.10098 38.6748 1.27224 4.50874 -2.42948 -0.510698
4205 1 -3.18387 39.3177 -2.06912 3.09048 1.31956 -3.66902
4206 1 -1.61776 41.3316 -1.46191 3.17005 -2.60607 -1.95391
4207 1 1.05992 41.3872 -2.27513 3.71506 2.06365 -1.71791
4208 1 2.42206 39.1284 -1.51211 -1.83805 2.4131 0.341409
4209 1 -1.77346 39.2414 9.63461 -5.97355 3.03368 -0.587223
4210 1 -0.807655 41.9262 9.21998 -2.9229 2.21966 -4.63747
4211 1 1.72352 41.2434 9.52642 -2.20055 1.51322 -0.415936
4212 1 2.97434 39.0688 8.62825 3.49528 2.12551 1.71693
4213 1 -2.63084 39.3345 5.20607 -2.70955 4.72908 3.08521
4214 1 -1.0535 41.207 6.33263 0.790024 -0.183872 -1.10627
4215 1 1.57855 41.2915 5.0346 -4.40581 -0.632273 -3.53884
4216 1 2.65787 38.8817 5.90365 5.11993 -5.48111 1.1444
4217 1 -3.24245 43.6975 -4.91732 -0.410924 3.03745 -3.70399
4218 1 -1.72912 45.9881 -5.92353 -0.547933 -0.0929881 1.64661
4219 1 1.02174 45.4583 -5.26197 0.00822296 1.27734 0.932587
4220 1 1.85913 42.8848 -6.30042 -0.959891 -1.76614 3.2825
4221 1 -3.96675 43.4859 -9.06725 1.16975 -2.1961 -0.0510678
4222 1 -2.53978 45.6589 -8.80068 -3.17606 1.56359 -0.964647
4223 1 0.175051 45.6362 -9.50036 4.27576 1.01346 1.48049
4224 1 1.52188 43.1381 -9.09649 1.81904 2.26117 -1.88022
4225 1 -2.5724 43.7511 2.65937 0.807928 1.56451 -4.22028
4226 1 -1.29483 46.2106 1.80639 -2.91727 -1.10397 -3.00675
4227 1 1.35971 45.1158 2.6352 -3.49867 -2.1807 2.68982
4228 1 2.99122 43.0659 1.18306 2.26012 2.68585 2.41226
4229 1 -2.84123 43.8472 -2.07677 -2.49619 2.12799 -2.42918
4230 1 -1.13206 45.7618 -1.04605 -0.485021 2.55995 -2.48949
4231 1 1.31807 45.4802 -2.24595 5.3369 0.517446 -2.2078
4232 1 2.74583 43.3827 -1.55182 -2.53796 -0.849598 -5.50949
4233 1 -1.92059 44.7822 9.07605 -6.01714 0.169988 3.18443
4234 1 0.644345 46.1008 10.0103 -0.0631107 -5.26717 1.11808
4235 1 3.05417 46.1685 8.53193 1.59014 -5.52782 -6.45907
4236 1 3.34228 43.2226 8.94796 -1.47404 3.55488 6.93856
4237 1 -2.33754 43.483 5.44666 1.29627 3.07233 -3.10439
4238 1 -1.13352 45.7869 6.43841 3.9196 4.94213 -0.662304
4239 1 1.51314 45.2398 5.35095 1.83739 -1.15292 -1.35903
4240 1 3.12829 43.2441 6.11728 5.06774 -4.69416 8.34636
4241 1 3.46546 25.4408 -5.40013 1.20534 4.24359 0.420092
4242 1 5.16433 27.3241 -6.44573 -2.37407 -2.0498 3.29352
4243 1 7.80575 27.1342 -5.59129 1.87868 1.10214 1.48577
4244 1 8.50964 24.8346 -6.97207 5.71194 0.513251 1.82975
4245 1 3.31354 25.0908 -11.3693 -3.32992 1.49619 4.4329
4246 1 4.48361 26.5751 -9.30505 3.54726 4.75566 -0.337266
4247 1 7.02191 27.2152 -10.9988 1.53483 -0.99296 -4.83967
4248 1 8.57268 25.212 -9.76058 -0.758024 1.85673 1.35428
4249 1 5.07917 25.2766 2.07057 0.905727 -1.76812 1.24494
4250 1 6.07635 27.6345 1.24773 0.41299 1.25762 1.57204
4251 1 8.93664 27.85 1.91189 1.23574 2.50787 3.79295
4252 1 9.88111 25.787 0.592838 0.241583 3.66271 -2.35566
4253 1 3.87964 25.5966 -2.63426 -2.97448 1.49188 -1.61101
4254 1 5.58574 27.6392 -1.55135 -0.188969 -0.895803 0.93545
4255 1 7.87426 27.195 -2.91738 -2.20468 0.176265 -3.13041
4256 1 9.29796 25.0727 -2.03279 1.19057 -1.69167 0.482303
4257 1 5.52762 23.3181 7.55433 2.79734 -4.17788 -4.92977
4258 1 6.39253 27.0575 8.45883 -3.42126 0.0186084 -0.575738
4259 1 8.79875 26.9529 9.73954 2.23343 0.398733 -0.695054
4260 1 12.6421 27.4866 8.00986 -2.39019 4.25347 -1.11605
4261 1 5.24604 24.6258 4.82747 -1.26988 -2.04389 1.54118
4262 1 6.45244 27.3318 5.73719 -1.99778 1.86092 -3.82841
4263 1 9.2403 26.5458 4.22385 2.21742 -0.578007 -1.58008
4264 1 11.6919 25.8626 5.67884 -0.89509 -1.45285 4.17078
4265 1 4.0424 29.4913 -5.12533 0.537169 3.00135 0.686093
4266 1 5.35391 31.5549 -6.60726 -1.1575 -6.90589 -1.32406
4267 1 8.12769 31.2911 -5.86293 2.92939 -1.65641 4.17081
4268 1 9.21652 29.0267 -7.11115 -4.85193 3.85115 2.52218
4269 1 3.85626 29.3255 -10.0022 0.368218 4.01968 -1.68485
4270 1 5.26698 31.4907 -9.47786 3.44618 -4.09112 -7.74048
4271 1 7.6965 31.3523 -10.5952 3.99608 -2.44675 1.60858
4272 1 8.87796 28.9436 -9.78608 4.98581 -5.012 3.91243
4273 1 4.94527 29.8722 2.18969 -2.3698 2.65941 -1.50425
4274 1 6.10021 31.8666 0.863127 0.819037 0.887838 1.92719
4275 1 8.67157 32.0314 1.95532 0.628589 -2.40116 -1.41739
4276 1 9.75754 29.9637 0.554898 1.6733 -3.76572 0.796657
4277 1 4.36281 29.9949 -2.31282 -0.949443 3.7472 -0.666327
4278 1 6.1019 32.1647 -1.92326 1.79946 0.437106 -0.852188
4279 1 8.63337 31.955 -3.27846 2.19631 1.04471 -2.15064
4280 1 9.42678 29.5859 -2.16039 -0.656785 -3.4073 -3.25512
4281 1 5.55167 29.4805 9.59011 1.737 1.22817 4.13965
4282 1 6.65131 31.8162 8.71236 0.146032 0.0577536 -3.56547
4283 1 9.5651 31.6237 9.46489 1.68 -1.66029 -0.500951
4284 1 10.31 28.9811 8.45337 2.46035 -1.41574 0.922738
4285 1 5.02859 29.7808 5.11448 -0.120271 1.61078 5.18781
4286 1 6.67804 31.9458 6.06461 1.42247 0.463532 -0.924606
4287 1 8.92747 31.4151 4.7167 -1.8241 -0.664354 0.552725
4288 1 9.24058 28.8161 5.79351 -0.551429 -1.91878 -0.999736
4289 1 4.40331 33.97 -5.73505 5.14436 -3.62936 -1.94297
4290 1 5.59738 36.4174 -6.70724 -0.677126 1.39378 -1.22772
4291 1 8.33467 36.2741 -5.80353 -1.73369 -2.64999 -3.25507
4292 1 8.7343 33.7838 -6.92565 1.4725 1.14835 -2.73447
4293 1 3.9521 33.8072 -10.1505 0.104762 -5.72004 -3.12721
4294 1 5.44011 35.9374 -9.50615 3.09744 0.981874 1.74929
4295 1 7.89456 36.1313 -10.9265 4.14151 1.23941 -0.20111
4296 1 8.53162 33.7302 -9.77698 -5.0011 2.35729 0.964147
4297 1 4.92546 34.1297 2.12025 -1.59974 5.22396 0.0661047
4298 1 6.36988 36.33 0.822829 4.16066 -1.69196 -2.39442
4299 1 9.15609 36.4815 1.77572 -4.7387 2.13235 -0.28923
4300 1 10.0037 34.0978 0.63832 -4.1555 -1.38257 -0.03289
4301 1 4.49329 34.136 -2.96872 -7.56241 -0.59866 -1.40369
4302 1 5.85107 36.2654 -1.90532 4.4553 3.70308 -1.90837
4303 1 8.33124 36.4866 -3.08869 0.0399906 5.02643 -0.428188
4304 1 9.72382 34.2891 -2.17319 4.06494 -2.80441 -0.374081
4305 1 5.61139 34.0008 9.5107 3.13498 2.55453 1.42774
4306 1 6.66811 36.1336 8.13817 3.98179 0.349959 0.163338
4307 1 9.47773 36.1574 8.81165 1.77971 -0.278058 -2.02762
4308 1 10.6853 33.8895 8.04723 -2.47867 -3.47627 1.81952
4309 1 5.02566 33.858 5.00716 2.21073 1.34627 -1.47507
4310 1 6.45715 36.0715 5.26753 -3.21347 -2.32136 -0.165137
4311 1 9.11143 35.9319 4.50141 0.415498 0.784885 -2.76623
4312 1 10.1127 33.6185 5.39945 -4.77591 -0.175002 -2.8169
4313 1 4.34181 38.6845 -5.95788 0.551937 1.45696 -2.23986
4314 1 5.68615 40.8469 -7.37831 -1.65318 -0.39264 0.524636
4315 1 8.19146 40.9962 -6.31902 2.98327 -1.0152 1.79634
4316 1 9.0089 38.4695 -7.42683 1.25999 -1.85903 3.1016
4317 1 3.97068 38.2875 -9.8407 -1.20134 -3.42644 -3.11515
4318 1 5.06416 40.683 -10.1012 6.29066 1.72256 0.264112
4319 1 7.51971 40.6336 -11.3179 6.41376 1.91062 -3.21395
4320 1 8.80079 38.4889 -10.145 -1.02323 -0.280463 1.87935
4321 1 4.83885 38.526 1.85099 0.420847 1.22013 -2.32079
4322 1 6.35873 40.7588 0.698462 -4.69469 1.31216 -0.464947
4323 1 8.90493 41.0215 1.54335 2.44168 1.0777 0.485845
4324 1 10.2708 38.8576 0.34852 -2.49871 8.73322 4.99603
4325 1 4.60273 38.6883 -3.05733 4.99489 5.86269 0.260408
4326 1 6.3426 40.7285 -2.10859 -1.3021 3.31242 5.03238
4327 1 8.90969 40.8542 -3.52349 2.20038 0.326068 1.37071
4328 1 9.97044 38.5067 -2.28574 0.0542606 -0.589364 0.92155
4329 1 5.61606 38.4395 9.22454 1.05566 0.264995 -3.79873
4330 1 7.19772 40.5972 8.24311 0.209022 -4.67222 5.02627
4331 1 10.1646 40.5804 8.90088 3.87948 1.30095 0.948971
4332 1 10.9502 38.1413 7.94725 0.574057 5.04754 4.39735
4333 1 5.37836 38.5622 4.62699 0.459524 -2.65301 -2.55545
4334 1 7.0103 40.7768 5.59739 1.39029 2.72246 -2.43725
4335 1 9.38609 40.8609 4.24211 3.04761 7.83669 0.887741
4336 1 10.6447 38.2928 5.12673 3.61983 1.04252 4.05207
4337 1 4.69361 43.0345 -6.0254 -1.1607 0.075185 2.74771
4338 1 5.77654 44.3126 -8.28016 -5.63422 -1.74282 6.7809
4339 1 9.95679 45.6675 -7.00742 -2.49573 0.413137 4.94377
4340 1 8.43945 43.3663 -7.90207 0.498729 1.99835 7.20538
4341 1 4.03197 43.4135 -10.226 6.1917 3.9846 3.96414
4342 1 4.64711 45.5705 -11.8554 -0.913894 -3.12516 -4.3792
4343 1 7.57127 45.3944 -12.2937 3.19156 2.06997 0.795331
4344 1 8.53885 43.2349 -10.8185 -2.32729 -5.75864 -3.2192
4345 1 5.4729 43.2162 2.10552 -2.44389 -0.216935 -2.3261
4346 1 5.85621 45.8958 1.63951 4.79642 1.42678 -0.315309
4347 1 8.56034 45.9819 1.11921 -0.337718 -6.17208 -1.78808
4348 1 9.58026 43.5032 0.357188 -5.64174 2.58122 -2.35057
4349 1 5.11087 42.987 -3.12087 -0.707359 -6.56029 1.75262
4350 1 6.35088 45.1878 -4.57884 -1.17882 -0.464435 0.937826
4351 1 9.15669 44.9673 -4.27979 0.176226 -1.90469 0.450101
4352 1 10.0279 43.2117 -2.52058 4.87455 0.631758 0.645043
4353 1 6.25342 42.8732 9.37619 -0.423589 5.89061 4.42833
4354 1 7.14228 45.2859 8.35737 1.07327 -2.08467 -2.44499
4355 1 10.0715 45.2291 8.2106 4.90513 -4.42213 0.721823
4356 1 11.5144 42.7641 7.93056 -4.16254 -1.25237 1.1204
4357 1 5.59956 43.042 4.81456 1.84785 -1.52017 2.71646
4358 1 6.9297 45.4042 5.45971 3.63302 0.706638 2.51476
4359 1 9.65826 45.0035 5.25939 -6.18382 1.14258 -2.43281
4360 1 11.1515 42.6123 4.9308 0.445946 0.684178 0.210077
