ITEM: TIMESTEP
2100
ITEM: NUMBER OF ATOMS
4360
ITEM: BOX BOUNDS pp pp pp
-2.4524961017106151e+01 2.3715796917120933e+01
-2.4676224192158486e+01 4.7192659792158480e+01
-2.4124478826062166e+01 2.4116277226076910e+01
ITEM: ATOMS id type x y z vx vy vz
1 1 22.3039 -23.1834 12.6599 1.40888 0.68486 -1.60702
2 1 -7.0336 15.5196 2.23682 -2.59576 1.28816 -0.817106
3 1 4.52932 -6.57996 -24.5644 -0.96469 -0.540673 1.63021
4 1 2.56001 -0.366708 -6.84524 2.37302 -0.0720502 -3.66729
5 1 -18.9189 -21.2523 21.882 -0.615908 4.42058 3.78162
6 1 1.89025 15.9383 17.3586 -0.490056 -3.31004 -1.59574
7 1 7.07735 20.5209 6.4488 -1.44847 -2.02288 -4.86574
8 1 23.405 -12.3901 -15.0908 2.3344 -3.66639 1.4275
9 1 -12.592 5.4565 4.4024 1.67108 -3.29506 -1.86951
10 1 -0.738613 -7.09303 13.5703 8.40919 4.94788 3.263
11 1 7.38712 -11.1191 16.4241 -3.55184 0.527564 0.312988
12 1 19.5154 -6.49994 -20.5714 1.29021 -1.32366 -1.45278
13 1 -21.0619 -14.6007 14.0327 -0.509183 -2.86868 4.02758
14 1 10.3249 1.89535 -5.67477 1.04019 3.54387 0.302285
15 1 -4.31512 -0.754818 -13.2201 -1.43938 -7.4949 -1.08015
16 1 -18.5092 -0.147566 5.78794 2.5389 2.03971 -3.35128
17 1 18.3111 -7.90198 16.455 1.09888 2.28627 -3.53938
18 1 22.1232 24.0289 2.54373 1.94782 1.4308 -2.15044
19 1 -15.5806 23.3808 19.3976 2.77646 3.25236 -1.25602
20 1 20.8626 3.8367 20.3923 -2.79812 -1.97738 0.377214
21 1 -21.719 0.300435 12.8681 -0.0234547 0.0808611 2.51971
22 1 -11.9892 -0.801167 -14.7203 -1.83634 0.222794 -4.51983
23 1 -9.55456 -24.3838 22.0715 4.6629 1.05446 2.79624
24 1 10.351 19.8624 -4.87272 -1.22622 1.64707 -3.18176
25 1 8.11838 24.3956 16.6329 4.74114 -1.50705 2.73772
26 1 -1.31178 16.275 9.27185 2.42637 -3.01425 -3.03974
27 1 -18.1045 9.31375 -1.61233 0.103559 1.78855 2.91937
28 1 -20.3882 9.45479 3.09024 -1.94634 -1.7861 2.44767
29 1 -9.62376 -10.6395 -8.994 3.65564 -3.43149 -4.40014
30 1 22.3086 -1.48019 -22.0203 -0.749497 -2.38499 2.48726
31 1 2.29782 -16.8181 -20.8214 0.234648 1.9889 0.564987
32 1 -9.91263 11.675 -20.1845 -0.336177 0.573529 -7.78253
33 1 2.10158 0.85773 -13.5088 2.75493 1.18078 -6.05997
34 1 -20.7 -22.673 15.3548 3.10677 -4.15879 -0.44688
35 1 18.673 3.80498 12.0952 -0.501877 2.56613 4.14923
36 1 -13.96 19.9264 -16.2113 2.69895 -3.11191 -3.25031
37 1 -9.64503 -6.08583 -1.64753 1.94074 0.43854 4.72782
38 1 19.3772 10.7843 7.66006 -2.65087 -0.313011 -0.137831
39 1 -0.212826 9.3227 -23.9398 -6.32266 -0.0752825 -2.71211
40 1 -2.01296 1.12521 -17.943 -0.201565 1.36446 -5.27068
41 1 5.1071 -5.84716 -10.2125 5.52974 -1.97212 1.19184
42 1 -17.5029 -17.3213 0.936707 2.84519 -5.84245 0.866425
43 1 -14.2261 -5.55821 3.24835 -2.44346 1.78652 1.40271
44 1 -1.56329 -17.841 -7.79512 4.5319 0.540815 0.281967
45 1 -11.0469 14.125 -2.85251 2.58466 3.04777 1.2597
46 1 -22.1472 -20.9934 18.496 5.08968 -0.913976 -0.0932635
47 1 -7.42992 5.39835 20.3973 1.66698 3.70954 4.86049
48 1 7.38504 6.02324 -8.2291 -0.619344 -5.05385 3.2645
49 1 22.417 13.1899 5.24861 -0.908399 1.65626 -1.83499
50 1 15.6986 -19.9209 13.0002 1.369 -4.22319 -1.65595
51 1 -8.02596 -1.39806 18.8644 3.21939 2.42472 2.08435
52 1 14.5549 2.10216 -15.4486 -1.864 -0.584312 -3.54833
53 1 -2.70788 20.3968 8.2812 -0.677096 3.64858 0.00989301
54 1 -17.7295 -8.10723 -9.34404 0.187865 -2.1221 0.880965
55 1 -5.78651 -3.83881 -16.4722 1.18258 -4.49628 2.46769
56 1 -12.9109 6.97721 1.88556 7.58084 3.8106 2.94922
57 1 -13.4632 -8.27095 -3.79529 -1.86578 5.12315 -0.866334
58 1 2.62932 -21.2472 -4.30906 -0.776689 2.78107 3.90774
59 1 -21.1062 11.3174 18.6738 -1.3892 5.97151 -1.74988
60 1 0.926267 17.2853 -20.9994 -4.01766 -0.763865 1.03422
61 1 -13.0469 0.845998 0.983034 -2.94595 -3.99285 1.96512
62 1 -2.07678 -10.084 16.7852 2.47707 -2.55108 -2.62053
63 1 -0.30131 11.6545 -17.0545 -1.66354 2.90907 -0.868144
64 1 -11.0722 -1.03783 1.26431 1.0953 -4.6724 4.01633
65 1 18.4038 -2.62769 9.11649 1.19341 -2.19425 -3.54155
66 1 -11.9129 -17.1367 -11.8102 7.00432 4.00913 3.25203
67 1 -14.2695 24.3697 -10.4108 1.15982 -0.16784 -2.1979
68 1 -2.19979 15.0398 -18.8515 -0.968372 -3.82877 0.928427
69 1 -8.46719 14.4607 9.28588 1.93514 -1.28246 1.67101
70 1 -16.8143 15.2564 -16.3836 0.516662 2.93867 2.94645
71 1 -10.4149 5.51288 0.952874 -1.63404 1.39707 3.48548
72 1 23.3095 15.8405 18.7128 0.398142 2.3247 -2.41483
73 1 -13.26 -19.9712 13.8129 -2.35846 3.55864 -0.33377
74 1 0.722754 12.1803 -14.3244 -1.05261 -0.244594 -5.12901
75 1 -19.5515 2.62234 -13.7099 -0.761106 1.33344 -2.59231
76 1 -23.4132 -4.36505 2.35278 -4.91696 -6.28734 2.98228
77 1 14.0537 -22.4692 -1.9622 -2.59094 -7.04475 -1.55001
78 1 -18.0566 12.6196 -8.19498 -2.85419 -2.0082 -0.245689
79 1 -23.1003 -0.966841 -15.7207 1.05225 -2.82739 -1.14314
80 1 -13.9344 14.5765 -13.1023 1.79928 3.73408 1.38104
81 1 -1.28296 -11.6747 -14.4798 1.94907 3.18869 -0.113114
82 1 6.08128 -24.0043 6.95585 1.51083 -3.11448 0.595757
83 1 -21.104 12.9664 -0.217473 -3.4753 1.26499 0.156236
84 1 20.0213 22.4923 21.8596 -0.284921 -2.48778 -3.25764
85 1 6.66659 14.0948 -2.92263 -2.51868 1.90529 -1.31496
86 1 11.8377 6.526 13.9547 1.04882 2.44049 6.84285
87 1 -2.33226 19.469 -4.98739 -3.05791 -1.63672 -1.45287
88 1 -10.7181 22.168 -19.1216 1.21341 1.20032 -0.825039
89 1 -11.0766 -3.85624 21.8595 -2.09249 1.59381 -1.92762
90 1 8.36352 -4.27143 7.00098 -0.00780741 -1.44292 -3.99183
91 1 16.8566 18.9331 -21.0793 -3.69844 2.49036 -1.91579
92 1 18.0436 -24.3846 0.55116 -2.99499 -1.88363 -0.954777
93 1 -19.9657 -22.8351 18.0191 -0.519574 3.46619 2.92859
94 1 23.0978 1.71843 -11.3694 0.201581 -2.82643 -2.65269
95 1 0.64462 -5.31017 -11.6525 -0.199058 -2.70778 -3.53901
96 1 23.6387 -15.0228 21.8133 3.52323 -6.89316 -1.78189
97 1 -7.56001 -15.0508 -22.7416 1.40059 -2.98725 2.15401
98 1 -3.56938 15.911 11.1182 -1.63 -0.866009 2.4086
99 1 16.0686 -21.8091 -5.33581 -3.79488 2.893 -1.89583
100 1 23.7018 -13.3259 -22.7052 -4.43087 1.06083 -5.02975
101 1 -0.61149 -22.1594 -9.35478 0.070968 3.788 6.61637
102 1 3.68884 3.71852 4.90567 0.115072 -2.20234 -4.08853
103 1 18.5183 23.2982 19.5728 -0.893943 3.23633 -0.20689
104 1 -14.7988 -23.1232 -9.88637 0.413188 0.74886 -1.06584
105 1 5.34817 17.3671 -19.7205 -0.580941 3.47309 5.62193
106 1 14.1012 2.53224 8.91674 -0.836507 -4.4054 -4.13675
107 1 21.7655 -2.01742 16.5174 -4.01645 -0.833394 1.05037
108 1 -11.4154 1.75805 24.0349 0.0986578 -1.07068 -3.76058
109 1 -12.7811 16.2984 -15.0459 4.41966 0.412587 0.487151
110 1 9.39079 -12.888 -7.98133 -1.56972 -3.24729 0.978922
111 1 22.4044 -4.78105 -11.4253 -2.74785 -1.50081 -2.10837
112 1 -17.1829 1.66112 -22.0334 1.94207 -3.71597 3.56579
113 1 -5.60029 -6.45279 19.3776 2.53809 -0.82821 1.07711
114 1 -22.3533 -18.1392 18.4294 -2.98763 -0.309992 1.04755
115 1 8.85291 10.6441 4.78417 -1.5269 -2.00648 -0.942233
116 1 2.72784 -15.1479 -17.4301 -5.01792 -2.65086 1.31355
117 1 18.9927 17.1357 -19.9212 4.27133 -1.59943 -2.16434
118 1 4.16019 -17.1946 -9.64843 6.66981 -3.60329 1.46181
119 1 14.6584 9.50149 -8.4508 -0.736773 1.5929 1.06991
120 1 3.94879 -1.97131 18.846 3.37596 -0.78314 1.84655
121 1 -6.44121 -19.7382 23.451 0.133491 1.35599 -2.66876
122 1 -9.86837 5.09778 22.3342 -0.360245 -3.46244 -0.346524
123 1 12.564 14.4141 5.76234 -3.7536 -3.93759 -2.25673
124 1 21.5141 -21.4381 -14.8689 -1.17274 0.434276 1.74724
125 1 15.6784 10.1597 -0.378116 1.55505 3.21128 2.89807
126 1 -9.22121 0.83591 -6.588 -1.57909 -0.178594 -2.14457
127 1 11.6581 -3.29058 14.179 -1.59182 -3.26281 3.44577
128 1 -19.9434 -2.27141 -10.5983 -3.06328 0.835818 3.23774
129 1 15.575 -10.0812 3.79067 2.73919 -3.64024 -4.07534
130 1 -10.5408 16.8377 -19.2196 3.91865 1.63706 -0.959573
131 1 2.76931 -9.79325 -19.347 0.316648 0.535114 -3.77738
132 1 -7.87234 -3.92758 -22.0323 -4.30077 0.199919 2.26359
133 1 -16.9093 2.35076 16.0557 1.1592 -1.63891 -0.129786
134 1 19.8439 -7.10778 -23.2829 -2.26626 -2.21274 2.2951
135 1 -14.1618 -6.53916 -20.985 1.88453 -3.41799 3.2597
136 1 -0.599232 5.72322 -5.62374 -5.95181 -4.74517 -3.4147
137 1 -11.6572 4.84451 -15.5218 1.35768 2.26238 0.808183
138 1 13.837 18.4253 5.46182 -5.21255 -4.94702 3.09072
139 1 -20.5416 -20.5059 -14.3961 0.474936 2.44038 -0.498193
140 1 2.80334 -6.66156 20.3751 -4.99458 1.67118 -2.23035
141 1 12.5874 -17.9377 3.87494 1.41225 -2.02768 -1.09925
142 1 13.4867 2.21014 22.4513 -3.2474 6.99656 -6.82164
143 1 -4.69479 -1.56447 -4.25007 -0.513123 -0.573374 -0.583005
144 1 -24.3098 -9.61437 -15.9172 -2.24874 1.78322 -3.11249
145 1 16.4994 6.81079 19.3805 -3.7515 -3.24739 1.23239
146 1 -11.4491 -10.8509 14.626 -0.777322 1.72774 3.3987
147 1 10.8355 19.7255 5.58524 -4.07747 4.44552 1.94217
148 1 -19.2322 12.9992 10.5438 1.72353 -6.12481 0.765913
149 1 -18.8972 46.834 -20.0395 2.91828 4.86204 -0.641492
150 1 20.1891 8.75607 20.4082 2.0159 5.4421 -0.838713
151 1 19.7009 1.72185 21.7806 -0.784629 -5.00756 -0.183125
152 1 -7.70133 -4.39155 18.3361 -2.31115 -4.69058 0.897694
153 1 9.42635 -15.1196 -3.47122 3.03703 3.36233 0.881933
154 1 -8.80604 20.5393 -7.24249 3.7821 0.765007 -1.55969
155 1 23.4721 -21.6699 -18.5548 -1.69208 1.97606 -0.0643736
156 1 15.5285 10.409 16.9243 2.77077 -1.67609 -1.02497
157 1 13.1099 -13.289 -14.6329 3.76315 -2.00769 -0.997247
158 1 11.3703 7.25239 3.33584 5.71554 -1.71341 -4.02554
159 1 -22.4026 -13.2413 11.7526 5.60172 1.54048 2.44627
160 1 -5.62823 -17.2105 -3.88422 0.732398 -0.936966 0.380277
161 1 19.0628 1.97985 -14.556 0.780738 -4.47682 3.47727
162 1 -14.7799 -10.1444 20.0217 0.410261 0.436823 -0.552944
163 1 2.2576 -0.644263 17.2089 1.31154 -2.86489 1.98881
164 1 17.9439 7.55385 12.8822 4.12779 6.61692 0.272847
165 1 -19.8334 12.1649 16.1477 0.578901 3.93273 2.21084
166 1 10.275 19.6767 -23.0955 2.45665 -0.17514 -2.10899
167 1 -12.7326 2.27344 -2.93495 -0.822931 -4.03733 1.58397
168 1 21.8009 25.2121 -4.14052 1.70671 1.89125 -2.01782
169 1 3.91493 24.7066 -13.1526 1.18214 1.45434 -3.27602
170 1 -6.11283 -18.9958 -13.815 3.0443 -0.61087 -0.763636
171 1 -14.1617 1.8144 16.0942 0.490016 -6.01455 8.97054
172 1 -19.8517 20.6355 -19.1424 1.88415 8.1524 1.50268
173 1 -21.643 1.81449 23.398 0.453251 -0.7163 3.15274
174 1 -19.5649 6.89345 -21.9167 0.995427 5.40575 1.21477
175 1 11.6258 17.0088 6.66771 3.53196 0.723101 2.88077
176 1 -4.15946 22.2332 -2.91025 0.863606 0.574629 0.0758
177 1 -4.33472 -20.2196 12.7982 -1.18762 1.39774 0.152097
178 1 -16.9223 10.0275 5.35302 1.4959 1.57533 -2.87728
179 1 -5.26435 -9.3042 -12.8482 -2.97159 3.82628 -0.913593
180 1 -24.2181 20.7386 9.46007 1.10275 -2.7552 1.24903
181 1 -4.18638 -5.34249 -20.3775 1.5985 -0.463679 6.11051
182 1 -22.872 -1.99442 16.2893 2.35504 -0.45529 0.0214956
183 1 21.8682 14.0793 -3.26685 -1.00677 1.01212 1.33597
184 1 4.82713 -23.4409 -23.2363 -2.09132 3.90729 -3.12054
185 1 20.9078 22.9127 14.8159 2.12734 -3.01395 0.311709
186 1 13.8821 24.8119 -10.2594 2.48827 -0.98979 8.91967
187 1 -11.8416 7.71123 -7.0546 -0.0550935 2.06399 -3.35614
188 1 7.00161 -22.8964 -4.42433 0.653332 3.03288 7.34599
189 1 -2.78322 -3.96873 2.22599 0.251923 -2.52667 2.40398
190 1 -15.3405 10.7177 -13.1045 1.60044 2.96754 6.63112
191 1 4.53707 -3.08292 -23.5905 0.824093 -5.02618 1.61515
192 1 9.05869 5.89682 -2.50768 -2.03909 -1.12316 4.13445
193 1 10.7849 -0.73026 2.53612 -1.36582 0.394447 -0.851544
194 1 1.50254 24.5856 -21.7729 -0.43094 -1.6303 4.33424
195 1 7.63033 -0.828033 -8.13109 -5.25587 -0.935117 0.777965
196 1 -16.8767 23.1354 5.08023 -2.74153 -0.661629 1.17524
197 1 -23.6227 -3.48259 23.6266 3.46786 5.26584 2.1125
198 1 -10.4848 -21.3983 -18.0509 1.8999 0.480093 -5.87561
199 1 -23.3289 -4.68227 -10.3972 3.74455 -1.94779 0.476463
200 1 14.3733 7.31089 -16.4681 4.09958 0.385444 -2.5675
201 1 5.59356 2.87358 -23.4322 2.3965 -4.00372 6.13417
202 1 9.81938 13.8526 12.1605 -0.122753 -1.60014 3.51071
203 1 -22.6822 20.2159 6.97758 2.99505 -1.46966 -3.4521
204 1 -6.58648 -15.194 -8.89544 5.68335 0.610497 -2.94701
205 1 18.8233 -6.7592 10.9633 -0.399714 -0.0498891 -3.66187
206 1 -4.95071 -14.12 -19.5177 1.56743 -3.12013 3.94834
207 1 -6.80036 6.96847 -24.1043 1.3341 0.279618 0.610086
208 1 0.96578 -6.35917 16.9586 0.154559 0.327016 -1.67594
209 1 -7.53542 16.2577 -17.081 1.74582 -0.123962 0.304256
210 1 -18.5081 12.4325 -0.936862 -4.97232 -0.901145 1.01812
211 1 15.3602 1.08527 6.99983 1.95057 3.45068 0.0969163
212 1 -15.3179 24.5205 -3.68864 -1.78072 0.925393 0.826946
213 1 -20.496 -20.0556 -3.19057 0.672081 -1.11564 -6.91704
214 1 16.0473 -4.24366 -20.8656 1.09701 -0.247687 0.467529
215 1 9.46993 21.9717 15.6693 -0.817202 3.20175 3.78207
216 1 -18.294 -23.7364 9.03209 -1.4123 4.62196 -3.52753
217 1 5.46413 21.9295 8.56062 -2.89398 2.96039 -0.85098
218 1 12.3308 4.15006 -2.99036 -1.96653 5.74139 -0.626614
219 1 -5.46588 25.0392 21.2867 1.08024 -3.14934 -3.83783
220 1 5.46694 20.6265 16.3 -0.558733 -1.7096 3.56531
221 1 -16.5324 3.00816 -2.96012 3.02963 1.76609 -3.22019
222 1 -10.681 -8.37694 0.706951 -4.955 -0.443663 3.53344
223 1 -22.1483 -5.95664 0.122824 -5.54671 3.4065 1.87664
224 1 -12.4467 -3.21607 -23.8355 -1.74286 -4.13997 1.11803
225 1 3.06527 -12.9852 -4.69343 -1.36 -0.560217 -4.94912
226 1 22.8488 17.0066 -14.4259 -3.50744 2.1772 -1.05463
227 1 17.1598 17.622 1.42614 1.33326 0.0067275 3.21091
228 1 -11.0783 18.9866 0.871834 0.835119 0.965907 -3.11298
229 1 10.7481 11.0369 -10.2763 -0.691727 -1.98273 -4.03256
230 1 -7.55045 13.8531 20.3649 -0.581206 3.70196 3.09961
231 1 -23.5603 -3.13779 -21.3132 -3.16177 -5.96239 -0.926543
232 1 -2.10496 -14.4151 10.9175 0.900268 0.340283 -1.42991
233 1 -11.7543 15.9978 11.4669 1.12772 1.01014 -3.6746
234 1 -7.28175 18.7835 8.12357 -1.19136 -1.67162 1.69303
235 1 -22.1691 -0.546391 -9.90117 2.13949 0.20926 -0.671262
236 1 16.4219 -9.73727 7.78529 2.69977 1.2473 3.42422
237 1 -16.6935 20.1595 0.0944562 0.126708 -1.3211 0.287954
238 1 16.8537 -1.97451 23.8971 -0.142618 -2.44155 -2.18352
239 1 -20.4618 19.3802 15.9469 -2.94161 5.97851 -0.116871
240 1 10.8268 1.3438 15.7896 -3.881 2.73477 -3.47784
241 1 -21.7692 -16.1713 10.6842 -0.403464 1.26175 -0.167809
242 1 -9.4353 -4.21457 -12.7761 -0.398601 -2.47263 0.888439
243 1 -7.28133 -7.87241 12.1627 0.716352 -0.256996 -1.98327
244 1 -19.982 11.8496 24.1892 0.446105 -4.13177 5.8679
245 1 -8.93258 24.3808 -12.728 1.62078 2.18486 3.98749
246 1 10.1182 3.1361 21.4852 2.35621 5.43044 1.43886
247 1 -23.472 -7.02707 13.82 1.18424 -2.1401 3.40233
248 1 -18.3577 7.59249 -13.4837 -1.42061 -3.2948 0.440753
249 1 -1.9971 -19.3439 11.1654 -3.42551 2.59908 1.13763
250 1 -0.716677 -1.87907 6.83416 -2.7284 1.64396 0.124759
251 1 -21.5205 -1.09957 -21.1464 -1.76591 2.20354 -2.8062
252 1 19.2349 17.867 -12.2069 -3.46958 -2.71914 -1.92259
253 1 -1.92097 -2.91905 -23.8565 -5.66206 -2.73121 0.615519
254 1 4.89521 -11.373 -8.44384 -4.7164 -2.93265 -0.637472
255 1 23.5763 -22.6748 10.1486 1.39858 3.16563 -0.406179
256 1 -12.4227 -4.42536 -12.5988 -2.56526 -4.26483 0.78593
257 1 -1.88973 5.92364 -21.1006 2.1235 -3.4715 0.72111
258 1 -6.62117 -0.0735183 -5.69191 2.19717 -5.33339 0.466001
259 1 17.0304 -16.8941 -18.3833 -0.910425 -1.14951 -5.20859
260 1 14.1558 5.97716 -4.35857 3.38823 -2.87195 -3.28818
261 1 -2.06792 -24.4413 10.6453 1.71818 -4.24251 1.48243
262 1 16.7116 20.9946 11.1541 4.2341 0.425852 -5.87067
263 1 -20.4251 8.6871 -10.2272 -1.43388 2.11137 -3.33203
264 1 22.472 0.876341 16.0026 1.17298 -0.158508 -3.01113
265 1 14.2932 -17.7465 -5.26628 0.613098 -3.08926 -1.18511
266 1 23.5217 5.44613 -15.8967 -0.280606 -2.06493 -0.561403
267 1 -11.1396 20.8366 -11.2923 -4.18224 -2.02623 0.219873
268 1 -21.3347 19.5244 -13.0213 -1.42216 -3.55943 0.644606
269 1 -19.6842 -8.02305 -13.3683 -0.258921 6.45937 2.64375
270 1 -22.3793 -16.6445 15.9749 1.64906 2.83911 0.213675
271 1 2.13854 22.6352 -13.704 -0.487322 1.03077 1.32119
272 1 11.3218 -18.5237 10.6039 -2.15062 -4.1293 -0.188057
273 1 -17.7513 -10.7704 13.427 -1.85436 -1.65993 -1.80174
274 1 11.7635 -13.0472 9.30259 3.77398 -3.44458 -2.28841
275 1 12.0902 23.4589 -20.4363 0.517248 -2.82377 2.75481
276 1 22.6038 6.30982 -7.38592 -1.51911 0.257904 -3.26883
277 1 9.19823 -12.6217 -18.042 0.0570206 0.766408 -3.23903
278 1 19.6107 9.8962 15.7747 -3.24039 -0.269268 2.60558
279 1 -24.2997 -2.48497 0.597283 -1.61414 -1.26029 0.867758
280 1 -3.79586 -20.1051 -12.7632 -1.80541 1.49855 -1.11006
281 1 14.3632 21.6938 13.053 -0.0154915 -2.25357 1.88159
282 1 11.5963 11.7347 11.6469 -3.91632 0.15479 4.18729
283 1 -4.75993 -22.3836 -21.8626 -2.4044 1.41517 -4.35828
284 1 2.78152 14.3364 1.69367 2.15066 -4.20458 2.00715
285 1 -13.5721 18.746 14.6454 0.596631 -6.58308 -0.753491
286 1 -5.68533 18.2265 -0.134705 3.13105 2.561 5.90875
287 1 2.98913 -9.14228 -7.78582 0.23025 0.0519437 0.24681
288 1 16.636 24.9155 4.34638 0.255128 5.04559 0.360198
289 1 -6.21873 -21.9009 9.7207 3.4688 0.0127329 -3.82116
290 1 -5.8824 -10.383 -17.2248 -1.28918 3.36614 -3.22871
291 1 -12.2349 -17.5499 12.3619 -2.32555 -2.96545 2.11099
292 1 15.9086 8.09537 1.66893 4.8998 -4.64158 5.09876
293 1 14.3333 3.08553 13.1353 4.24899 -1.76463 2.83129
294 1 -9.07734 2.88952 0.415019 -1.08453 -2.32416 -3.07454
295 1 0.407989 7.22856 9.47318 -4.68038 3.62608 2.33124
296 1 2.39121 16.0043 -1.48013 0.335566 -0.770603 -2.72123
297 1 18.4281 -7.07433 -8.84591 -0.947774 -1.12705 -3.69581
298 1 13.5833 -20.6888 -20.5012 -1.82162 -2.2344 1.4898
299 1 5.29024 -22.6473 -13.2336 -2.15415 -3.35058 1.95921
300 1 17.5709 -5.68808 18.181 0.439666 -1.81729 10.3015
301 1 -5.86714 21.2547 -21.8986 1.27364 -6.24642 1.40157
302 1 -0.93284 9.02161 -2.18606 -0.0806486 -3.94736 -1.39527
303 1 -19.0339 -16.4009 -9.46036 1.70059 -1.57808 2.00431
304 1 -21.1764 -17.6231 13.2508 0.194289 -2.33616 -1.32806
305 1 3.75743 -20.2842 20.2987 -2.13703 -2.80226 7.45783
306 1 14.3214 20.9993 -11.5996 2.18346 7.08943 2.14981
307 1 14.8954 12.7389 -23.6226 -0.105085 3.94877 2.70609
308 1 -17.6662 -22.1081 4.1718 0.939193 -0.897001 3.25968
309 1 6.53301 -19.7328 17.8851 -1.8551 -4.795 -0.986196
310 1 1.64374 13.3619 13.6352 0.676504 0.606247 -1.99709
311 1 13.8976 -9.71222 1.44864 1.99938 7.59129 0.516451
312 1 -6.02107 1.93592 -9.6139 2.39253 3.40897 -4.4035
313 1 -16.2165 -16.0888 -9.57931 -5.37703 -3.64401 4.83212
314 1 -14.2606 6.93002 -8.71998 -3.37416 -0.98151 -5.24675
315 1 -15.6224 -23.7768 3.38744 -0.052498 0.237064 1.24118
316 1 21.5624 -6.04228 3.47155 -1.36825 2.55775 0.700807
317 1 -11.1359 -10.1581 23.6088 -5.0374 1.60445 1.23162
318 1 20.0772 -17.5959 21.9301 2.53333 -0.0740701 1.17399
319 1 -13.7454 3.35807 13.097 -4.38916 -3.80053 3.93838
320 1 -3.17292 0.506822 10.0975 -2.88963 -1.38999 -2.09679
321 1 -18.6385 -11.6442 -11.5863 -0.138498 3.37224 1.36899
322 1 -12.4135 14.0347 0.0149797 3.6617 -1.73995 0.0398592
323 1 -13.513 2.55154 3.35482 5.19027 1.15272 1.48383
324 1 21.8619 1.13007 6.10821 1.8297 -0.90872 -1.65893
325 1 0.0718992 -19.8835 17.7813 2.79284 1.86715 -4.09692
326 1 -17.467 5.61612 1.36614 -0.0343289 1.99506 -1.06148
327 1 -7.11983 -9.18661 20.8442 -3.54782 -0.0751299 -0.880638
328 1 14.7618 22.0403 15.7495 -0.18186 1.20522 0.503545
329 1 0.538496 0.541112 -11.203 -0.515051 2.11771 -7.05408
330 1 -14.4923 -24.1952 23.5614 -4.48962 -2.13817 0.212851
331 1 14.2287 7.83926 3.97622 -0.718391 -3.49316 -2.53653
332 1 10.0211 -1.48487 -9.6324 -0.408227 3.83138 -0.765431
333 1 7.50396 -10.433 -13.7387 -2.63939 2.97359 -2.56913
334 1 4.82924 -22.4005 -2.3031 -2.81312 -4.55534 0.368133
335 1 23.4513 -23.4311 4.83211 -2.00523 0.804337 -7.58781
336 1 18.5612 15.5537 -22.2449 -5.48974 2.25179 -8.60536
337 1 -19.1222 20.3913 1.93266 4.7752 5.96417 -0.921469
338 1 6.23657 -8.24273 15.838 1.54126 -1.10546 0.366236
339 1 -6.29978 -17.6716 -22.5733 0.389612 -0.898229 -0.036837
340 1 -15.3907 1.3534 -17.1412 2.05552 -2.41136 -2.25719
341 1 -10.3531 2.2313 -14.925 3.30152 -2.54022 -3.19519
342 1 -1.64615 -17.2445 -12.0233 -3.06998 2.64907 -7.82708
343 1 -2.51088 -13.3457 -5.55639 -1.65351 -0.358076 -3.0334
344 1 8.58669 -17.1941 -12.8544 -2.04108 2.16755 -2.18143
345 1 -10.4475 -5.32793 17.897 -0.0296272 -2.04814 -1.4138
346 1 16.8752 2.93192 5.3421 1.95532 -2.51256 -3.8665
347 1 20.2359 -7.06392 8.20493 1.76836 -0.314493 -0.0616739
348 1 -11.2957 -3.25851 10.9913 -0.275725 1.29707 3.02149
349 1 -5.13145 10.5496 21.924 1.04454 -3.1867 -0.915053
350 1 -23.3378 17.6206 22.64 2.01577 2.16321 0.782684
351 1 -16.7628 3.53433 9.40145 3.84696 1.75218 -3.12824
352 1 13.492 3.52234 1.62454 1.35217 -0.527279 0.636162
353 1 17.5467 -22.7864 -15.593 -1.69087 -3.37171 0.070855
354 1 7.50883 22.6292 -8.41181 6.50592 2.57731 5.29716
355 1 -5.27191 -1.79997 7.22224 3.49545 -0.653659 -4.08522
356 1 -2.5601 -18.749 -21.0815 -2.15815 0.608332 -3.39695
357 1 -5.99954 -14.6975 1.72183 -3.03721 2.98689 3.25876
358 1 19.7514 -13.6671 13.338 0.877996 2.99766 3.29351
359 1 -15.0097 -20.3562 -10.3297 -2.2583 -0.646166 2.8386
360 1 6.56598 17.1426 0.24566 -4.09674 0.791824 -4.54528
361 1 -22.7895 -21.2878 -5.07534 -4.25405 -0.270941 1.18837
362 1 -19.7217 12.8161 6.25578 0.96441 3.29409 -0.912759
363 1 -18.3605 -19.1467 10.5162 3.11019 0.196289 -2.34211
364 1 -9.94567 5.38864 -6.82278 6.95633 -1.49483 3.61457
365 1 -1.25735 -17.4141 18.1346 0.286126 -2.11335 3.47486
366 1 -19.8753 0.883861 -11.3332 -1.84781 -0.448176 0.825941
367 1 6.65454 17.5992 -17.0887 0.084168 2.09605 4.84353
368 1 4.11994 -6.07454 11.0163 -1.50907 -4.46722 2.42558
369 1 13.8963 7.89696 -13.6669 -5.37516 -1.15171 -2.9942
370 1 4.11701 -14.1024 -22.1641 3.73499 -4.84472 2.57363
371 1 -11.8938 46.7875 17.4472 0.354422 2.9451 3.68608
372 1 -8.97161 23.1779 8.34552 0.114487 -0.633947 1.01906
373 1 -15.2736 6.50418 22.7725 -0.874782 3.28985 4.41872
374 1 -4.44338 19.2214 -14.1684 -1.59221 -0.718996 -0.852403
375 1 -21.7151 -5.74899 22.8095 -5.49809 1.2405 0.76774
376 1 -5.12049 -12.9892 -16.0682 -3.47738 -3.86238 1.87008
377 1 14.88 -1.42608 11.687 -0.133207 -1.72662 1.15168
378 1 17.8849 -14.1297 -3.22425 3.98572 -1.60371 2.45641
379 1 -23.5202 24.8273 1.33353 -5.60501 -4.05436 -0.241382
380 1 13.4617 17.0059 -21.4749 -1.88499 -3.38784 -4.55937
381 1 -22.8006 -13.857 16.3581 -5.27659 0.633519 1.4651
382 1 16.0018 15.6328 -4.87328 1.49155 1.19674 -2.56491
383 1 11.2229 -23.9853 8.10383 -2.44705 -1.91597 -0.97598
384 1 -10.0494 10.184 -8.49738 -7.36737 2.6097 5.15805
385 1 -7.5889 2.60031 20.6244 -4.20324 -2.87063 -0.971282
386 1 18.243 -3.06957 -19.5445 1.85416 0.332893 -5.44606
387 1 3.74456 -21.4889 1.35057 1.70493 -2.59452 1.40307
388 1 -19.391 45.6059 24.1154 -0.387171 -5.61697 -0.66255
389 1 -13.3877 8.34365 8.29487 4.14556 0.505477 2.87871
390 1 13.2085 6.91028 7.45483 -3.62626 -1.14746 -3.49035
391 1 17.2891 2.37956 18.2704 1.46633 -1.61206 2.83296
392 1 21.3503 -11.0677 16.1386 5.38065 -1.27166 0.0345599
393 1 -14.2158 -18.7881 -13.4948 2.19847 2.7603 -1.74329
394 1 -11.2302 12.5614 -6.90733 4.50729 2.81691 1.15714
395 1 -9.61647 46.8482 19.1158 0.462933 -0.115046 2.69539
396 1 10.8361 -20.6802 0.760636 -5.6257 -0.449335 -3.11655
397 1 2.82883 -21.1262 17.5758 -0.729312 -5.77324 -6.42716
398 1 -23.3773 -22.9134 -7.64868 -0.164412 -2.33486 1.68145
399 1 12.9945 16.6656 1.7642 5.09204 -3.24111 1.74149
400 1 -21.3298 -15.9983 -4.46716 3.07588 -5.28829 3.1176
401 1 22.2302 -16.7728 -5.82006 0.953012 4.56754 -2.86979
402 1 -1.55477 7.87279 22.2147 -1.97812 0.599292 -4.05526
403 1 14.2128 -0.936095 23.8865 0.106603 0.0939243 4.99869
404 1 -14.9195 -0.707798 2.39619 1.88085 -3.72411 2.15362
405 1 5.78872 -24.0804 -6.8416 2.30583 4.00997 -2.1836
406 1 -9.10279 -19.2894 23.1747 -3.50272 1.01913 -2.42531
407 1 4.03238 -11.0188 17.8914 3.57105 -0.826887 4.91097
408 1 -2.25537 -1.47072 -16.9939 -3.68314 5.23464 4.35739
409 1 0.409064 1.28723 -6.42232 -5.69553 -1.86642 -3.41563
410 1 -14.5855 12.159 0.884635 -0.00449466 -2.13274 2.89962
411 1 -1.12491 -2.97265 -8.30469 -1.37781 -3.20631 -1.41369
412 1 -15.7651 -6.93984 8.06168 -1.29342 -2.35126 1.51581
413 1 -22.5552 25.3818 -1.59968 1.91074 2.15709 -0.23545
414 1 4.00094 20.388 -13.0427 4.96807 1.86434 -1.6427
415 1 -18.4594 6.5399 -9.40245 0.840186 1.70816 0.0782191
416 1 21.9151 0.346897 11.3958 -0.177728 2.35853 -1.82688
417 1 -14.2801 2.62148 10.5483 -0.429327 3.16042 -5.22761
418 1 23.285 21.7505 6.01119 -3.35542 -0.132031 -1.4159
419 1 -24.0938 4.86285 23.8167 1.41992 3.24333 -2.63597
420 1 -2.63549 -3.99877 11.8325 1.89533 6.02542 -1.40549
421 1 -15.4288 -24.3423 -16.1795 -0.156774 3.95228 -0.286528
422 1 -3.15163 17.0315 -22.6478 -3.00128 1.35752 3.05205
423 1 -8.77965 2.19585 3.51066 0.208557 0.196774 0.106822
424 1 4.52746 -4.3827 -1.10256 -4.31924 -0.828994 -6.64428
425 1 -21.1734 14.3059 15.4542 -1.19095 0.339613 -0.81733
426 1 -17.9426 -1.84136 -8.58141 0.0880265 -5.55376 1.82266
427 1 -15.8473 -24.6612 21.0039 2.68349 4.56384 -3.82991
428 1 10.3245 12.2501 -7.5888 -1.83725 -1.16461 1.23427
429 1 -7.54847 9.60705 -13.9913 3.05234 -5.81326 -1.05506
430 1 -22.0634 -1.03783 24.2722 0.430849 -5.65721 2.21198
431 1 10.1777 -6.18227 -14.7813 1.15433 1.09248 -1.87908
432 1 7.82383 -5.75932 11.6939 0.4099 0.556811 -1.65368
433 1 -19.8932 2.83617 -17.4231 -1.55489 1.89768 0.541012
434 1 -14.0129 -2.20973 -11.4119 1.20273 -3.06658 -0.315107
435 1 3.3374 22.8132 6.45289 -1.23564 1.67656 0.669901
436 1 -13.5711 -8.72767 -8.31211 4.35137 3.59465 0.0829223
437 1 19.6819 18.1254 -9.43291 1.36734 -2.93665 8.44433
438 1 -17.6989 6.7343 -3.31341 -4.33882 -0.50182 6.18991
439 1 -3.28191 22.3232 -5.59166 -2.50763 -3.55874 0.963371
440 1 -10.808 13.9353 -15.0016 -1.91153 -0.778878 -2.1576
441 1 18.5319 1.65247 -4.14715 -1.65 -3.93862 -1.81489
442 1 4.85736 2.24903 14.6292 0.551732 -1.20256 -0.392372
443 1 19.4096 25.5363 14.0976 -0.945204 -1.24661 -1.97758
444 1 -24.0701 8.54704 -18.0989 0.646189 0.450171 -5.96629
445 1 19.8182 -9.1058 -10.4785 1.21065 -3.27873 -0.160165
446 1 22.6545 -14.0374 -6.91006 0.142337 2.45823 -5.16189
447 1 7.09552 20.0445 13.6217 1.17413 -3.6582 1.06242
448 1 -14.336 0.434829 13.5565 0.487249 6.55989 -0.313371
449 1 14.4546 -5.13984 -1.58849 5.01661 1.8797 2.69132
450 1 15.559 -21.8112 6.82148 -2.54815 -0.0368905 -0.321725
451 1 22.4692 -11.5473 -19.5487 1.58426 -1.38385 -0.810789
452 1 -23.3114 16.2145 0.71755 1.19167 -0.316042 -1.70181
453 1 -15.9652 14.6408 8.71398 0.955658 -3.04378 4.19161
454 1 -4.16648 0.56216 -15.7779 0.395959 5.14109 0.422379
455 1 15.2426 -10.7175 15.4212 2.16918 3.49362 -10.3392
456 1 -4.46094 15.0754 23.8438 2.98953 -0.590432 2.76854
457 1 7.93401 20.6853 17.6578 8.75305 2.76398 -0.254132
458 1 20.9384 20.7027 17.7244 1.72276 4.76495 2.13626
459 1 0.307852 7.40527 -13.0113 0.0177342 4.35543 0.205279
460 1 4.50904 8.94555 24.1294 1.68488 -2.73202 -2.77611
461 1 2.49016 -0.068488 -20.056 0.239599 3.42432 -4.12226
462 1 -7.39727 -19.2207 19.4418 2.97318 -2.03414 5.1135
463 1 6.86663 13.9412 11.4534 5.73732 -3.70163 2.34569
464 1 -14.4103 46.8638 5.69534 0.861235 2.94243 2.28401
465 1 -1.63536 -12.3754 3.45711 -1.91072 2.30137 1.97732
466 1 16.0704 14.1631 -21.2372 -3.87623 1.38645 0.436459
467 1 -7.40396 -10.6881 13.4555 2.29937 0.509999 -0.573891
468 1 22.3747 16.8403 -9.95138 1.11981 -1.45663 -4.39452
469 1 -24.1742 -14.8974 13.4706 -0.841131 -2.86282 1.90549
470 1 -21.0132 6.58407 -12.7249 0.101665 5.22687 -3.03734
471 1 21.5249 -7.06216 -8.88378 2.58294 1.78605 1.07534
472 1 -15.2753 -3.84099 18.4004 4.82901 -3.98651 -3.73971
473 1 4.90137 11.7344 11.619 -0.819552 -0.505538 -0.775269
474 1 2.79923 -7.06367 -10.7168 1.16717 3.77539 -0.065929
475 1 20.7464 10.5384 -21.5002 3.3118 -5.83029 0.774577
476 1 -11.8964 -4.80493 -2.92518 -3.24803 2.00254 3.30981
477 1 -11.4488 -9.44672 -15.2755 -0.901241 4.59084 -2.68948
478 1 2.17924 0.193568 -23.6038 -0.47233 -3.03637 -1.09232
479 1 14.6425 -17.5416 14.3762 1.78085 3.21757 3.65663
480 1 0.331177 -9.93164 9.32762 2.35445 -2.19599 -0.142233
481 1 -2.05648 8.55958 -20.1903 -2.32379 1.77757 -3.30355
482 1 -23.3304 -3.12205 20.8108 -4.82057 -0.0882121 4.85396
483 1 5.98157 -17.1031 0.466904 -2.92627 2.64154 0.803556
484 1 22.2273 -13.1368 -12.5813 1.2976 5.13334 -4.29138
485 1 21.0472 -21.4622 -17.5328 1.44384 3.41048 0.363816
486 1 14.5952 3.65223 -6.04118 1.23196 -3.1513 -0.305548
487 1 3.17383 23.8535 16.9797 5.6969 -2.34724 2.55444
488 1 -0.49082 -14.9155 20.9825 -4.44954 0.154707 -2.67525
489 1 -11.7883 23.5764 -11.9702 1.68554 -2.1461 0.127202
490 1 16.015 -15.96 -12.6132 -0.981743 -1.32176 3.62001
491 1 -20.0728 -12.4332 10.1201 -0.782399 0.778761 -7.03879
492 1 -16.0338 -17.0787 -12.4024 1.05785 -0.915378 -0.8061
493 1 14.0647 -0.773498 -15.8329 1.80317 -4.19094 -0.172705
494 1 7.62725 2.89137 5.24847 0.199095 -0.211652 6.14681
495 1 -2.61372 -9.80937 -4.47495 1.80664 2.77631 -4.88121
496 1 4.42409 7.0241 -11.8939 -2.19249 -1.6168 -0.271672
497 1 9.18683 14.4669 22.7393 0.22058 -0.868705 1.95387
498 1 22.5374 1.04651 -23.1537 0.0318673 -5.30624 4.09174
499 1 -23.6589 1.86575 -8.65908 -0.328343 -1.25958 0.436528
500 1 -4.72032 -16.5166 8.09315 2.23642 0.962099 1.32399
501 1 -13.3687 -11.7726 -8.13425 3.69771 -0.184705 3.60869
502 1 11.3232 -14.5786 18.0642 -0.563097 2.56905 -1.76936
503 1 9.16482 0.0365348 -11.6596 -2.61659 -1.40307 0.723371
504 1 -1.69934 5.36472 5.6585 -0.914475 -4.46664 -0.384067
505 1 -2.74269 10.2201 -22.7332 -4.01101 2.41127 -0.344252
506 1 -1.43003 -21.5972 -15.7679 0.527034 -0.0823836 3.4464
507 1 12.0136 21.2329 -14.8939 -0.449292 1.00753 -3.01427
508 1 -2.28989 22.4658 -11.6694 -3.15814 -1.78208 2.43286
509 1 22.1198 14.6229 -18.3304 0.132941 -2.67831 0.555594
510 1 7.54766 -15.9206 15.6611 2.07488 -2.13452 1.00785
511 1 7.94703 -13.896 3.63484 3.92526 -3.0559 3.05043
512 1 0.510949 -2.2165 18.861 -5.01568 3.20201 1.35637
513 1 -20.04 -15.095 20.8679 2.44354 -6.25306 6.78095
514 1 -14.6448 20.8012 19.3808 -1.36336 -0.294571 -0.830985
515 1 -1.45073 7.04913 17.0914 -1.20836 -4.97272 4.1896
516 1 9.40466 -23.1185 -2.70709 -6.29298 2.70736 -4.07083
517 1 -15.5026 -1.50887 -21.4527 1.00469 -5.27999 -0.658375
518 1 23.114 -22.8966 2.04199 4.34811 -1.9493 -5.20746
519 1 -19.5148 -11.5062 -7.87988 -7.35697 2.38909 1.5401
520 1 -6.42129 -24.2794 -14.2113 -2.22515 -4.75586 1.51606
521 1 -9.62548 23.5982 -7.08258 -4.71412 2.41305 -0.548389
522 1 2.51399 -15.9125 6.23581 -4.62782 -2.74385 0.38164
523 1 -9.50411 -15.3403 -7.95838 3.06914 -1.89053 3.32557
524 1 -1.69406 -2.91547 16.9882 3.00139 -0.15738 -0.11916
525 1 -7.67243 0.367058 -2.83047 0.12989 -0.165716 0.573964
526 1 -19.7762 16.5878 -4.1552 -4.53735 6.49251 -1.01276
527 1 -2.25357 14.4908 -8.27036 -6.10908 -0.029281 -1.47228
528 1 -15.9383 16.5508 -11.9985 3.39609 -1.78869 -3.94667
529 1 -8.35455 -12.8296 6.95607 -1.23056 1.12343 -5.67206
530 1 -9.48598 2.7604 10.9884 -1.12054 -2.64966 4.18221
531 1 22.6001 -8.41421 12.929 5.24169 1.39473 4.81072
532 1 -9.49849 -2.66337 -0.755422 -0.683055 -0.0394958 2.69404
533 1 -9.19502 -20.2143 14.348 -2.84099 -1.54306 -4.44853
534 1 20.3234 8.31515 -10.684 2.45887 -0.434648 1.54323
535 1 5.5123 9.92122 9.37518 1.14707 -1.37264 -0.0263868
536 1 -0.5635 -8.82931 4.53874 3.42017 2.11298 4.04024
537 1 8.40137 -6.26115 2.5649 -2.27097 0.291876 -0.975051
538 1 -20.658 -6.21064 13.0978 3.30182 -0.984004 0.343363
539 1 17.122 9.57777 -6.89348 1.04735 -0.875873 -4.32195
540 1 -13.587 -11.4434 2.73555 3.23207 -2.58521 0.470044
541 1 -11.7904 2.53961 17.5883 0.470234 -2.68346 3.81966
542 1 -22.9063 6.5187 -8.04686 2.3572 6.4213 3.44656
543 1 20.731 -16.8294 -15.816 -2.03391 -0.639925 2.62783
544 1 -4.30641 -20.8776 -19.4289 0.651556 -3.30764 3.35584
545 1 21.3055 -18.5273 13.593 -0.403515 -4.53009 -3.32749
546 1 -7.94115 -16.2101 -13.9427 8.10014 3.01522 1.10148
547 1 15.9681 -16.7498 -21.2862 3.61998 1.45087 1.31777
548 1 8.93162 0.816972 17.9902 -3.10862 7.69092 -0.151673
549 1 -19.6997 -4.62745 7.88728 2.29038 2.28858 -2.5159
550 1 0.493864 -22.4019 -13.7803 0.143082 1.12154 -1.47584
551 1 9.02224 4.08147 -16.2383 2.41273 -0.383321 1.38606
552 1 1.7238 -18.1044 -0.917861 -1.38713 0.839268 -3.86013
553 1 -11.218 8.2451 -0.364732 -0.814258 -1.00692 0.907129
554 1 3.8359 18.6508 -16.7698 -0.621571 -1.59989 0.26664
555 1 -14.6823 -14.4956 -0.038187 0.896457 0.341931 -4.71915
556 1 -10.986 18.6799 -2.12145 0.564127 -0.46559 2.8235
557 1 11.0414 -22.9547 -10.1933 1.95178 7.02556 2.02483
558 1 -5.3193 -11.6512 15.2803 -0.76303 -4.01827 1.3357
559 1 -8.6015 -19.2479 6.41447 -2.78443 -0.795866 0.57394
560 1 23.4158 -21.4627 -2.90396 1.83536 0.676426 -4.00529
561 1 7.38898 -25.0463 19.7612 3.18979 -7.67616 6.18934
562 1 6.51673 7.20966 -21.5006 -0.702434 -1.15093 4.87059
563 1 4.7332 -21.2065 6.84711 2.95748 -4.05472 3.03865
564 1 -10.6107 -18.8613 10.0936 0.0478499 4.75149 -2.50377
565 1 14.1376 -20.2043 22.9189 0.495635 0.6698 1.94893
566 1 20.3418 15.2151 13.5008 -1.56692 -2.31133 -3.57171
567 1 -19.8453 26.4104 -5.14794 1.56579 -2.22059 -1.86909
568 1 4.81972 -7.72814 7.38777 -1.63041 -0.644452 1.36331
569 1 -6.60964 22.9141 -15.6068 4.47416 -0.635959 0.362076
570 1 -24.2231 13.9802 15.7352 -2.03106 3.03344 -1.02613
571 1 -0.759362 -11.9971 20.4235 1.05911 3.07377 1.05033
572 1 10.6971 -22.9773 4.10981 -0.631443 1.02336 1.90173
573 1 17.7069 -6.03409 7.28834 1.31526 4.42764 -7.06496
574 1 13.4926 -20.8738 -5.53077 0.888946 -0.774854 -0.451816
575 1 -15.161 5.23101 -4.35975 5.77342 2.41733 -6.93305
576 1 20.9233 -1.06966 19.0739 1.0958 2.12257 3.53151
577 1 -8.50825 20.4887 0.134423 1.06973 -0.193597 -0.426399
578 1 -23.5818 21.322 -21.0495 0.948713 -4.994 0.268997
579 1 1.47119 -21.6304 -11.2526 1.52486 1.58579 -3.12716
580 1 -5.15104 3.09328 -20.5047 3.98866 1.44428 -6.73614
581 1 -16.0848 -9.62687 15.5563 0.391052 -0.520155 0.889355
582 1 -2.62657 -13.1723 -17.7845 -2.99739 1.33002 0.577065
583 1 -22.8789 24.0893 12.2285 -2.44637 -1.99309 1.03964
584 1 16.5908 2.96382 -8.18256 -0.487202 -3.00241 2.10618
585 1 -7.50141 12.0877 15.9369 -3.48713 -1.69517 1.93855
586 1 16.7573 23.0143 -20.6632 3.48769 -2.93252 -1.94706
587 1 -20.6072 -23.4571 -11.0633 -5.07424 -0.63027 -6.08201
588 1 -19.5671 23.984 5.58488 3.03218 2.07083 0.167017
589 1 -2.04191 3.45849 -0.791214 0.403137 -2.80377 -2.05855
590 1 -5.38543 18.3471 20.9905 1.65335 -2.51448 1.0297
591 1 20.1602 -21.1284 12.8476 3.07644 -0.537107 3.28489
592 1 -15.4736 -11.9216 9.70082 -3.15899 1.40813 -5.8373
593 1 -13.1881 -21.3944 17.345 2.26693 2.49742 2.40228
594 1 -19.0809 -0.656572 2.02064 0.00950539 4.49812 -0.973383
595 1 9.68125 -17.1415 -22.3797 -2.06564 -0.125043 2.83378
596 1 -12.7422 -20.434 5.5859 3.52629 -0.0119501 -3.232
597 1 23.4095 -24.0377 -12.2474 0.0604863 -1.23386 1.78548
598 1 14.4054 -14.9502 5.00688 4.299 -4.01827 -2.38728
599 1 11.6916 -14.5968 13.2683 1.93432 2.88454 -1.55334
600 1 -22.5465 22.6075 16.5404 -3.63113 2.52823 -0.33053
601 1 0.986143 -2.44596 21.7995 -3.06786 -3.08563 -2.71878
602 1 -9.63477 4.77554 18.5769 2.69868 2.86006 -1.16935
603 1 -4.77968 7.08641 -2.75346 -2.81671 -3.84927 1.59612
604 1 1.14756 24.6625 23.816 4.73653 -2.47999 1.78278
605 1 -20.29 -3.05565 17.3488 4.58068 -0.752294 0.823646
606 1 2.3823 -2.17912 -22.08 -2.5668 2.50419 -4.53206
607 1 -0.809621 -3.39142 14.1608 5.66017 -0.647314 -0.928068
608 1 3.77555 9.10744 -10.2233 -2.81265 -1.47305 -4.44915
609 1 9.92849 -19.6737 22.5615 -0.291936 0.119465 1.57328
610 1 15.9025 -4.17393 16.6533 -2.81606 -4.19846 0.916225
611 1 -2.34882 -6.12894 -5.05471 -0.455707 0.649265 3.27091
612 1 -4.20261 12.3274 -12.8749 -0.578187 -1.2793 0.192252
613 1 12.8326 7.73774 -21.1168 1.83374 -1.70221 -1.21198
614 1 -16.1476 -8.26894 -4.903 0.12144 7.7455 -4.31773
615 1 10.0254 -3.57851 20.4418 -0.99038 3.6827 -1.36011
616 1 17.0863 -2.37431 20.9962 0.98208 -4.11717 -2.01018
617 1 -13.5216 22.278 -17.8042 -0.441452 1.88592 5.95494
618 1 14.9579 6.51594 9.62469 0.937846 3.20363 -4.04638
619 1 15.6096 1.44296 11.1797 -5.34266 2.89116 0.472177
620 1 19.5366 -13.9221 -7.4466 8.5925 -2.98785 1.47425
621 1 -7.93767 14.4821 -13.9397 1.67755 -2.57734 -0.776282
622 1 -21.6927 -9.81661 2.25545 -4.30343 1.71497 1.33998
623 1 21.6395 -13.9534 5.27649 3.06058 2.48531 -2.57962
624 1 -7.86783 2.48372 -20.8378 0.5409 -4.57347 -1.35263
625 1 -0.356135 -8.20676 -5.18017 -7.26073 -0.316331 1.77568
626 1 -2.55987 3.75697 -18.9582 1.1484 -1.61877 -3.70075
627 1 22.0317 14.468 11.4048 1.65885 3.4646 1.65154
628 1 -21.7637 -14.6196 -0.821938 1.82705 -3.5693 -1.40175
629 1 -5.78167 11.9893 -6.32781 0.897728 -2.26395 -5.76158
630 1 -22.9546 23.5509 9.41006 2.82412 -2.07758 1.18668
631 1 -4.94143 -18.0821 17.0489 -4.26693 1.54945 -3.26012
632 1 -14.0395 -21.2793 3.28371 -2.715 2.41135 -2.27145
633 1 8.8647 9.46738 22.9517 2.79323 0.0881359 -0.992144
634 1 -9.68261 -2.36598 16.7439 5.72647 0.34966 -1.94175
635 1 10.5757 13.0927 -4.80951 -5.32208 -3.63084 -2.83986
636 1 -22.0991 4.69944 -15.1461 -5.45153 -1.16548 1.82709
637 1 -11.2834 -22.2799 -22.1617 -1.48571 0.0163864 -1.03573
638 1 15.1374 18.6999 -5.09688 2.06314 -0.141733 -2.21623
639 1 -12.3737 -16.9902 -21.9576 -0.812361 0.759207 -1.99128
640 1 0.613748 -0.220073 4.62918 1.90981 -5.76465 -2.51931
641 1 -12.7374 18.531 5.31729 2.32294 0.825459 2.77519
642 1 -7.36119 -1.43057 5.20826 -2.35017 -2.39426 -3.19309
643 1 9.44883 -18.2486 7.22154 2.9022 2.75845 4.64089
644 1 -6.9357 12.5813 -3.98896 -1.5395 3.21806 1.13813
645 1 -8.93913 -9.25125 -18.8416 0.611775 -3.96219 -0.0990593
646 1 15.43 24.6624 16.669 -0.660912 6.30112 -1.86707
647 1 6.11466 4.24659 -3.9704 -1.05843 3.17209 1.89377
648 1 21.1023 -16.4411 -23.9456 -0.126074 -0.357274 -4.27523
649 1 9.71256 -16.8914 17.3728 0.659826 0.899096 -0.916238
650 1 -9.50564 1.0415 19.0571 -2.58864 -3.1159 -7.63871
651 1 -22.2052 3.73038 -12.5538 -0.694378 3.16533 1.99095
652 1 -7.92527 -5.10656 -18.3689 -2.3555 -2.87541 0.895958
653 1 -23.0209 -20.5486 -15.3802 -1.2121 -0.864457 1.00975
654 1 -11.1976 -0.683042 -19.5875 2.37787 -3.80593 -1.63598
655 1 -5.27746 -11.7901 -11.5467 1.90655 2.81411 3.82358
656 1 0.00957026 22.8057 -9.39976 -1.70344 -3.10408 2.60773
657 1 -1.83512 -3.78827 -11.8549 0.720852 -3.22098 -4.85083
658 1 20.8378 11.3311 11.5413 0.397054 -2.96881 -0.935215
659 1 8.22537 0.751982 20.9254 -4.32809 -1.29894 -1.90824
660 1 8.6581 4.49558 7.61158 2.60517 -1.81802 5.81708
661 1 -18.0782 -7.75603 -16.8778 4.63578 1.51775 3.57621
662 1 4.36615 -4.85399 8.64203 0.718862 -0.227091 0.985357
663 1 -12.149 -19.0959 -9.60174 -3.26658 -0.37394 -2.58294
664 1 -16.0677 -20.8544 11.1431 3.71666 -1.3861 -1.61734
665 1 -2.72248 -6.38 18.473 0.463651 -2.02697 4.90526
666 1 -8.72086 -6.3383 -11.0666 3.36646 -2.19496 -0.606202
667 1 -21.7319 -21.188 22.8998 -3.91048 0.360113 1.62396
668 1 -8.97427 13.8329 17.5228 0.124748 2.90478 -0.0521739
669 1 8.97324 -14.0476 14.0531 1.74103 4.2922 1.92723
670 1 0.322681 -14.4327 -0.944231 -4.95356 1.32375 -0.533538
671 1 20.7041 16.7437 2.76129 -3.62407 1.83907 -0.610313
672 1 -24.6062 5.00031 -11.3498 -5.4919 -2.85278 6.21577
673 1 -2.01426 20.9612 23.8473 0.32448 -2.9778 -0.449065
674 1 -9.40925 0.128646 -21.6417 -4.39706 3.86036 2.15917
675 1 -22.1774 -10.6626 -8.89948 -3.26006 -3.03006 -2.22403
676 1 5.92798 -0.257891 18.1073 -5.54762 5.27227 -3.48799
677 1 -22.6969 -10.4908 -11.7583 -2.95905 2.209 0.896448
678 1 -19.4804 -4.91421 0.329043 5.18247 -0.521161 -0.444625
679 1 -19.8554 2.69116 -8.70731 1.57068 -2.00998 -0.322861
680 1 7.88192 19.4595 -8.72779 -4.86618 -4.74104 -5.89537
681 1 -2.72616 0.608732 -8.14644 -1.91616 -4.92073 -0.555051
682 1 -3.71492 19.1521 -7.77465 2.65803 -0.175262 -0.818822
683 1 2.93813 10.6706 -19.1265 -0.954844 -0.889065 -2.61001
684 1 10.0763 -20.3942 -10.9667 -4.94809 -3.75874 0.297498
685 1 20.4546 -0.50651 8.26833 -5.73928 2.90757 1.55912
686 1 -14.5801 0.136294 18.2478 -3.34275 2.57147 5.3185
687 1 -15.7966 7.31137 9.93065 2.1742 3.05948 0.623372
688 1 -10.5828 -12.1985 -14.8901 0.273233 0.106075 -4.86103
689 1 -2.18988 -0.342359 -3.1666 -5.38363 -0.55444 -2.6567
690 1 -0.333437 21.5486 -5.89885 -0.788263 0.038035 2.36283
691 1 -0.315796 7.19395 14.1964 -2.01696 -0.774332 0.0381119
692 1 -10.019 -5.30562 5.73711 -0.468744 -0.62608 1.79418
693 1 -9.07282 23.4124 3.21339 -0.786045 2.15328 2.94437
694 1 10.2617 -18.6674 2.63188 0.92963 -3.16597 -1.10275
695 1 6.75404 -9.50996 -7.32637 -1.8234 1.1359 -1.38139
696 1 -8.17192 -21.6659 7.52417 -2.85976 1.04762 -1.40503
697 1 -20.8374 15.8877 -20.9243 -0.36724 0.563017 -4.30665
698 1 23.0338 -11.9807 -5.12968 -1.52291 -7.8245 -5.44845
699 1 -15.2659 -12.2053 16.1742 -0.489473 3.36864 4.13996
700 1 3.63244 7.07466 -22.1112 4.38785 0.401289 -0.0402778
701 1 16.1538 -0.642627 9.15499 4.15624 -4.16972 -2.76358
702 1 -14.1662 -2.67903 11.9534 4.8088 -2.11786 2.5402
703 1 5.86897 23.2455 -21.0428 1.90747 -4.75788 0.307446
704 1 -11.4983 -10.933 11.4391 1.19921 5.78256 5.8869
705 1 5.50328 21.6304 -15.1249 2.48669 0.529279 1.167
706 1 4.24961 1.494 19.6809 -2.38077 0.738481 -4.90122
707 1 -17.769 0.178535 21.4263 0.52321 2.03382 0.273232
708 1 8.41124 -5.96499 -16.8619 -2.12279 4.01335 -1.04979
709 1 -10.2249 -3.03863 -6.02472 -0.380246 -5.58641 3.6616
710 1 -3.65602 -10.1059 13.386 1.46927 2.68445 -0.778375
711 1 -14.005 -6.79706 -13.7299 0.55115 -2.72259 -0.754753
712 1 4.32687 -10.1204 14.1465 3.23457 0.698661 2.05539
713 1 2.38543 5.35817 2.85016 0.411054 -1.51091 -0.724926
714 1 19.163 -7.3916 -12.7316 1.47738 -1.51981 0.372482
715 1 2.65452 16.3354 10.404 -1.16723 1.05037 1.55604
716 1 0.498837 -22.9846 10.5423 -5.07506 -4.54907 0.715946
717 1 -12.9058 -4.6458 -15.6295 -5.59653 -5.11293 -0.266405
718 1 -12.2634 -6.78663 4.93522 0.207551 -0.449553 -0.190183
719 1 14.7529 -8.64645 11.9124 0.888043 -1.26831 1.51382
720 1 3.73213 -6.96645 -20.253 3.71859 -0.316489 3.36769
721 1 -8.63318 -10.7205 -16.4266 5.61429 -0.652895 -0.210346
722 1 8.05906 -22.5819 -13.6042 0.334081 0.560046 -1.83524
723 1 -21.3471 15.0295 -5.95976 -3.56496 -4.04537 3.79123
724 1 -8.19403 20.3584 -11.3782 0.955048 -1.88198 -2.56364
725 1 3.23745 16.9615 23.9841 -3.14166 0.491751 -0.332011
726 1 -4.65683 -7.76072 21.8807 2.5172 -0.743656 -0.428159
727 1 6.92345 -3.15499 -12.6268 -0.996191 -0.193272 3.8455
728 1 -10.8114 16.5678 -8.98206 -0.969149 -0.608172 -1.14714
729 1 -13.5818 14.1785 16.3014 -4.49467 0.655167 0.483972
730 1 14.8019 -19.9962 -18.0291 -2.29089 4.82233 -8.6937
731 1 -11.644 12.9465 23.9298 0.665322 4.99195 1.91424
732 1 12.5207 -22.1872 -8.03586 2.53007 -1.81611 2.70386
733 1 -14.3627 -18.1087 5.20952 -0.611659 -2.58374 -0.943548
734 1 -20.2218 21.3655 18.0164 4.9739 2.00198 4.27889
735 1 16.7899 9.59438 6.98329 3.50015 2.42623 -3.37448
736 1 4.11862 20.598 -7.22867 3.60926 6.56962 3.55425
737 1 22.408 -16.1059 6.90697 -2.91201 -1.79718 -3.38638
738 1 -11.3422 7.132 14.9153 0.500684 2.32976 1.9812
739 1 -17.7503 -20.0546 1.79803 -5.7099 2.27218 -2.53093
740 1 16.7846 11.5033 19.3297 1.69151 -1.79626 1.68709
741 1 -16.4148 -20.2582 -14.7444 0.475725 -1.01302 1.66275
742 1 -6.48952 -23.8029 22.2818 -2.49552 -3.79495 -1.3668
743 1 -23.2932 21.871 1.22344 1.57372 2.12656 -1.23824
744 1 8.1051 -12.6715 -11.8127 -1.77535 -0.201542 -0.283018
745 1 -22.442 1.20554 20.6699 3.0146 -4.38187 -2.7151
746 1 -16.5166 -7.111 23.6729 2.6528 -0.220704 2.76126
747 1 11.4637 -10.7035 2.99038 -3.08152 -3.16504 -4.12637
748 1 -10.1925 -21.5401 21.5368 1.03257 -1.50907 0.529112
749 1 0.0783244 13.9374 7.96272 1.68146 -3.01897 0.927059
750 1 15.8905 -6.27854 -11.7477 3.36524 2.85175 -4.64606
751 1 -19.8358 12.0902 -14.5569 1.63746 1.68258 -2.03374
752 1 23.4233 -20.6859 5.52934 -2.72803 2.32895 4.76551
753 1 -18.3878 -18.4385 22.7265 4.79465 -0.8544 4.96655
754 1 -13.9605 23.9652 15.5595 -0.739644 -5.34563 -3.13308
755 1 12.9289 9.89782 -23.3553 -5.76027 1.63158 1.48307
756 1 -4.72348 -2.7322 -1.5985 -2.02884 -0.89305 1.74096
757 1 -18.2928 14.2522 -3.26815 -3.86299 0.193479 -1.33865
758 1 -15.4678 -17.7076 20.5808 -6.65318 -4.08378 1.34818
759 1 0.849789 12.2096 -10.8553 6.06479 -1.24683 2.57215
760 1 1.31712 5.14561 13.7984 0.300439 0.551771 -0.861681
761 1 -10.9055 -12.6729 -7.23083 -0.218356 -5.63901 1.871
762 1 4.18406 18.1284 21.5756 2.49386 5.25714 -0.823634
763 1 16.3054 4.49219 7.84022 -2.48649 -0.682107 -2.14623
764 1 20.6591 4.5907 6.96675 3.90102 1.12297 4.17933
765 1 21.8472 9.22129 7.40909 -0.73272 4.65116 -1.88402
766 1 -11.101 19.4796 -15.9632 -3.23983 1.05925 0.683127
767 1 -2.06777 -12.6359 0.5893 1.26028 1.63542 1.89014
768 1 -7.6047 9.61603 9.92366 0.804188 -0.976711 -1.47598
769 1 14.4752 25.7738 19.2515 -1.29792 -7.01133 0.589529
770 1 -4.22046 22.7087 -23.6778 1.09993 -4.57592 -0.515361
771 1 10.7723 -17.5798 13.4677 -3.59579 0.409954 -0.0342617
772 1 7.94947 8.28379 5.89034 -0.289931 -6.38916 0.762149
773 1 11.4163 -20.9998 12.0738 0.228592 2.72861 -3.10024
774 1 18.1398 17.0503 12.6847 1.1167 3.93705 -1.94221
775 1 20.4774 -17.8562 -11.1799 1.12171 -0.473846 3.54987
776 1 9.08593 -0.514262 -21.7415 -1.38585 -2.07836 -1.70149
777 1 23.2791 -10.4089 -9.85461 -1.66745 1.64253 1.76694
778 1 1.79495 -17.6499 -16.4469 -0.298643 4.09011 -1.96126
779 1 8.30827 1.97812 -7.74519 -2.07289 -0.577795 0.896465
780 1 -6.12241 -8.95709 -19.7602 3.0883 4.90976 -0.810783
781 1 -19.261 2.80572 6.21306 5.78868 0.0467276 7.11684
782 1 18.0188 -8.19416 -15.2765 5.06542 -3.11967 0.163912
783 1 4.04434 -16.2021 21.7997 -2.85988 -0.696813 -2.47168
784 1 13.2742 16.6166 -3.7 -1.02254 -1.0569 -2.88106
785 1 -1.96576 22.5293 21.3836 0.895007 5.6373 -0.108657
786 1 -22.3855 20.401 22.7981 4.09018 -0.801453 -7.24598
787 1 9.95058 13.7789 -11.4771 0.979985 1.27291 1.99634
788 1 -20.4779 6.72526 4.05455 3.0809 6.1383 -0.962934
789 1 -14.013 19.6356 0.699502 8.64129 2.25107 -1.01308
790 1 4.448 -0.591598 15.4308 -6.26707 5.84416 -2.34452
791 1 -3.10295 23.3099 14.3743 0.533097 -3.43945 -2.267
792 1 -22.1228 13.7228 -8.55381 0.455744 3.11086 1.83672
793 1 -24.2428 -9.42678 1.29826 -0.619262 2.38805 -3.16818
794 1 6.0889 15.9043 -23.7559 -1.36272 0.155779 -1.38807
795 1 20.3307 -7.04739 21.526 -1.03277 -2.89144 -2.0827
796 1 -12.182 -17.0902 -15.0316 -0.0631876 -1.97858 0.101999
797 1 -18.6064 -13.2228 13.6243 1.96184 -0.856434 0.478942
798 1 -15.5451 1.50041 -7.33936 -1.60842 5.84742 2.64315
799 1 -9.40793 18.3706 -4.88346 -2.66544 -2.95641 -1.99865
800 1 -19.3357 -11.8 17.8702 -2.05003 -2.10921 0.493698
801 1 19.9943 15.275 -1.22777 0.977033 3.2216 -2.86581
802 1 -20.459 -20.0299 14.9901 0.598236 -5.44472 1.18154
803 1 20.2382 -10.8317 -7.96189 0.0736323 2.10756 -3.29164
804 1 7.65245 -19.5919 -9.64057 4.39023 -4.45157 -7.31595
805 1 9.75181 23.3578 23.0593 1.35511 2.67317 -1.44835
806 1 -0.779762 -12.6654 12.7745 2.81634 2.8999 0.726179
807 1 15.3454 22.2274 -23.0218 4.25582 1.5685 0.506141
808 1 -1.3185 -19.4251 -9.98542 -2.31006 5.10065 -0.913773
809 1 -4.72755 23.2704 -17.9064 -6.56533 -2.4333 -0.975546
810 1 -20.2442 -12.95 -5.01769 -2.3256 -0.785296 0.0579115
811 1 -12.2649 -5.10196 -5.73267 1.51872 1.78032 -0.456384
812 1 2.24005 -12.608 -7.53166 -1.9302 0.372724 5.96263
813 1 -15.5857 24.0673 -17.1294 -3.64155 -2.12104 -2.82282
814 1 -20.8272 -0.388336 -2.44343 0.0774916 0.694722 -3.81618
815 1 -20.3994 11.4109 -17.296 1.40041 3.89565 -3.88985
816 1 20.4724 -17.7895 19.0056 -1.19553 -5.27954 -3.57196
817 1 9.76522 -9.63484 17.2186 -0.460106 2.65524 0.55447
818 1 -9.09684 7.88403 20.9658 -1.48553 4.15966 3.36985
819 1 10.2971 12.4184 19.7788 0.320021 -5.12635 -3.10787
820 1 3.07085 13.1168 7.92401 2.90251 0.420114 -5.42553
821 1 -24.1871 -24.7896 -22.1709 -5.07927 -2.91617 0.213831
822 1 20.1104 -16.2165 14.8538 0.949062 -0.309848 -2.72194
823 1 6.21555 -9.45869 3.24675 1.83415 -3.6454 0.259427
824 1 3.68985 -20.8745 -7.25085 -3.13313 -6.98928 1.75922
825 1 -23.7473 4.06282 5.58363 -2.76748 -6.51723 0.721099
826 1 -12.4736 7.23138 -4.20375 -1.17252 -2.18946 1.06464
827 1 -3.06065 -0.623122 5.8766 0.691996 -1.31691 0.69793
828 1 -7.39996 -20.1135 11.8816 -1.35248 3.37804 0.471729
829 1 19.7226 14.8877 21.47 0.409226 -1.93638 -4.28007
830 1 -10.2102 -9.7509 20.9044 2.90942 2.37092 2.22294
831 1 1.29701 -15.5312 -23.6358 2.40265 -2.94129 -4.9804
832 1 -5.42066 -1.60897 10.2151 0.450204 4.48452 3.70998
833 1 -10.6751 -4.52765 -8.67 2.55972 1.9652 -0.447068
834 1 0.888096 10.7143 -0.530316 4.39011 4.11674 4.51016
835 1 2.30426 6.21721 -19.4575 -10.0844 1.23859 -1.02029
836 1 4.59095 -13.4413 20.6898 -1.77933 1.16607 -1.63482
837 1 -19.692 -14.9031 -6.99949 0.820257 3.85741 4.35007
838 1 23.4749 -19.989 2.54234 -0.512622 0.7913 -3.24897
839 1 -23.7328 20.4163 -8.46737 -0.972583 0.139128 -0.540631
840 1 3.61638 -17.1326 13.3765 -0.164632 -1.39108 -2.71398
841 1 18.4942 1.23649 9.6669 6.54783 -3.99395 1.5345
842 1 -6.23263 -23.5493 -1.80226 -8.65864 0.388641 2.46896
843 1 19.8876 -3.91221 17.4811 -2.36765 0.412913 2.38077
844 1 16.9931 -19.5898 -21.6734 -4.70783 1.09218 -2.49144
845 1 19.3249 8.56475 -1.68615 -3.88944 3.47577 4.3985
846 1 9.19026 6.86311 -11.4336 2.59187 -2.31114 -0.240641
847 1 -15.3574 -23.589 -13.4963 0.825973 -3.59177 -1.54039
848 1 -5.78021 16.4025 -14.5125 0.701276 0.700455 -5.76594
849 1 21.8721 -13.02 -9.60862 1.84494 -1.6158 0.513384
850 1 14.9709 -20.9504 -22.762 -6.61912 0.72235 2.99536
851 1 -22.8684 18.0611 -15.2406 -4.74914 -0.607669 1.23523
852 1 12.5617 -2.67007 -1.47666 6.01415 -0.815914 1.07647
853 1 12.7362 11.8198 -15.1279 -1.45052 -2.0504 3.06322
854 1 -23.1383 -13.4622 3.50007 0.763108 -6.40784 -0.184151
855 1 -16.2395 24.1664 -20.0745 5.40569 1.41709 0.0341053
856 1 -21.9165 -2.97035 -8.0778 -4.20922 3.18528 -1.52188
857 1 -24.3556 -4.99364 10.112 1.74321 -0.477223 -0.368085
858 1 17.0311 -12.6573 14.0533 -0.11611 0.348519 5.32333
859 1 -13.5141 -7.64194 0.0432455 -3.96518 -1.46192 2.97308
860 1 9.92457 -9.05488 -14.9371 1.52479 -2.60973 6.05886
861 1 -23.5868 21.1811 -12.446 -3.51808 -4.41106 -1.84698
862 1 0.61716 13.1748 -8.2407 3.37428 -0.287428 3.56831
863 1 18.3128 -16.6269 6.22933 -5.55119 5.44581 -0.832104
864 1 -16.3754 4.75136 18.817 4.42974 -4.59511 -4.42454
865 1 -0.24935 -21.234 12.7865 0.151796 -2.06163 -3.87149
866 1 14.1502 -2.5265 20.472 0.453057 3.57711 -0.925016
867 1 -0.355147 11.7792 19.386 1.99211 2.44906 -4.48864
868 1 -0.0928285 17.4802 -4.57737 0.775051 -3.61721 2.32951
869 1 0.798991 17.6256 2.45185 -4.14678 1.18398 -0.489257
870 1 15.0459 20.0208 17.7359 -5.8871 1.48713 -0.576386
871 1 6.19785 9.13586 -17.4043 -1.93818 -4.92748 -4.31532
872 1 -1.96061 -7.33462 -20.3271 -7.61332 1.77337 -0.779585
873 1 -5.64636 -0.812859 -23.7163 -3.12318 -0.477464 2.83061
874 1 9.52328 0.839707 0.332031 -1.6772 0.43219 5.29003
875 1 20.8555 12.8455 9.15317 -2.30431 -2.208 0.869861
876 1 13.7227 -15.5221 -7.22483 6.05491 0.248129 2.0693
877 1 2.727 -18.3338 17.6296 -2.54632 -0.264596 1.00584
878 1 8.94738 12.1076 -23.4736 1.44946 4.20246 -1.29785
879 1 16.4764 5.08601 -18.2577 3.61681 -0.12357 0.77132
880 1 5.05476 14.5493 19.859 1.01639 -5.94002 -0.605107
881 1 -2.14944 -3.7975 19.6183 1.7408 -0.458001 1.1935
882 1 -12.4688 -2.67498 -0.968324 -0.385858 -0.322928 3.33967
883 1 18.4001 16.3137 -6.7504 -1.63607 -1.20871 -2.42508
884 1 17.9922 -18.2851 -15.9729 -2.10773 -4.36289 2.52222
885 1 -5.05651 -20.0295 -3.7124 2.39866 0.2189 3.36991
886 1 -6.3236 23.2124 3.24428 -1.66377 -2.81328 -3.79629
887 1 9.44655 -23.0136 19.2512 0.0394311 6.49457 -1.246
888 1 -7.81815 13.6599 -18.0796 0.050183 -2.82738 -1.96488
889 1 -15.4646 -1.93462 16.2466 1.98393 2.45884 -0.566159
890 1 13.0561 -20.0356 14.374 -2.0721 -1.307 0.604164
891 1 -22.353 -2.22162 4.27986 1.06313 2.01789 -0.776411
892 1 4.13094 -9.10134 -3.51511 0.728694 0.105824 -1.3997
893 1 19.1594 -4.33806 2.65206 0.369311 6.95598 0.886067
894 1 2.17361 13.2616 23.3634 -0.026909 3.21004 -2.86269
895 1 3.24911 -24.5619 7.03643 1.45367 0.263244 -0.80715
896 1 10.8208 -2.04026 22.7832 0.909237 -1.17424 2.41348
897 1 -12.0372 -23.4805 10.7716 0.762854 -3.32474 -0.39755
898 1 17.5399 0.261639 -22.8488 -4.2349 -1.746 -2.04094
899 1 13.2541 -18.5762 18.7985 0.957062 -1.20457 -7.26154
900 1 -13.9434 -14.8504 -12.4613 0.107648 -1.47153 2.24778
901 1 3.28288 -21.1486 9.45405 1.49603 2.39072 -1.28479
902 1 -8.07697 14.5677 -0.139377 -0.348191 3.99293 -0.268143
903 1 -6.98705 23.6226 -19.4634 -1.43836 -2.36728 0.817979
904 1 -8.80577 -5.68742 -5.48305 0.752169 3.49797 -0.611208
905 1 22.54 -7.85536 -23.0442 3.32472 -0.365018 3.34616
906 1 -7.43394 -23.369 18.0848 4.72125 4.12727 -7.9219
907 1 -15.4421 0.996173 -11.0655 -0.952748 1.81641 -4.85793
908 1 -9.25955 -17.8428 12.6834 3.22755 1.69991 0.548525
909 1 16.0649 -22.2275 11.2069 -2.07567 0.394894 -4.21233
910 1 -9.38298 4.37552 -3.92251 -1.66885 4.80646 -0.527311
911 1 -1.38949 14.8876 -23.3247 -3.66002 3.19122 -5.87102
912 1 -14.7639 22.8296 -7.91269 1.16903 -1.68341 3.00263
913 1 -5.42318 21.9169 14.8803 1.88353 -4.74781 -0.105396
914 1 -23.3236 15.8049 9.07034 -2.56318 0.502062 2.9257
915 1 15.3511 -7.33905 -14.3355 -2.5458 4.8103 -0.468104
916 1 -18.1657 -17.2866 20.0681 -0.804356 0.683538 -3.05297
917 1 21.6135 2.96508 -20.8746 4.62896 0.988696 2.14128
918 1 -4.80115 9.40194 1.02904 8.54065 1.7713 0.910275
919 1 -10.307 18.4594 11.1457 -6.44869 -5.03885 -1.32381
920 1 0.857624 14.4531 -21.6207 1.31639 2.2134 3.48352
921 1 8.6032 -10.3299 -19.8488 -0.84108 2.01517 -1.86177
922 1 -11.9515 2.2744 -18.9004 -1.78375 -1.63795 0.272265
923 1 1.97675 -10.2177 0.735841 4.0559 -1.00273 0.675079
924 1 -7.05499 16.6578 5.99407 4.16928 -2.88051 0.290138
925 1 1.49495 12.2957 -3.1018 2.99876 0.547433 -2.86365
926 1 1.54812 -15.0176 8.68966 -0.518972 -0.292511 -6.8098
927 1 7.07339 14.0629 17.7825 0.231812 3.80356 -1.67987
928 1 8.52649 -18.1217 10.1721 0.177047 -1.80017 -3.37131
929 1 -6.34301 -13.9652 -5.37807 -5.19392 3.64362 0.810469
930 1 -18.818 -15.9978 -12.4101 -2.1927 3.40513 0.824192
931 1 17.2435 -1.49001 -6.46851 -3.6038 -0.886446 2.04834
932 1 -17.7288 16.1096 15.3856 -0.209447 -1.51778 1.8875
933 1 -18.0957 -21.9782 -23.3215 -3.48964 -1.10977 4.10954
934 1 -1.24819 19.0915 -21.9496 -0.044603 4.60307 -3.31779
935 1 23.5037 -11.0159 -1.0605 0.950319 0.157538 1.16526
936 1 8.18047 11.7543 13.1531 3.5777 -1.81861 -2.20616
937 1 2.70828 15.5779 21.5215 3.37798 4.46358 -0.154502
938 1 18.0881 10.2514 4.39665 1.05605 1.57906 -0.485612
939 1 -7.37169 -12.8745 -18.3733 -2.31582 0.588979 1.94724
940 1 21.0865 1.10529 -9.47405 1.72841 -0.770098 -0.77323
941 1 -20.827 22.6147 7.72663 7.0362 -3.89554 1.84767
942 1 -6.91801 -15.7663 -18.0135 -1.27867 -1.77004 0.133889
943 1 16.6993 -5.70818 2.89157 2.76076 -4.35074 1.45139
944 1 -16.031 -3.03663 -23.8316 0.761665 1.92862 -5.6008
945 1 5.72681 46.9095 17.554 -5.02059 1.77291 0.435689
946 1 -13.0017 -9.44859 5.86734 1.51418 -0.0507014 -2.30238
947 1 -9.56055 15.878 19.4287 -1.42576 -1.13703 3.41506
948 1 -20.9461 5.56398 -6.09509 -3.7658 -0.984448 2.20006
949 1 -1.6613 14.2602 20.8185 0.990842 -0.499983 -2.87068
950 1 -20.4763 6.44817 12.2522 1.24552 0.633284 1.05287
951 1 -10.8598 -24.1659 -15.0988 1.53169 1.96344 -2.93554
952 1 11.4504 -14.2359 -9.78099 -4.87082 -1.78318 1.8411
953 1 16.7831 -2.06883 2.75586 -2.66937 1.53297 -0.438122
954 1 16.0055 6.52071 -12.2087 2.43349 -3.78959 -4.83646
955 1 -11.7165 19.2798 -18.9434 0.550286 0.552512 3.10976
956 1 -11.7142 -6.54285 -10.6487 -6.35199 -4.63556 -1.96222
957 1 -4.3353 -2.6868 13.821 -2.95806 -1.51722 -0.394414
958 1 3.35973 13.5592 17.6663 6.047 -3.30984 -3.21312
959 1 -15.5261 -18.2933 23.3354 -3.74894 1.09541 -0.982041
960 1 -1.71808 -22.5408 4.04809 3.66386 -0.113635 -1.58744
961 1 -5.78107 13.178 1.23469 -0.602377 -1.3531 -0.671966
962 1 -3.56759 7.14967 -7.95645 0.936214 -0.48881 2.22854
963 1 -16.1331 25.9814 -12.2128 2.91619 1.94346 1.9205
964 1 12.5159 -16.0382 -23.1104 0.669974 0.582472 -0.225416
965 1 -12.8593 11.2557 7.49027 3.0035 -4.39244 -3.48309
966 1 -17.4879 -6.78483 15.0759 2.22283 -3.83688 -1.78059
967 1 17.9885 -5.02344 -13.6489 -2.57017 6.63385 -0.824899
968 1 -0.933561 24.1763 -16.5032 0.624729 3.27216 -2.41632
969 1 16.3889 -23.2118 2.74794 2.64408 -0.835623 -3.42678
970 1 -4.70207 -23.5432 -9.24053 0.186508 0.646315 0.127643
971 1 14.1652 -6.03177 22.5579 -2.80932 1.3075 0.908794
972 1 -8.57788 -18.1966 -1.08323 -2.72635 0.904992 0.223792
973 1 -12.3632 -1.3883 17.6094 -0.705837 -3.32756 0.155975
974 1 -0.347573 23.8592 -13.685 -2.1655 0.280294 -5.18394
975 1 -9.60776 -10.9288 9.09487 -0.997066 -4.77338 -4.31686
976 1 -18.5089 -6.09738 11.2022 -0.954764 -0.0150106 1.1545
977 1 3.86689 -22.4304 13.4535 2.12384 -1.07632 -5.43622
978 1 3.67199 14.5648 -22.6438 3.14309 1.75055 -3.84862
979 1 6.60328 22.733 -18.2414 2.23047 5.20687 -0.0580361
980 1 4.80455 22.603 11.4305 -1.30864 -3.78031 3.5797
981 1 5.87826 -1.94898 -5.00422 -1.18196 5.82075 -0.930319
982 1 -6.44873 -6.77253 5.3878 8.97597 -0.744738 -1.3033
983 1 -21.8734 7.49906 16.7151 2.67123 -3.2472 0.47752
984 1 -14.3909 17.8524 -5.80469 -0.712438 -1.96718 2.38999
985 1 -17.1566 17.7147 11.893 -1.2379 1.10081 -7.61571
986 1 -1.15459 4.24997 11.1211 1.70767 -0.0152034 -5.52752
987 1 -23.0677 -19.8733 12.0782 -1.29679 6.18093 1.1913
988 1 -10.2463 -23.6946 8.35001 -0.757593 1.77879 2.49812
989 1 8.36114 2.39392 -3.48439 1.06427 -0.980231 0.884836
990 1 12.2316 -6.99325 11.9425 -3.46107 -2.76889 1.44343
991 1 -6.26112 -6.67652 8.03507 0.889596 -3.07478 -2.37642
992 1 -21.8258 10.9425 4.977 -0.769996 -5.21164 2.56273
993 1 -23.1 2.49215 -22.6169 5.32754 -6.56614 -2.51861
994 1 23.1275 -17.3116 18.2898 -1.46139 -0.964661 -3.01225
995 1 7.00538 2.33135 0.625289 -2.30473 7.53579 -2.23246
996 1 21.0235 11.5088 -15.9701 4.76878 -3.04666 -2.11369
997 1 -23.4335 22.918 23.6405 -0.461351 0.693297 -4.24384
998 1 -1.51462 10.1427 11.3871 -2.3586 0.00666052 0.339964
999 1 -24.4574 11.2057 6.78435 -2.22582 2.07141 -2.16476
1000 1 17.3062 16.5163 -9.39175 -1.0924 -1.54409 -0.492385
1001 1 -19.5069 -2.41022 -6.31605 -1.31764 0.00789755 4.87372
1002 1 -13.6433 -15.751 3.8568 -2.2347 -1.08157 1.90451
1003 1 12.0245 -15.7416 10.6732 -2.43583 0.401163 -1.91682
1004 1 23.3903 24.3372 7.503 -3.01623 -2.60217 -5.40236
1005 1 -14.4297 16.9948 1.98656 1.14056 -1.56377 1.79876
1006 1 -23.3483 11.116 16.5464 1.76037 0.792102 0.531575
1007 1 13.1236 -0.037538 18.62 -3.41714 2.42018 0.0615716
1008 1 4.72899 -5.48102 16.7235 -1.51967 -8.75372 2.15847
1009 1 7.91237 -19.0575 4.70049 0.93319 3.19882 0.345487
1010 1 -14.2295 3.25664 -9.76431 1.44662 -3.28711 0.839843
1011 1 -18.5216 2.39379 -0.987713 -2.23372 -5.63879 0.0154703
1012 1 0.797088 4.02415 -1.34442 1.50178 1.98736 0.440606
1013 1 4.88192 -16.6833 3.05002 -1.84636 -3.54628 2.63948
1014 1 -19.9934 -23.9313 4.20603 -2.43807 -2.96983 0.81603
1015 1 0.748787 7.11856 -22.508 -6.78951 -0.872479 3.31313
1016 1 -22.9951 4.27497 9.39741 0.055671 3.02704 -0.886569
1017 1 -8.52486 2.41496 14.949 -0.921756 -1.92772 -0.316304
1018 1 -22.1755 -20.593 6.67343 3.81547 -4.48871 -1.50763
1019 1 5.86831 15.9543 3.2227 -0.862764 -2.85286 -1.11376
1020 1 -19.9608 46.4597 10.7681 -0.0798442 -6.80671 -1.8064
1021 1 21.5402 -19.4079 -4.52596 3.86976 0.210901 0.478698
1022 1 -9.84618 -21.189 -11.0187 -2.13738 -2.59395 -0.476008
1023 1 10.6198 -1.50342 5.12741 1.46006 1.49463 -0.830035
1024 1 -3.37471 7.40147 -23.836 -1.13509 -0.105307 -1.13891
1025 1 8.62854 4.06836 -18.962 2.63718 0.472582 -0.533049
1026 1 4.39945 13.2825 -10.9142 0.165089 -3.52897 -8.06279
1027 1 -22.7614 -4.22934 12.687 3.91082 4.28574 -2.89845
1028 1 -8.0407 -12.508 -12.5409 2.92107 -2.53574 0.744077
1029 1 13.096 11.1525 -1.37554 -0.828339 -2.34203 1.7225
1030 1 -18.9198 -17.0907 -22.8046 -6.2941 2.00351 5.79714
1031 1 -4.83417 -11.4386 -5.28171 0.0542328 0.418383 1.15148
1032 1 12.1494 6.44261 18.5019 -1.05868 0.411132 3.17191
1033 1 -4.31981 -16.7794 2.91802 0.905724 -5.66816 2.62665
1034 1 -14.5574 12.3237 -10.9529 -2.68105 1.33778 3.09116
1035 1 12.4172 19.428 -3.08616 2.99994 4.06149 0.800954
1036 1 2.64523 -14.2858 18.5966 -1.12723 0.531181 -5.53678
1037 1 -13.2459 -18.6563 16.2866 -1.46575 -2.63207 1.19307
1038 1 -1.63852 7.16341 11.548 -1.78862 2.06314 -4.27687
1039 1 20.9472 21.5719 -9.88693 -3.55156 4.40525 0.906761
1040 1 9.76543 -3.33481 -21.772 -2.21253 -1.57734 1.91538
1041 1 -2.81743 8.66512 -14.1531 4.89482 -7.10064 -2.90724
1042 1 10.9064 -8.84414 -23.9707 2.99528 -2.99994 -3.1667
1043 1 16.1647 9.74087 -4.16264 -0.389533 1.74638 0.667263
1044 1 -4.30039 22.3874 -13.42 -2.31376 3.75081 3.08653
1045 1 -6.03897 -2.33007 22.2062 1.49422 3.30633 -0.783553
1046 1 16.6044 16.5854 -16.0756 3.40861 -2.04256 0.212403
1047 1 -18.4197 1.58223 18.4022 0.243595 -1.45221 4.50509
1048 1 -0.0926488 0.622768 19.8262 -0.715255 1.40425 -3.5123
1049 1 22.1643 -1.21028 -11.7992 -1.14809 2.14428 -0.312032
1050 1 17.7891 21.1102 17.5654 -0.706885 2.61177 -3.31434
1051 1 2.26486 0.0873059 8.78102 -0.467996 3.69058 -4.39127
1052 1 -20.6689 -3.77258 -20.253 3.14596 -2.49937 -10.4613
1053 1 5.19851 6.61534 -18.9409 -1.1255 -2.39528 2.12547
1054 1 -16.3231 22.2069 -1.96716 -2.05792 2.21715 -4.29261
1055 1 -7.48617 16.2991 13.7314 7.59419 -2.52189 2.03503
1056 1 -9.34659 20.062 5.90142 -0.424543 -1.34869 0.500399
1057 1 -9.50538 -18.0045 -15.639 1.51075 2.27717 1.23616
1058 1 1.24918 -3.44677 -9.57742 4.60923 2.27724 -0.472645
1059 1 3.93782 -22.1195 -15.9228 0.0423354 4.47134 0.276242
1060 1 -18.0524 -11.5247 6.32316 4.20273 -1.60237 -4.64281
1061 1 6.87141 7.7964 -13.1112 6.21266 2.93962 -2.60969
1062 1 -7.83866 0.355373 10.8174 -3.18932 -5.81491 -2.78369
1063 1 1.32525 19.907 10.5705 -2.60342 0.200385 3.9059
1064 1 15.594 -17.1581 6.1114 -4.26867 -0.0934804 4.40993
1065 1 14.4965 20.4304 -18.176 -1.48097 5.11037 6.30488
1066 1 13.0967 -3.43234 23.3474 -1.15595 1.32597 3.39448
1067 1 -20.7927 6.19281 9.23937 -1.07833 -1.50955 -1.69828
1068 1 -2.71879 18.2632 0.402403 2.73835 0.0571821 -0.0890527
1069 1 -23.453 17.142 -20.726 2.69464 0.387399 0.345686
1070 1 -7.12954 7.2715 11.5054 -3.97213 -0.265072 0.140009
1071 1 -18.5205 24.6729 -12.2784 0.754747 1.04274 -2.89934
1072 1 13.1318 8.7021 -18.4235 -0.593795 0.731814 1.03976
1073 1 -1.99994 -24.088 -10.753 -1.31285 -2.98741 1.85095
1074 1 -10.2997 12.2066 -17.254 1.08409 -2.7436 0.53078
1075 1 0.536758 11.3244 15.6768 -0.406221 -2.20717 0.921393
1076 1 22.8608 7.53145 22.9065 1.49135 -5.47947 1.46476
1077 1 16.1335 -8.8587 -7.74836 0.713712 3.96145 1.19072
1078 1 8.00862 -8.34741 12.8337 -3.25852 0.959213 2.20825
1079 1 -15.4904 -0.0779418 11.0174 1.96268 -1.18473 2.06831
1080 1 -18.965 -6.54205 -7.02647 3.48364 0.788217 2.50887
1081 1 9.09444 -7.53445 15.4606 0.186117 0.974615 -1.81417
1082 1 -18.5352 -17.8099 -6.9383 -1.61981 3.05166 2.28638
1083 1 0.197529 20.6452 -19.6846 5.47061 -3.44704 -0.922524
1084 1 -2.79132 -16.0787 -4.50774 2.32859 2.0034 3.11947
1085 1 -10.4145 -15.2185 -3.51561 -3.85386 -6.21396 1.34612
1086 1 -10.9358 10.0704 -5.79258 7.2402 -2.38187 -2.18955
1087 1 8.60105 -1.84101 -19.2993 1.71152 -5.61587 0.203162
1088 1 -21.425 24.5208 3.4547 1.05698 -2.59037 1.93294
1089 1 -16.7587 8.01952 15.6383 -0.269798 3.75162 1.19297
1090 1 -20.2044 -18.5019 -12.2766 -3.60911 1.44992 5.59942
1091 1 -14.0124 9.39334 5.43223 -0.109787 -0.506914 -0.620193
1092 1 -20.6219 -18.5687 -5.42634 2.08408 -3.01516 -0.912258
1093 1 22.7707 8.12253 4.16694 0.850683 3.75572 2.60601
1094 1 23.6713 18.1766 -23.0436 0.0180827 4.49653 -0.642267
1095 1 -6.75456 22.7395 -12.1989 3.3649 1.63974 4.41171
1096 1 8.70199 18.5047 -12.4069 0.862397 -1.09646 -3.45949
1097 1 16.907 24.4465 14.2566 -2.94538 1.65514 5.48164
1098 1 -12.3944 -3.76103 19.1071 -5.06124 -4.02509 -5.24386
1099 1 17.209 11.0478 14.6067 -0.719738 4.01544 0.32611
1100 1 8.95542 -7.81679 19.3608 -2.55242 -1.3542 -1.97683
1101 1 7.39524 -14.6035 11.4751 0.107956 -2.33556 0.782673
1102 1 14.3443 -13.3574 16.3285 -1.74653 -0.608217 1.12996
1103 1 22.1444 7.21377 15.1675 1.65444 0.506309 0.294018
1104 1 -22.2993 -1.6848 8.4232 -0.840718 -2.11604 3.38984
1105 1 21.7309 1.26302 0.112435 -3.24039 -0.374686 -1.62263
1106 1 -17.0676 -18.7752 4.56348 2.46682 -5.75594 1.7066
1107 1 2.72836 -12.9186 0.186168 -1.31123 -0.166656 3.99888
1108 1 15.782 12.8011 21.715 -0.242484 -0.728407 -5.0385
1109 1 -18.1083 -9.27461 4.60774 3.87794 0.984311 0.623381
1110 1 -12.3143 24.6758 8.59347 -3.27236 -1.31919 2.22588
1111 1 12.6284 -9.73322 8.50802 0.0221205 -1.88789 0.8975
1112 1 -2.73489 -15.1431 18.8163 1.87336 1.36767 -2.95263
1113 1 -19.739 20.5459 23.5818 -1.3915 3.57587 0.188734
1114 1 -18.1254 -3.17136 9.91292 -2.7332 -0.427732 3.80856
1115 1 22.6896 22.8986 -22.6745 0.783905 -1.72856 -1.90218
1116 1 -15.1617 -0.496139 7.1915 2.85336 -1.69687 -3.35851
1117 1 -5.44744 14.0722 9.86178 -0.450522 3.67529 -2.45637
1118 1 20.2566 -3.18887 -12.8429 0.0598803 -1.89585 2.25619
1119 1 7.44814 -10.0622 5.78559 -3.96462 2.256 -3.55634
1120 1 -6.28289 -14.7 -2.46006 -1.17316 2.06319 5.62385
1121 1 11.158 -5.68275 -20.394 1.76151 -2.99198 -2.45116
1122 1 -8.24994 22.8098 -1.54974 -1.9431 -2.15872 0.530193
1123 1 15.5706 -7.20208 -3.09642 -2.11647 4.07485 6.53295
1124 1 -2.56195 13.5751 -16.5046 -1.932 -0.541008 0.888368
1125 1 -22.1676 6.79991 6.6383 -1.53861 1.8537 -2.83278
1126 1 -1.13011 -13.5415 -9.93509 4.58944 3.53256 1.1764
1127 1 14.5318 19.3106 -7.74325 -4.29667 -0.734057 1.07144
1128 1 1.03851 13.7145 -0.447873 2.18368 -1.99679 1.03416
1129 1 0.330397 -8.29813 23.6553 -0.154423 -0.0487222 -0.611921
1130 1 -3.02637 15.0435 -14.2393 -1.28872 -1.23604 2.88901
1131 1 19.4364 -8.22802 -4.73416 0.327778 -2.62286 -5.00106
1132 1 21.7066 -5.66891 19.3405 -3.98733 -1.03967 -1.08078
1133 1 10.4549 12.7251 16.7925 5.46043 -3.1778 -1.40496
1134 1 13.4835 -21.0806 20.3325 -0.495403 -3.08209 1.32021
1135 1 4.65405 -0.329703 23.3231 -0.964898 -1.90206 0.289218
1136 1 -20.9537 -22.6242 -22.9854 1.67065 -0.628108 2.03946
1137 1 5.38282 3.92401 2.64466 5.02966 0.931623 1.11063
1138 1 -22.2076 -23.3985 5.92837 2.90541 -0.323185 0.538062
1139 1 -6.75709 9.38781 4.15074 -1.40441 -1.95627 -2.85047
1140 1 14.3642 -8.22725 -19.4328 3.28037 0.609477 -2.61554
1141 1 -19.5967 8.76174 10.4983 -0.245097 -1.19333 -1.32797
1142 1 7.55214 13.9531 7.02234 0.958018 2.01426 -5.092
1143 1 -0.625668 -9.20596 -13.0644 2.59357 0.510818 -1.84445
1144 1 16.288 2.55256 -13.3555 -2.22918 -0.173012 -1.48052
1145 1 2.32978 21.7992 21.5693 -2.94155 -3.40771 -1.78238
1146 1 10.6223 16.764 18.6383 5.14487 2.63786 0.640806
1147 1 -7.35406 10.5538 0.532759 6.68139 -0.644942 2.56669
1148 1 -10.6955 8.90646 12.5187 1.17444 4.29819 2.14129
1149 1 1.3698 -16.1015 11.3081 -1.46503 1.08789 -1.23799
1150 1 -13.2114 13.8568 8.13146 0.454563 0.897796 3.52183
1151 1 -23.9351 -22.3846 20.2945 5.84498 2.55968 -3.07803
1152 1 -14.0434 14.244 19.0353 1.40629 -4.24632 -2.792
1153 1 -4.24229 -20.6926 0.883087 0.78654 1.00584 -2.38904
1154 1 2.87064 10.1916 -22.0283 -0.757792 -4.95674 0.188718
1155 1 5.03215 -21.1524 15.8479 0.240809 -4.85548 2.22953
1156 1 -17.9783 -12.2687 23.7722 -3.23661 2.9243 0.640294
1157 1 5.82755 2.29006 -9.52986 0.343555 -4.86285 -1.36403
1158 1 -15.9294 2.31992 19.8615 1.02598 -2.06902 -1.15584
1159 1 22.4254 -4.62225 15.0661 -3.74747 4.76529 0.836508
1160 1 -9.97872 4.65431 -9.92874 1.32067 0.683119 2.49421
1161 1 -9.20026 -23.9284 -18.8435 3.03203 -4.62696 -1.51867
1162 1 9.99604 9.64239 2.43673 0.181837 -2.41333 2.27743
1163 1 -18.6072 -24.22 14.0802 -1.31388 -3.49387 0.487735
1164 1 -19.3442 -14.987 9.5749 -1.89983 7.14536 3.82142
1165 1 18.8089 23.9781 -1.63027 -0.65577 4.41719 -0.35572
1166 1 -16.3688 24.5005 17.0611 -2.56001 -3.10098 6.87694
1167 1 0.4441 15.9552 19.9517 -2.06013 6.61409 2.2991
1168 1 11.8205 -9.53397 -0.451084 -0.673014 2.73959 -2.17835
1169 1 13.3705 -7.04152 18.126 -1.23478 -1.90148 -3.07004
1170 1 2.65471 13.4544 10.7768 -1.01691 0.137408 1.55162
1171 1 21.7831 -0.942886 -7.6729 -1.60399 -0.0284625 1.01173
1172 1 -23.4012 -15.9696 -15.9701 -0.664688 8.39129 -2.44902
1173 1 8.20798 -20.529 20.1672 -0.727506 -1.83754 3.59733
1174 1 -22.8862 -19.7683 -18.1097 -1.9177 0.446427 -0.670295
1175 1 -10.629 13.9726 21.2458 -1.86756 3.33835 0.1176
1176 1 -0.596975 -10.0742 14.1088 -0.940888 -3.63106 1.83922
1177 1 10.2353 0.177694 -18.0532 1.47883 -2.36431 0.00770502
1178 1 -3.98429 6.42522 8.5768 -4.48592 -0.0444739 1.55708
1179 1 8.23848 -8.15467 -9.0324 8.05809 -3.40391 -1.00891
1180 1 -10.6714 46.9832 -12.3996 0.802275 0.0980348 -3.16843
1181 1 10.4849 18.7249 -10.2647 -2.82588 -0.50997 -3.25828
1182 1 20.1024 7.36019 0.737192 1.68183 2.15633 -1.06595
1183 1 2.7872 -7.2569 -15.0301 -2.18946 -4.33396 -0.20731
1184 1 7.20831 19.0107 21.9334 -1.3624 -0.890721 4.77919
1185 1 15.6539 7.68588 22.8728 -0.51572 4.60071 -4.22016
1186 1 7.43672 -8.26559 1.01569 2.44211 1.28268 -3.87316
1187 1 -13.5933 17.5691 -8.5601 0.830326 -0.852305 -1.29903
1188 1 2.95452 3.42089 0.520364 -1.01934 1.13672 -1.37275
1189 1 14.076 13.6623 3.43947 0.392756 -0.560223 -1.94089
1190 1 13.7966 -3.02801 -19.4117 -2.12912 -1.00773 1.28282
1191 1 -0.915655 -3.14971 -19.2176 3.37741 -0.574705 3.12891
1192 1 -12.6568 -0.0989272 -10.4058 5.97291 -1.11823 2.06536
1193 1 9.4315 -1.92928 17.9 1.99264 -6.16713 2.92806
1194 1 8.90812 17.768 -6.54807 -1.93529 0.690373 -1.54181
1195 1 13.2013 -10.7871 -16.3095 3.78535 -3.20315 0.732404
1196 1 6.02559 15.7672 -13.3171 3.51408 -1.39986 -1.8808
1197 1 -19.4443 17.2898 21.1069 1.97059 3.85913 -2.45584
1198 1 19.5386 -23.774 11.6182 2.26719 -1.88352 0.0477429
1199 1 -13.3789 5.44935 -13.1623 -4.53141 1.93632 -5.91106
1200 1 13.3276 -11.0902 10.9495 1.79427 -2.2746 -5.63526
1201 1 22.8683 -17.8259 21.1748 0.709218 4.86643 -0.752685
1202 1 -14.1544 -0.602206 -5.8597 2.88533 -0.218416 5.81325
1203 1 -15.1681 -11.5676 -14.8096 1.36706 -1.81126 -5.32145
1204 1 -1.51226 23.0653 1.11142 -2.17478 -9.60044 -2.54485
1205 1 -5.37175 -18.2071 10.5867 -0.822044 2.50701 -0.907474
1206 1 22.7105 -21.1608 -21.1657 -0.768519 -0.975908 0.327096
1207 1 14.5015 -4.95232 -15.8651 -7.82346 -2.85933 0.958097
1208 1 23.164 -7.13525 8.41196 3.93427 -5.44384 -3.05072
1209 1 1.00874 -5.48221 -24.3017 2.35189 2.07727 8.66225
1210 1 -3.38595 19.396 -2.46689 -2.40257 2.09475 -3.66005
1211 1 -17.8229 -10.7631 10.634 3.18861 -2.10107 1.34616
1212 1 21.2333 5.90598 -9.932 -1.59983 -1.07035 -2.61197
1213 1 -24.4583 -14.2584 18.7787 -4.55779 -1.06896 -7.4061
1214 1 12.356 0.295671 -0.842721 3.47241 0.955578 -3.67508
1215 1 4.41782 11.4195 -8.58727 0.171174 0.056679 -3.04219
1216 1 15.3563 -8.81147 -10.6167 3.05382 2.34296 -0.874773
1217 1 15.868 -14.4833 2.45419 0.367859 2.20323 1.88194
1218 1 13.4921 -4.4799 -11.9701 2.94466 -1.56143 3.45247
1219 1 14.5369 11.7583 10.9551 5.10528 -0.774293 1.18951
1220 1 -20.9245 24.1298 14.511 -1.43368 0.279233 2.6451
1221 1 2.27118 20.7097 -21.7992 0.383138 1.91409 1.38251
1222 1 19.452 21.8928 12.336 4.85165 -2.25972 -3.94472
1223 1 -22.8551 8.27017 10.4045 -1.86797 2.58602 -0.700272
1224 1 16.4251 -8.40566 14.3672 -0.190005 -3.38004 -1.27223
1225 1 -0.113482 -20.3731 20.7681 1.15637 -2.49975 -1.82049
1226 1 -21.208 14.7166 2.10995 -2.77173 -2.3593 1.57196
1227 1 -0.892331 -8.43023 -0.709467 -1.69914 0.0284996 1.71718
1228 1 23.3769 -20.7811 -10.9258 0.184626 -1.62951 3.82863
1229 1 19.4497 -17.7638 -1.49911 0.452234 -5.24988 -0.950271
1230 1 -14.5233 -18.1115 -8.19378 -2.03715 1.03543 1.62292
1231 1 -19.8092 -9.2111 -6.00895 2.95292 -0.788329 -1.56756
1232 1 -20.9238 16.2651 23.3367 -2.91269 -0.379968 -0.340479
1233 1 -4.15846 0.951063 -22.0956 5.71766 2.94706 -0.750296
1234 1 15.47 13.4325 6.26692 -0.503686 4.30743 -0.0633861
1235 1 12.1234 19.1956 2.83369 -6.54034 -1.59922 3.33341
1236 1 -7.34577 -19.4236 16.3644 -0.789098 -5.47509 -0.968294
1237 1 -17.3935 21.5902 14.3508 -1.11263 -3.7373 -7.9439
1238 1 8.66231 -1.40295 -13.8744 -1.7693 2.12821 0.889881
1239 1 -1.20215 -23.6294 6.771 -3.26571 -1.20639 -0.143072
1240 1 -6.00547 -23.4461 3.08641 -0.260661 -3.79984 -0.0709188
1241 1 13.6238 13.4905 -19.4518 -0.323333 0.10546 2.6306
1242 1 7.53638 -19.5143 -14.2762 -1.05214 -2.33525 2.27191
1243 1 10.003 16.1293 -23.1711 -1.16165 1.81246 -2.01006
1244 1 -17.4302 1.15473 8.16701 1.10751 -0.262712 2.28897
1245 1 -17.7729 10.9928 -22.0854 2.25413 1.67997 1.16887
1246 1 -6.60973 -16.3015 4.34849 0.490717 -2.30377 0.427681
1247 1 -4.3997 -0.431626 -10.1905 0.170049 3.43739 4.35543
1248 1 7.4364 4.25962 21.5454 1.81514 2.20059 -3.25358
1249 1 8.17936 14.5249 -21.8671 -2.57475 -0.0274436 -3.18021
1250 1 5.73274 2.12146 22.0203 -1.97638 0.64971 3.88012
1251 1 22.1902 0.546839 22.3773 -1.80243 1.32245 1.13031
1252 1 21.053 -19.6342 1.04427 -1.81051 -2.14214 -3.12832
1253 1 13.8569 23.9144 -2.54562 1.57347 -4.37782 -0.960687
1254 1 -21.2466 -18.764 4.53095 0.463857 1.58707 -1.7638
1255 1 -5.64435 -10.2654 8.87899 2.42223 -0.64191 3.20192
1256 1 6.38507 -20.6886 -20.7498 -3.56116 -0.22413 0.0769801
1257 1 -6.32837 -23.3857 -11.605 -2.7654 1.74938 -5.98039
1258 1 -16.635 8.6826 20.903 -3.89062 2.54258 -1.62881
1259 1 20.152 -12.115 7.01581 0.00892928 0.12794 8.83229
1260 1 2.26187 -9.23361 -12.8729 -0.633337 1.47543 -0.911529
1261 1 12.1875 -8.74091 -10.5994 1.12496 -5.75067 -1.4867
1262 1 11.5709 -14.746 -5.29733 -1.60914 3.42615 3.93695
1263 1 -14.6096 -6.25736 -2.459 2.80817 -0.978095 2.32765
1264 1 -22.17 -10.4178 -2.09858 1.60687 3.01818 0.806197
1265 1 -7.19361 13.4881 -11.3119 1.93457 3.72045 -1.83766
1266 1 14.4752 -7.20311 3.82349 0.963227 0.912123 3.9229
1267 1 23.3956 -15.406 3.39401 6.48165 2.04721 -5.48472
1268 1 -21.3089 -12.7033 -17.9533 5.48193 1.26193 6.72501
1269 1 10.4808 -6.29104 21.5939 0.13513 -1.26792 2.38089
1270 1 23.2992 17.0209 11.2177 1.08032 4.26774 -0.591399
1271 1 -0.456701 4.41461 18.1854 -0.292827 3.40758 1.02592
1272 1 -24.3079 10.2552 14.0823 1.66639 1.05009 -0.821518
1273 1 20.7085 6.37785 21.6019 -1.91691 2.26568 -0.404859
1274 1 21.7699 20.3364 -21.6755 -0.742578 2.23409 -0.446601
1275 1 2.91641 3.95431 8.4643 3.22192 -2.38129 1.875
1276 1 -1.16565 -10.1367 -20.0174 0.488653 -0.32705 -1.36636
1277 1 -9.11443 21.9992 -4.69488 0.921251 5.01994 0.60532
1278 1 14.8023 -7.34281 -23.098 -0.634568 1.55544 2.74623
1279 1 -20.2989 16.7128 -13.1154 3.54439 0.225119 -3.70583
1280 1 1.27533 -2.39437 -4.89577 -2.03679 -4.74027 -2.08924
1281 1 14.3213 -10.4009 20.3274 -3.09552 2.94965 2.6324
1282 1 9.59091 -20.288 -3.10363 -0.838184 1.4262 -5.05383
1283 1 4.23811 -21.6489 -10.0944 -3.32242 -1.81047 -0.181404
1284 1 6.22614 -12.0316 2.12031 -3.87119 1.47688 -4.03506
1285 1 -11.9851 22.5702 17.1399 1.93598 -0.361259 -1.21157
1286 1 -4.48257 5.12036 -15.5585 0.351312 -0.686292 -2.10048
1287 1 8.79265 -17.8189 19.8024 -0.22659 3.66546 -1.58962
1288 1 1.71983 -4.66374 -14.3598 -4.4535 2.378 -2.20452
1289 1 22.9562 -9.85148 -7.12094 -2.31881 -0.135753 2.86057
1290 1 1.7842 7.86128 7.07682 -2.51292 0.721805 0.266702
1291 1 -18.613 16.2102 1.49648 -1.96704 -1.14193 -0.802259
1292 1 -5.95972 18.0729 -3.03307 1.60603 -5.99071 -5.37821
1293 1 -8.62292 0.085297 -0.0415314 2.54216 1.37165 2.60467
1294 1 14.6455 -12.6306 -7.04752 1.59882 -0.969503 3.30237
1295 1 14.6378 6.24056 -0.252037 -2.70866 2.80688 -3.59421
1296 1 -8.24997 -11.0921 4.52099 -2.72419 1.34366 1.42321
1297 1 16.1455 13.7048 15.4144 4.9018 -5.39965 -1.02726
1298 1 1.27269 -6.86162 -0.870236 0.655041 -6.69399 0.0796849
1299 1 -10.3611 -10.9185 -4.97073 -1.03291 1.58738 -2.21376
1300 1 3.99814 -0.526536 -2.96127 6.53448 3.79805 1.36586
1301 1 11.6055 15.7871 -10.5172 0.510356 3.9613 3.33219
1302 1 -4.29106 -2.98125 -22.5309 -1.06049 1.43721 -0.121225
1303 1 -7.00802 -8.10745 -15.2699 5.08651 -1.57934 -0.0307215
1304 1 4.14946 1.24678 -5.19859 1.83078 2.33186 -2.31052
1305 1 -5.09708 3.72827 10.85 -5.78861 1.47007 3.86411
1306 1 6.39969 -21.8897 0.0297064 1.1053 2.24503 -2.56118
1307 1 -14.9764 -24.5947 -3.50977 -3.84869 -0.728457 -2.49628
1308 1 -16.843 -4.39754 7.30415 -3.32068 -2.84119 -3.50826
1309 1 -0.515353 -11.6161 -7.54546 -7.01384 -4.23225 -0.399957
1310 1 -0.846574 -18.4653 -2.05145 3.37722 3.30401 -1.44202
1311 1 -1.7636 19.5149 -15.3906 -4.26609 -1.93128 0.501463
1312 1 -15.5173 -8.209 5.44219 -0.243294 -3.07323 4.58574
1313 1 17.5873 19.1146 22.9083 -0.0403618 4.90822 3.20247
1314 1 -15.771 10.2885 -18.0511 0.577411 -4.93762 -1.08841
1315 1 -20.2496 -11.9653 -22.8957 -3.76049 1.01413 2.65228
1316 1 17.6021 -11.0323 -14.9464 0.360032 2.31208 -0.404774
1317 1 -11.0667 9.15581 -12.5623 0.882784 -3.15707 1.78497
1318 1 23.5758 21.0843 -1.05149 0.514779 -0.890133 1.12913
1319 1 13.297 22.8592 -0.110458 0.187338 -2.19245 2.23411
1320 1 18.685 -4.97306 -10.8043 -4.03766 0.91964 1.29883
1321 1 8.64068 -22.1688 -6.58318 -2.84461 -3.79297 -0.407605
1322 1 0.666826 -14.5216 -3.91284 2.57354 2.47112 -3.92294
1323 1 14.1559 -12.9691 13.2704 -4.09811 0.366931 0.939027
1324 1 -12.3679 -20.3024 -20.0153 -0.169276 3.14806 0.303441
1325 1 -4.10592 15.6655 5.37284 1.29467 6.66535 2.40483
1326 1 -20.1581 -19.7635 -23.4042 -5.72851 1.56309 2.94759
1327 1 -8.90785 20.5431 -22.5859 -3.14138 3.7255 0.157555
1328 1 10.0996 12.8486 6.34908 -0.19069 8.65878 -0.336587
1329 1 21.5549 -13.7149 -3.49348 3.80957 3.90393 1.048
1330 1 -9.59879 14.6048 -7.26649 0.375252 2.55645 -0.280356
1331 1 -18.9034 5.10696 -1.1419 1.36359 3.2971 -1.88928
1332 1 11.9628 -19 -23.5176 0.534113 -6.50852 -2.87239
1333 1 -0.220694 10.0789 6.31385 -2.4568 2.92217 -0.64314
1334 1 12.0893 -10.8137 -8.6656 -3.23649 3.34529 3.44494
1335 1 -15.1421 24.9554 -14.6138 5.01795 3.11045 -2.00218
1336 1 2.31626 18.6597 -6.11223 -2.06178 6.78931 -1.73523
1337 1 7.08182 -19.907 8.27154 3.70184 -1.39112 3.6582
1338 1 0.787177 6.85406 -1.41368 1.80612 -2.26651 -3.95664
1339 1 2.24572 -18.2721 21.6155 1.01516 -0.284537 -2.66873
1340 1 -19.6293 18.1457 10.7226 -0.26624 -1.7991 -2.37517
1341 1 4.16515 8.66125 14.2518 0.545868 -6.79187 0.384292
1342 1 1.26039 -22.6573 -16.6604 0.249124 -3.16119 0.605488
1343 1 -11.0121 -7.99083 -5.47777 1.82821 -0.199318 -4.2369
1344 1 19.9737 -8.32242 3.72789 1.07286 1.52805 -2.29852
1345 1 -23.4236 2.67973 -18.2424 5.98697 -1.51015 -2.90359
1346 1 16.2946 -2.63746 -14.7871 0.802789 -3.54607 -3.63216
1347 1 -16.7651 -13.2636 -20.7536 -4.18796 2.43781 1.95723
1348 1 5.18699 11.4582 -16.0222 -2.80127 4.4912 3.27506
1349 1 1.8618 -12.3569 9.33257 -3.09732 2.76693 -2.1653
1350 1 -14.8379 0.729365 -3.50213 0.089893 2.02896 -2.1119
1351 1 16.6776 -14.7335 16.8742 2.00364 -1.28231 -4.26686
1352 1 5.61512 23.4258 20.9553 1.0041 -2.76221 2.99571
1353 1 6.94551 22.641 -1.16151 -0.171494 1.02361 -2.94058
1354 1 -2.14009 -5.71608 -16.2289 -5.14754 1.14189 -1.22735
1355 1 -7.18374 22.2521 17.0973 1.12705 -4.9209 1.65843
1356 1 -20.3726 -12.1045 -0.483234 -1.25248 -1.39399 3.0868
1357 1 -20.2069 -9.3679 -10.5802 6.08221 -3.00442 -2.21303
1358 1 -11.2346 24.1537 22.4549 -3.61036 -4.24602 6.74726
1359 1 -21.9344 46.9735 -23.9508 2.3777 1.10643 -0.749968
1360 1 17.7642 -13.9028 7.3144 -2.08466 -5.01536 3.27634
1361 1 -8.15354 -22.7035 4.71941 1.26417 -1.53211 -2.78711
1362 1 20.495 21.6518 7.26201 1.09888 -0.664375 3.73348
1363 1 -14.9284 -10.8185 -21.369 0.513022 -1.40032 4.84807
1364 1 11.1661 -13.1294 -12.4254 3.00756 -4.88574 0.502336
1365 1 8.20613 -6.06015 -21.4872 0.186006 -4.21998 2.54297
1366 1 19.9626 -15.2708 -0.147621 4.83889 -1.02271 -4.38637
1367 1 -9.65611 -13.3357 11.6017 -2.00482 0.926589 -0.513886
1368 1 -17.7896 17.7162 -0.677489 -5.24193 2.75844 0.909776
1369 1 23.2697 3.19063 -4.24248 -0.0498945 1.75679 4.16611
1370 1 2.01358 -13.9672 22.1442 4.98166 -0.15523 2.04307
1371 1 -20.1809 10.3609 -3.39407 -1.05546 2.82695 7.81876
1372 1 -10.3057 11.3294 3.99009 -1.81087 -6.34889 -5.32613
1373 1 -13.704 -8.52991 14.5264 -3.15947 -3.18031 -0.522846
1374 1 -18.753 23.2335 16.2151 -5.28523 -0.50261 -1.52437
1375 1 17.179 -7.88532 4.94913 -0.547004 1.41374 -0.849551
1376 1 6.07571 10.7325 -6.19722 1.9257 1.41883 2.39832
1377 1 -12.7608 21.6735 23.4093 -1.00235 2.2141 0.938156
1378 1 9.51114 -10.0797 1.09965 -6.60424 3.16925 0.0364279
1379 1 -19.2901 -17.0685 5.12529 -1.567 -2.5366 3.94704
1380 1 16.2283 21.4426 -7.5884 5.14976 0.0452361 1.06495
1381 1 18.798 17.8662 9.64337 1.27311 -1.08612 2.16331
1382 1 15.8216 -13.2764 9.19554 -1.89852 -4.72257 -0.710089
1383 1 -8.37027 -23.3676 -16.1773 -4.91835 4.46205 -1.51675
1384 1 2.58253 21.2983 -10.5666 -3.37154 -0.839784 1.13983
1385 1 -17.833 22.1165 11.6489 -0.123827 4.80818 3.39048
1386 1 -9.74894 8.95078 2.01584 3.95705 -4.01527 1.92332
1387 1 -18.6589 -0.530565 -0.728805 -3.35558 3.76501 1.33167
1388 1 13.3445 -3.58324 17.724 7.97084 1.54055 -4.18436
1389 1 19.1393 -5.35022 0.00611776 1.20445 5.15816 -0.848976
1390 1 5.60417 -3.95081 12.0546 -0.980342 -0.0310564 -0.389905
1391 1 -12.4538 20.3933 21.0555 -4.86491 -0.275266 -1.67363
1392 1 22.9186 2.38674 3.58531 -2.38282 -0.295468 -0.950824
1393 1 -0.985516 -5.97527 1.14304 4.42623 2.87068 4.39651
1394 1 2.99198 6.99204 0.554416 0.133886 0.465361 -1.30052
1395 1 0.434145 9.86276 -6.8889 -1.68149 3.2189 -3.59614
1396 1 -17.7796 -9.14428 8.07944 -4.13638 0.381888 -1.10771
1397 1 2.27143 24.2494 -7.92643 2.10869 3.12256 1.22795
1398 1 3.2673 22.9877 -5.529 -5.17898 -2.5825 4.08045
1399 1 -1.92285 -23.8044 -0.731372 -1.99847 3.38458 -1.70082
1400 1 -13.4883 14.7122 -23.1064 -4.58935 1.18595 4.93667
1401 1 21.3666 -21.7837 22.8057 1.56181 -4.21122 -0.426961
1402 1 -19.3727 -5.4272 -16.0116 1.80921 -3.22084 1.15696
1403 1 15.29 -23.7109 17.002 -3.14517 -0.74936 -1.20804
1404 1 20.6348 -11.4155 9.87677 3.00247 0.257523 -4.6024
1405 1 19.981 22.3115 -23.4849 3.41001 0.307613 -0.110523
1406 1 -8.13392 2.24778 -13.0333 2.93833 -1.01061 1.51943
1407 1 -22.3357 8.93022 -2.33379 1.87648 -0.664312 4.75776
1408 1 -6.53115 -4.53928 -11.775 2.86336 -1.83122 -3.90369
1409 1 -1.04366 5.05029 -23.9646 0.727013 -1.45865 -4.21479
1410 1 0.444893 -19.8116 -17.2574 0.980323 0.36442 4.28475
1411 1 19.7179 1.78004 -23.5925 2.34014 -1.9175 -0.809175
1412 1 -18.191 13.0867 -12.254 -3.32783 -1.00216 -3.64108
1413 1 -16.3806 2.82602 -19.3676 5.20208 -3.68481 1.15277
1414 1 5.60235 21.9364 4.63089 -5.86633 1.42134 0.798872
1415 1 -6.88914 -22.0355 0.806653 -1.36181 1.02148 6.0339
1416 1 -22.6574 -8.33575 9.23195 -4.56017 3.90357 1.41768
1417 1 10.6127 5.0215 11.5825 1.08381 -1.81448 -1.64586
1418 1 17.3212 -7.2824 0.509825 5.843 1.08699 -3.33959
1419 1 9.25241 22.2236 -2.89322 2.66869 -4.406 -2.42384
1420 1 -12.8134 19.2089 -21.9697 -2.73606 1.49895 0.300203
1421 1 23.6965 -9.90003 5.54014 2.39173 -2.71328 -3.14571
1422 1 -13.6919 -19.8412 -16.2511 -1.53066 -2.936 2.63828
1423 1 7.82235 20.5837 -19.7338 2.25161 -4.27373 -0.146854
1424 1 21.2094 11.6575 -7.45896 0.760538 -1.74063 1.078
1425 1 0.479019 5.022 -11.7653 2.78334 0.639073 -0.967794
1426 1 6.09741 -20.5524 2.76165 3.1425 2.35229 -3.23035
1427 1 19.8324 -12.8136 -1.41192 2.88116 1.97587 2.04969
1428 1 -5.35631 -18.1594 21.1252 3.43202 0.903719 3.09124
1429 1 -20.9171 -16.0083 7.22886 -1.19883 -3.11243 -0.582524
1430 1 1.94469 15.4514 5.95088 2.3561 2.56535 -3.86389
1431 1 -9.06238 1.71273 -10.1737 -3.163 6.09279 -2.50084
1432 1 -10.941 8.35637 23.4622 2.12131 -2.87415 0.289631
1433 1 -18.1494 -11.9088 -14.4324 -1.04286 1.63316 -3.45324
1434 1 -24.1668 5.77377 20.8914 1.26872 4.44705 -1.03182
1435 1 16.8041 21.4678 -4.71852 1.71079 -0.34603 0.36999
1436 1 -17.2936 -4.4462 -14.5283 -2.08495 0.627986 2.80651
1437 1 5.87143 14.6404 -20.465 -3.50474 2.19347 -1.50202
1438 1 -1.61378 0.0525816 -13.1953 0.126743 -2.69874 -0.517061
1439 1 -19.1009 10.0909 -12.4321 1.17367 2.88369 -1.82004
1440 1 -22.8729 13.2409 -2.63173 2.17878 -2.66758 -2.81146
1441 1 -17.9634 -16.0404 17.4857 2.24979 -1.77103 -6.07734
1442 1 -21.0325 -5.70149 -3.97059 1.76605 -2.98455 0.960998
1443 1 18.6521 -12.4428 16.3414 -0.0795652 2.28771 3.173
1444 1 12.6772 20.1332 23.4517 1.31202 -1.1476 -3.31111
1445 1 13.1534 -19.7153 8.85147 5.57769 -3.95451 1.0743
1446 1 1.41051 -9.85046 -10.2743 0.98315 3.81332 3.32435
1447 1 21.4745 -5.90897 -18.4747 3.07026 -3.77221 -2.31923
1448 1 -15.3701 1.91088 5.40219 0.110201 3.64617 0.608309
1449 1 11.5887 -3.20143 1.07616 -1.21792 -1.84729 -3.53465
1450 1 -5.99346 -4.71154 -8.22864 -2.00026 -1.20015 -2.04735
1451 1 11.6845 21.2464 -10.7122 -1.2576 6.20864 -3.32544
1452 1 -6.48371 -23.1281 -19.8381 3.62669 -2.12612 2.52385
1453 1 -0.70528 -21.5925 -6.5378 -0.0623155 3.11163 -2.19475
1454 1 8.03097 -12.1595 -0.178494 0.903847 -2.22198 3.6111
1455 1 -14.3245 -18.2798 -2.79306 4.87942 4.97698 2.10555
1456 1 -16.9713 14.836 11.3107 2.07603 4.13548 3.98997
1457 1 -19.3289 2.96095 -20.3173 2.18751 2.84741 -4.24071
1458 1 -21.0865 13.8472 8.42074 4.03876 -1.28316 0.414791
1459 1 -13.1032 -13.9217 -3.88652 -4.23322 -3.22246 1.90631
1460 1 -13.8215 8.21243 -12.998 -0.914036 2.02168 -1.75671
1461 1 -14.5836 15.4574 22.6214 3.30963 0.993807 -3.2462
1462 1 -8.8761 -17.2942 8.45132 -0.6264 -3.38196 -4.48937
1463 1 7.96401 -1.15901 13.1488 -3.37991 -1.6151 -2.60754
1464 1 2.19122 -18.3882 4.94997 1.57726 1.84916 3.57145
1465 1 -20.6139 23.8571 -13.8808 -3.86868 1.12247 -0.926008
1466 1 -17.2425 -5.27371 -3.01148 0.437782 0.54194 2.6451
1467 1 22.3618 -17.0593 -13.3946 2.92958 -4.58513 -0.153015
1468 1 19.6839 25.9828 16.8256 2.60831 5.76016 -2.1878
1469 1 19.5725 12.3697 5.18105 2.33507 1.18427 -3.5211
1470 1 -3.97974 -12.6938 5.06803 -0.528244 -1.83026 3.20876
1471 1 -5.06457 -6.58896 -10.2796 0.686531 -1.49304 1.07652
1472 1 21.9344 3.54595 15.1586 0.655857 0.658831 -1.19123
1473 1 15.3792 -19.2538 -15.1042 -0.883829 0.335766 -5.27878
1474 1 0.836029 21.9151 -24.2155 -0.510101 0.53367 -1.00758
1475 1 -21.4921 -23.7831 -4.22803 1.88013 2.87994 -2.53779
1476 1 -20.0717 13.8105 -19.1654 4.26319 -2.82967 0.9418
1477 1 20.1322 -1.08175 -0.900015 2.88285 2.89211 -1.49053
1478 1 -0.270827 4.15257 3.36053 -2.42142 0.0459503 -2.42667
1479 1 10.1023 -9.02369 7.12662 -0.963833 -2.94245 1.27818
1480 1 2.06807 15.1196 -4.25181 1.02106 -0.801013 -1.85563
1481 1 -7.07404 15.1458 -3.04285 5.36391 5.4398 3.84113
1482 1 4.92816 21.3522 -23.0332 -2.41387 -1.34733 -1.48435
1483 1 10.1066 -22.2939 -18.9936 0.400291 -0.909529 1.96477
1484 1 -5.84167 11.6595 7.84123 3.57504 -2.96028 -0.489885
1485 1 7.34686 -10.6108 -24.0137 5.0506 2.41637 -1.99917
1486 1 -17.5158 -4.27588 16.6035 -3.55117 -3.0731 4.63682
1487 1 -1.71521 4.5879 -16.3378 1.55974 -5.47575 -0.201853
1488 1 -17.8124 -15.234 11.8598 3.76951 -1.05676 4.98448
1489 1 -24.0865 15.7083 -2.02014 -2.39138 -2.93604 -5.29632
1490 1 -20.6268 6.51679 -2.95033 -2.32175 0.788757 -5.71114
1491 1 12.5018 7.07876 -6.3572 -2.1582 -1.49207 -0.754153
1492 1 -12.2376 12.8821 10.8747 -5.6512 -1.846 -1.16865
1493 1 -4.65221 -6.43332 -13.1769 -2.86418 0.771315 3.35294
1494 1 -7.60042 5.42541 -18.5222 -2.70066 0.679799 0.519531
1495 1 -20.365 -9.01198 20.7086 -4.70082 -2.68513 -4.419
1496 1 -2.28022 9.54309 -9.32011 5.47813 -1.40913 1.20667
1497 1 12.6908 -10.5986 -19.8898 -4.40454 0.75977 -0.699015
1498 1 -14.0302 6.47182 11.9463 -2.49545 -5.4735 2.58446
1499 1 17.1336 3.07107 22.3212 -3.09212 -1.71171 0.499016
1500 1 -18.0639 18.7223 14.5396 -4.61264 -1.66542 -4.88917
1501 1 8.39392 14.8584 -14.6048 -1.38887 3.09137 -8.03569
1502 1 -24.3846 -5.06911 -5.52144 -0.918001 -1.59001 0.0444002
1503 1 8.17734 23.4557 -22.81 4.53955 -0.572588 0.345264
1504 1 -4.57247 -23.7625 -6.374 -3.95758 0.00821365 -0.690925
1505 1 17.4975 -24.4809 -20.17 -1.94322 -1.27483 0.860782
1506 1 15.1288 13.3918 -1.67337 -0.134038 -3.28859 -0.439781
1507 1 -19.8278 20.2946 -6.50654 0.354663 0.483111 4.16864
1508 1 22.6263 -9.67181 -3.51915 -2.23083 2.90733 0.529091
1509 1 10.5922 21.8712 -7.95676 -1.57564 -0.289338 -2.45687
1510 1 -16.9128 -10.3793 -0.739616 0.207118 -1.46465 -0.110979
1511 1 -24.0181 -6.0747 16.4705 -1.89787 1.23756 2.36575
1512 1 -12.6657 -12.7893 -1.28482 3.18944 -0.0983269 2.60321
1513 1 -19.4793 -0.322971 16.5957 -3.95619 1.09044 4.16915
1514 1 -13.408 -3.48731 -8.99617 -0.0733374 -0.358952 3.76599
1515 1 -7.52168 -21.7815 20.4821 -2.83355 0.703505 5.47028
1516 1 -9.98792 23.5999 -23.1428 6.03448 -2.12516 -2.63608
1517 1 -24.1597 -15.1709 -9.21238 3.76992 0.476281 -1.94913
1518 1 -0.89906 12.7062 22.9438 7.36309 1.66289 -0.614631
1519 1 -11.7051 -16.8484 1.06094 1.67238 -4.0506 1.75985
1520 1 11.4487 3.9415 -13.1261 -0.523883 -1.92905 1.18359
1521 1 -8.80892 -10.0898 18.3042 1.18463 1.23275 1.71493
1522 1 -14.9555 -0.503558 -13.8438 -1.33653 -0.429011 -2.81628
1523 1 -7.02684 6.54546 15.1911 -3.8973 0.687788 -8.26461
1524 1 0.737369 -19.8815 7.03431 0.0827014 -2.70106 0.155512
1525 1 -10.2666 -6.89478 3.03007 2.61071 3.87282 -0.0979184
1526 1 21.221 24.1852 -0.165414 0.177046 3.73241 1.2009
1527 1 3.04816 0.919117 -9.19293 1.14276 -0.998845 0.443243
1528 1 11.2822 14.7138 14.5328 2.38794 1.08403 5.88243
1529 1 -6.98782 2.62592 12.6777 0.0605462 3.35583 1.60854
1530 1 17.3699 17.0763 5.47137 4.38754 -1.13178 3.60028
1531 1 5.87508 -8.57025 10.6017 -1.16361 -3.18515 -1.2992
1532 1 19.5133 -3.94292 -17.2156 -1.64153 -0.729561 -4.77101
1533 1 11.4001 20.7955 12.8463 -1.24677 -0.264907 -0.0658384
1534 1 -15.3441 -6.61308 13.2197 -2.06995 -1.88983 -3.81208
1535 1 1.77058 -8.68075 13.3297 1.00194 -0.622662 1.21222
1536 1 -8.26512 0.0910997 23.8802 3.17174 -0.660204 0.474411
1537 1 -2.90237 25.4735 -18.4588 2.64099 -2.82253 3.20554
1538 1 5.94957 16.6586 16.8096 -1.17313 -2.2801 -0.0250777
1539 1 1.3411 7.74516 -17.3895 2.02432 1.82244 -2.90424
1540 1 -21.3998 5.56068 -23.7501 -4.27818 2.31072 1.46903
1541 1 5.58305 -18.6956 -7.58563 -5.39642 2.3708 -2.12853
1542 1 -21.1185 -5.62947 16.0893 -1.54667 0.261393 0.208066
1543 1 2.41322 -0.94596 13.1913 -0.446372 0.464744 3.78112
1544 1 -4.10453 21.2176 -19.7736 4.37843 1.81733 -5.05046
1545 1 -7.94952 -15.3583 12.6265 -3.34695 -4.34124 -4.30714
1546 1 -15.0814 -14.6681 20.1717 -1.87971 -2.89463 0.866567
1547 1 15.3969 -0.100281 -1.0772 5.41074 -2.99446 -5.961
1548 1 17.0232 -24.37 -6.10146 5.46257 -3.79829 -4.88883
1549 1 -2.12577 -3.38549 -14.6899 3.27308 2.8106 0.624964
1550 1 -2.37394 -7.6742 -10.0424 3.23913 0.124883 -1.19485
1551 1 11.7413 -0.0109326 -7.42281 3.94335 -1.78045 -1.21135
1552 1 16.8293 10.6672 -18.1437 1.89043 2.8406 -1.79915
1553 1 -9.24673 21.2943 -16.8868 0.320779 0.87966 4.51104
1554 1 -6.94496 -6.26226 -20.5608 -3.21043 -2.89639 0.237679
1555 1 -20.6514 -3.01239 -3.56161 -3.09812 4.17185 -0.805956
1556 1 21.7654 -19.2664 -9.20568 -0.944997 1.59799 2.2723
1557 1 8.10219 -23.9956 -18.2479 3.55518 0.89065 -2.34591
1558 1 8.81486 -17.4296 0.642558 -3.04377 3.41659 -1.95429
1559 1 21.6453 19.0385 1.34403 1.21766 0.474882 -2.66676
1560 1 -19.3957 -19.8049 19.1775 -6.44047 0.658213 0.945371
1561 1 22.4724 18.6102 -5.37293 -5.26006 -0.968439 0.513632
1562 1 0.433058 -3.38752 0.137491 0.688075 4.9324 3.0143
1563 1 -4.94019 -6.12381 12.2188 -0.991064 -0.00287106 -1.66116
1564 1 10.1679 15.3523 -7.8729 -3.24095 1.90686 -1.46775
1565 1 -4.80093 15.1264 -11.9914 -0.711185 -3.01776 -1.98767
1566 1 1.92517 -7.73265 7.77069 1.3737 -1.36638 1.71357
1567 1 1.22415 -9.37293 -21.862 -5.38955 3.86989 -1.76561
1568 1 18.0637 20.5247 -9.58963 -2.04545 0.888106 0.102406
1569 1 9.67551 13.3654 3.57555 -1.1747 5.05954 2.97837
1570 1 -22.4082 0.910373 -12.5895 1.32289 -2.46497 3.35096
1571 1 -2.96831 -10.6162 -1.50957 -0.696358 1.02862 1.08972
1572 1 -1.26097 -16.9186 12.4003 4.8253 3.68139 3.33409
1573 1 -11.9315 -14.0635 18.2279 -3.91162 -0.0990857 -2.62461
1574 1 19.8136 -17.807 4.02077 2.11231 1.65554 0.462717
1575 1 -17.0911 15.5686 4.8875 5.38914 -2.27047 2.40855
1576 1 12.3863 20.4482 -20.2256 0.423215 4.2501 -3.03327
1577 1 15.1507 -24.3159 5.2862 -2.28187 2.65816 2.91786
1578 1 16.7154 0.0392643 -12.0991 3.15615 -1.99654 -2.78057
1579 1 -4.95158 14.5449 -7.37334 -5.68259 -4.92171 0.640478
1580 1 -16.3976 -21.8426 -6.5547 0.450548 7.67449 1.01579
1581 1 -6.25603 -3.57789 11.9116 -1.12163 -3.93506 1.69565
1582 1 -13.7204 7.1123 -1.42849 0.293579 -6.06403 5.89755
1583 1 11.1769 -2.79714 -4.0652 -3.24256 -1.77137 -2.79118
1584 1 -5.84394 -4.0529 15.9145 4.16404 -1.37983 -1.18441
1585 1 -8.21797 -13.7284 22.1255 -2.79197 4.65805 1.49532
1586 1 -18.4422 -23.1688 -0.0417066 -0.285305 -3.41182 -0.72003
1587 1 18.0977 -2.62728 -8.96412 -0.553732 -0.583923 0.911516
1588 1 3.66131 18.2336 -21.7915 3.25394 0.0653881 1.98123
1589 1 -10.9412 -21.4336 -1.90974 1.91083 3.84384 3.37074
1590 1 21.2453 9.14579 -14.638 -3.9908 6.43556 -0.512952
1591 1 16.1759 13.8248 1.3124 1.19401 -4.2368 3.98406
1592 1 18.218 7.43197 15.724 2.70406 1.57704 -3.1881
1593 1 0.495086 23.469 -19.0359 -1.68174 3.33163 -3.70474
1594 1 11.9987 6.47838 -1.51696 3.9433 0.2803 0.0857363
1595 1 8.43245 15.0816 -4.997 -1.21129 4.37196 0.521681
1596 1 -3.88478 -3.2897 -18.4241 -3.03648 3.25872 2.83574
1597 1 17.9203 -23.8149 6.65751 -0.783682 0.178166 -1.07747
1598 1 4.70514 12.3489 3.00432 -0.468188 1.6121 2.53836
1599 1 -21.5843 -3.94463 9.8306 -1.97366 3.80582 7.27604
1600 1 14.8991 -14.3068 -16.9697 6.75881 1.09763 4.96619
1601 1 8.08412 15.1412 -17.2906 -0.891376 -7.53405 1.23653
1602 1 -19.8325 -13.1516 -20.3311 -3.70073 -0.77435 -6.54127
1603 1 5.28483 -9.4195 -12.4042 1.23687 -1.88527 0.241328
1604 1 17.5479 -14.0354 -18.4915 -0.855907 3.38315 -1.97762
1605 1 -1.59876 -1.17579 -10.5609 -2.59589 -0.416025 3.6969
1606 1 -20.0233 19.1344 6.35035 -0.0750347 0.814506 0.196467
1607 1 11.3139 -23.2207 -14.8908 1.24683 6.74685 0.536458
1608 1 23.0518 3.12042 7.79096 -1.9702 0.204809 -5.77339
1609 1 -22.7578 19.2793 -19.1921 -2.57233 0.482797 -3.79195
1610 1 -12.4956 21.4435 -14.0247 -0.0953797 1.11936 0.51619
1611 1 6.14379 11.4427 -2.60524 0.619689 -5.68466 2.86646
1612 1 -24.1166 -18.8738 14.7755 0.33326 3.05064 -2.43912
1613 1 0.604441 -16.1965 1.27238 -5.02082 -0.654483 -1.56058
1614 1 -16.1225 -12.2678 1.18761 -2.17351 1.20649 0.414394
1615 1 -4.15936 -16.2088 -11.6897 -1.48264 -1.55411 -3.41868
1616 1 14.7541 -11.9126 -18.4157 -2.75504 0.730219 0.267726
1617 1 -14.6725 -13.1885 -10.2159 -0.409157 -0.435667 -5.04994
1618 1 11.7769 17.6639 13.7843 -3.12573 -3.15002 2.36177
1619 1 14.6539 13.5455 18.1586 -5.07171 -0.466856 4.86682
1620 1 13.9373 -9.82322 -6.62313 5.30518 3.23358 3.09025
1621 1 -18.6794 3.92367 11.5528 4.27754 0.70843 0.831726
1622 1 -14.809 21.3226 15.3379 -0.0913657 -1.19122 -3.55267
1623 1 -11.0671 -17.2364 15.0867 1.81759 0.742479 0.602032
1624 1 6.21343 19.3532 -21.6358 6.26164 -0.829093 -3.85787
1625 1 12.781 13.2149 -11.5508 2.06659 5.43704 -0.416269
1626 1 15.6622 0.243209 16.8909 -5.54026 -0.0160798 -0.347098
1627 1 17.9973 -5.41147 23.501 1.63113 3.35595 -3.54458
1628 1 20.6516 2.83869 2.12362 0.639891 -4.46698 1.68654
1629 1 -5.90669 -21.9243 15.9545 -1.11161 -7.64462 -0.0766407
1630 1 11.6592 -9.31758 19.2365 -3.90335 -0.417796 0.728698
1631 1 -23.4085 -20.2253 9.25441 -3.2544 -0.258787 1.3725
1632 1 -5.54136 8.78081 -22.2328 4.439 -1.51567 3.04275
1633 1 19.2781 19.4628 -22.869 -2.24981 2.15935 0.861609
1634 1 -19.1706 -9.43289 -22.5151 1.10742 -0.657967 2.59099
1635 1 7.14019 -14.8876 -10.5923 -1.60673 -1.47179 0.130649
1636 1 18.4319 -11.2043 11.8409 0.207822 -2.30156 -1.6968
1637 1 -0.715759 20.7077 -2.26422 3.6906 -3.17814 1.31078
1638 1 13.4421 -5.6525 -18.4182 -0.794838 1.21228 0.629147
1639 1 12.7142 11.1322 17.8177 1.56575 -0.331688 -1.11628
1640 1 -17.8892 -22.4486 -13.0719 0.0778588 -0.66236 2.98613
1641 1 20.0263 -13.3879 19.5421 -1.75478 3.02192 1.17759
1642 1 -0.970386 22.7365 6.05388 4.07441 0.289265 2.21048
1643 1 -6.56611 21.969 -9.16364 -3.45489 -3.73242 5.37481
1644 1 -18.3743 -0.271766 10.5292 -2.82716 2.39478 -1.84361
1645 1 -5.13144 -5.33096 -5.4809 1.12934 5.12749 -2.33466
1646 1 -22.5606 -7.33513 -18.4768 -0.817965 -1.34681 -0.691753
1647 1 16.2919 12.2474 -15.9066 -3.40114 2.29671 4.36563
1648 1 -21.4885 -15.934 -22.9016 3.72615 -0.952162 0.554866
1649 1 -16.9113 -5.67011 -10.6244 -0.0523696 3.07898 1.47588
1650 1 11.2662 -2.49888 -13.4075 5.1358 -1.76144 1.47765
1651 1 14.3512 -19.1505 -0.103183 -0.172281 -3.94816 1.20629
1652 1 12.9479 3.7564 -19.7547 2.05778 0.457757 2.3985
1653 1 13.378 -23.3175 3.16524 -0.540685 1.89399 5.1941
1654 1 6.15166 -17.2356 11.541 1.34025 0.83472 3.68074
1655 1 -1.66188 14.0999 12.2426 -1.19192 0.0715731 -1.54483
1656 1 -3.37968 13.8462 18.6683 -5.26144 0.447686 2.91262
1657 1 18.0835 8.27085 -12.4999 3.10959 -0.348862 -4.45777
1658 1 -17.7108 19.5538 7.87165 0.660113 -0.866992 -4.8572
1659 1 -5.67152 -23.4334 7.25796 -3.45977 1.87327 -4.76547
1660 1 3.40086 -9.12984 -24.1296 -4.45749 -3.97019 -0.841179
1661 1 -23.4666 0.546475 17.8294 -6.00924 -1.79142 2.26886
1662 1 -9.79151 -22.006 -8.2252 0.392051 -0.932339 1.03643
1663 1 -14.5468 -0.695528 -1.19576 -0.763868 1.11078 3.23977
1664 1 1.55892 -11.8148 -14.6083 -3.31208 -4.5299 -3.91254
1665 1 -5.81336 5.53794 18.0091 -2.71439 2.36093 -1.17238
1666 1 17.388 -5.62421 -16.7878 -1.70101 -3.44667 -0.128315
1667 1 -12.5488 -2.55445 8.04431 0.616058 -1.9153 -0.20923
1668 1 -10.2907 18.5526 8.08695 -3.25375 5.05492 1.77808
1669 1 15.1379 -22.9888 -12.1836 6.1411 -3.01465 -1.05019
1670 1 4.9116 16.2667 -2.30357 1.10403 1.8583 0.0363003
1671 1 -14.2188 10.4059 20.9109 -3.05471 -0.701955 1.0113
1672 1 3.56035 10.7703 22.2976 -1.07126 3.58845 -5.12369
1673 1 2.63741 -18.2062 2.04125 0.70642 -0.185193 -2.78107
1674 1 3.03829 -3.16313 -7.27697 1.5877 0.545532 3.71385
1675 1 1.78732 8.62118 15.7806 -1.76233 3.68069 -0.776996
1676 1 -17.7168 2.21184 -5.57028 6.57429 -0.193179 1.54259
1677 1 -24.428 -17.2213 11.559 -1.57674 0.408456 1.84343
1678 1 4.08438 21.4859 -17.5468 3.08013 1.08117 4.90482
1679 1 -8.9287 21.642 20.337 0.904989 0.605579 -2.57994
1680 1 23.4746 -17.1242 -20.7285 -5.78628 -0.415644 0.831289
1681 1 -16.5096 -8.43526 -21.6634 5.03958 -0.842494 -0.688271
1682 1 7.69761 8.94224 1.043 1.85802 5.3352 3.04345
1683 1 15.1274 24.9745 -16.3715 -1.72816 -5.01176 -2.45699
1684 1 6.10187 15.5522 14.0081 4.7551 1.59425 -6.77232
1685 1 -22.9311 15.4216 20.7086 3.92315 -2.19168 3.30622
1686 1 11.0525 -11.9914 20.8698 1.21823 -1.3741 -4.62625
1687 1 20.1785 -15.2144 -12.4281 -2.89392 1.48638 6.40587
1688 1 -18.6858 -2.50838 -13.1653 -0.740913 4.23402 -2.39092
1689 1 2.82556 -24.4089 -1.33513 2.52197 0.0189424 -2.07548
1690 1 -6.43902 -24.1572 11.3359 -4.60825 -2.29306 -0.18634
1691 1 -16.9931 -13.7666 5.10075 1.40286 -0.564128 -0.179565
1692 1 -5.90602 21.0976 -6.24181 -3.14187 -0.198429 -1.99118
1693 1 -23.5788 9.80239 21.8282 -5.02463 5.66607 -1.85278
1694 1 -14.6914 3.30315 -12.5567 2.97424 0.895786 -4.30797
1695 1 17.0545 -23.7516 -8.74656 -2.82858 1.82419 -3.51197
1696 1 13.2301 0.516897 2.09178 0.905953 -2.65626 -3.13278
1697 1 -12.3663 -23.1664 6.47182 0.438837 5.24455 0.899588
1698 1 -9.44341 11.7337 -2.90431 2.0774 -0.573104 -2.72831
1699 1 13.4901 0.602907 14.746 -2.3863 2.12406 3.20632
1700 1 14.4316 -1.79978 -12.7603 -1.96103 2.50296 2.02548
1701 1 11.8086 24.3688 -4.28902 -0.526764 -3.59768 -1.77702
1702 1 2.3589 -19.9748 12.1763 -0.816943 0.192233 -0.222883
1703 1 2.4209 3.59939 -13.3605 0.300866 1.10881 -0.295957
1704 1 -11.275 -11.2167 4.54168 0.679699 0.935052 0.228239
1705 1 -1.00408 25.6731 18.8854 2.94991 1.5706 1.56719
1706 1 7.88314 9.2965 -19.9109 -2.77968 1.23172 4.22343
1707 1 -11.3048 -11.0711 17.4111 -1.93172 -3.19637 0.53083
1708 1 -7.2149 21.8582 12.6703 0.664735 -2.31401 11.7083
1709 1 18.9903 19.8976 -1.91917 0.550144 -1.82734 1.97583
1710 1 -8.86062 -20.2069 -13.8354 -2.48912 -1.47483 -2.09735
1711 1 -4.35415 4.44462 2.35747 -0.391322 0.0045517 -5.11953
1712 1 11.8893 14.5063 -21.5251 3.14979 2.74188 -1.88884
1713 1 21.6703 18.9589 9.61239 0.693631 4.4352 -6.05094
1714 1 6.27624 -0.378059 -10.908 1.71103 -2.97207 0.949165
1715 1 12.02 26.4513 18.2764 -5.57286 3.69594 1.33634
1716 1 14.1878 -23.3178 -23.9869 -2.59929 -1.93176 3.42654
1717 1 10.8399 -16.5131 -1.32743 4.72503 -1.57048 2.08425
1718 1 5.91737 -20.3449 -11.8548 1.29797 -4.82545 0.317748
1719 1 22.921 7.64267 -0.340922 0.656793 3.18241 -2.56921
1720 1 -3.05861 -22.8081 8.71045 -4.34863 -2.36734 0.813726
1721 1 5.85808 1.56981 10.7034 -2.63057 0.467512 -2.68826
1722 1 19.6613 -22.7942 17.9353 -1.48699 4.40263 -1.07731
1723 1 -23.7691 18.834 2.0328 1.28397 -6.43587 -3.93364
1724 1 -17.5245 -23.8699 -4.7882 0.141431 -5.20485 0.195544
1725 1 -13.5152 6.58459 -18.5867 2.62758 4.03518 -3.60043
1726 1 17.4986 22.039 23.2974 -1.89678 -0.962973 -1.5727
1727 1 22.74 -3.37544 -19.0376 1.34815 -3.37598 -0.771252
1728 1 23.5452 -6.96295 -20.2834 3.08083 -3.74458 -0.414771
1729 1 -14.5321 8.47641 13.8453 -5.8046 -1.47101 -1.94809
1730 1 -4.02211 -9.1469 24.3562 -4.77786 0.546954 -3.4601
1731 1 21.539 4.81949 -2.96638 0.336699 -0.276077 2.36637
1732 1 13.7421 -13.0221 7.27701 0.960663 6.35874 2.65761
1733 1 -11.169 -15.6599 7.77987 0.628671 1.22765 -0.210304
1734 1 -7.31688 23.8459 -22.4087 2.04706 -3.22426 7.20833
1735 1 0.999879 19.6311 -16.7668 1.63548 3.18831 -1.61129
1736 1 18.6999 4.05573 9.0631 -2.82998 -2.27712 -0.103458
1737 1 -17.7179 0.784251 -9.32839 -0.0914971 7.50056 -4.88874
1738 1 5.12669 12.0536 -22.1723 0.0795408 -5.81051 2.64818
1739 1 -8.84971 -17.1011 16.4762 -10.1897 -1.19727 3.66656
1740 1 2.69044 21.1848 17.3278 2.93292 2.62831 -0.528103
1741 1 11.9311 13.5108 22.1292 -3.66756 2.5774 -0.0843717
1742 1 0.112969 -7.06926 20.8623 -1.41742 2.14638 -0.536871
1743 1 20.1442 -15.7348 8.30481 3.38522 -2.55339 -3.40656
1744 1 14.9147 24.0385 -7.7493 -0.216354 -3.3842 -1.72139
1745 1 6.68929 13.7162 -6.79529 1.61897 0.877261 -1.45156
1746 1 17.6291 22.5083 -11.4665 -5.55021 0.597392 -4.95807
1747 1 3.84448 -16.44 -6.82822 -2.73049 1.80492 -6.02329
1748 1 16.1526 -0.0214161 -4.06214 0.738769 0.209511 0.633264
1749 1 21.3316 9.2854 13.7047 -0.726062 0.547938 2.15335
1750 1 14.9629 24.1916 12.1443 -0.788419 3.13406 0.683214
1751 1 2.06875 -10.8688 15.4236 -1.46998 1.67395 3.89116
1752 1 21.9535 16.9619 -19.9079 3.54391 2.05008 1.15975
1753 1 -23.3434 -13.5281 -20.087 -2.0602 0.138475 5.05542
1754 1 23.5073 9.85249 -22.3616 2.14179 -7.2277 -1.54056
1755 1 -9.35486 -0.875139 -8.96021 -0.218286 1.76536 -2.40268
1756 1 -16.5959 4.40517 6.53466 3.06934 0.412034 0.240797
1757 1 16.7762 -14.6936 -6.98578 -4.05484 -0.826357 1.84173
1758 1 21.0716 -23.6479 6.25686 3.07937 2.39298 4.1748
1759 1 22.6001 9.40704 10.3157 2.85593 1.37885 -2.11329
1760 1 -17.6308 -14.5545 -22.8995 2.74469 -6.55367 2.60354
1761 1 21.2355 -18.9633 -20.6736 1.93688 -4.96396 0.721526
1762 1 4.77631 18.3677 6.80029 7.10689 1.83843 -2.83007
1763 1 -1.78491 4.60195 14.2016 -0.696276 -4.07619 -1.79751
1764 1 -14.5627 19.1215 -11.8744 1.8492 -1.29221 -2.76166
1765 1 3.64759 -17.6523 -4.50537 -1.47424 3.04479 -1.88128
1766 1 -17.2779 -0.129936 14.6819 1.89247 2.95481 -3.2104
1767 1 9.22175 25.4486 18.8544 -2.57843 0.565636 -0.786511
1768 1 13.0843 -4.33733 8.51132 -3.86998 -1.78013 -2.4585
1769 1 -23.3824 17.9714 14.0916 1.76613 -0.758063 -4.04458
1770 1 -8.05123 -4.34024 21.2785 -6.2504 -0.149535 -3.18685
1771 1 1.0986 22.8295 8.1988 -0.426774 3.37412 1.60553
1772 1 13.3782 -21.9995 0.81503 1.67933 -5.30048 -0.196631
1773 1 19.4573 15.3775 8.37615 1.50122 -0.0184265 2.26271
1774 1 16.704 -19.0364 22.5338 -3.52596 3.26093 4.74983
1775 1 8.21041 13.5657 -9.18627 -1.08783 1.1519 4.20043
1776 1 12.1479 13.9109 -2.63023 2.87707 3.55919 0.861028
1777 1 -22.9957 -11.0391 15.6716 3.01313 -1.99282 -1.40746
1778 1 -16.9714 -7.03655 -13.2178 2.30813 0.724353 -2.22501
1779 1 5.76461 3.79725 -6.99049 -3.32179 1.414 -0.379175
1780 1 4.76535 6.64405 -6.8351 -1.25874 0.762695 -0.725187
1781 1 7.95762 18.3919 -23.7051 5.23275 -3.12689 2.4079
1782 1 -24.1129 -15.1104 -12.0514 -0.341437 6.17648 -1.89372
1783 1 17.0636 5.22984 -5.15113 0.629021 -1.03153 2.09422
1784 1 -9.98473 15.0115 13.5699 0.837271 2.7219 1.53003
1785 1 -6.40953 6.2359 -10.2298 -1.3991 -2.53622 -6.57075
1786 1 -5.00553 1.968 -6.67388 -0.885746 1.70316 3.98628
1787 1 6.00751 19.2084 -11.1075 1.1716 -0.260933 3.28595
1788 1 -15.6701 -17.049 16.0968 -0.172449 3.62951 -0.325891
1789 1 -24.4204 -0.866258 -5.64863 -0.717578 7.22701 -0.651368
1790 1 8.90085 2.88756 -12.0498 3.22778 3.28359 -2.96798
1791 1 -0.0693335 -7.32723 -15.1001 -3.49532 -0.641422 7.39623
1792 1 -14.0065 5.7882 6.95245 4.9812 0.485084 -2.85121
1793 1 19.7001 6.63359 -23.9013 -1.85397 0.955497 -2.97821
1794 1 17.7093 3.02244 -20.0774 1.984 -0.887289 0.221026
1795 1 15.1719 -2.6739 -10.1352 -5.43022 4.95506 1.20664
1796 1 -22.7224 -10.9367 -23.5078 4.94487 -3.46529 3.43967
1797 1 2.07958 17.8983 15.2356 5.29077 3.65588 -0.331138
1798 1 16.7991 -6.35468 -19.479 -0.0675339 2.01129 -0.0853539
1799 1 -11.7626 10.0104 -15.5605 -0.401359 1.46633 0.123444
1800 1 0.0927834 1.80768 11.5249 -1.47388 -3.38626 2.89525
1801 1 -11.1962 -19.5609 -4.57916 1.04054 -1.94096 0.871971
1802 1 -17.4375 -19.6882 -11.8891 -4.80565 5.23511 -4.59641
1803 1 -14.4659 15.1426 -10.1977 -1.03397 3.09297 4.73154
1804 1 -4.04057 -24.2719 -15.2212 2.28997 5.77092 3.53695
1805 1 10.1966 4.64866 -4.85241 -0.020905 1.15314 1.9254
1806 1 11.316 -5.43055 16.5633 -2.43877 -3.34144 0.744262
1807 1 -18.0626 -9.51925 22.5702 0.487257 2.85691 2.92915
1808 1 22.3091 -11.7374 18.9048 2.94283 2.60443 -1.46865
1809 1 9.84241 19.5569 0.838591 -7.19304 1.08442 2.87903
1810 1 11.0622 -24.0967 -6.23343 -1.04037 -1.63339 2.82391
1811 1 -0.548113 5.28217 21.1632 3.05952 -5.08948 -1.35211
1812 1 -11.8796 -4.84084 -19.6142 1.08104 -2.89338 0.921833
1813 1 -16.331 10.0549 17.7226 -1.62155 -4.08943 -0.612787
1814 1 10.1491 6.16841 -8.89806 -0.329574 -0.242581 -1.90167
1815 1 12.5582 -8.36221 21.8077 -3.22697 4.23344 3.17172
1816 1 0.708561 16.7215 -10.4632 -0.683028 2.4664 -0.119878
1817 1 -0.247296 17.0541 -18.1092 1.72325 4.66624 -1.8153
1818 1 -22.0528 -9.40715 6.6508 1.11572 -4.00245 -1.50247
1819 1 -14.2008 -12.4682 18.5634 2.74592 -6.0762 1.92906
1820 1 14.4197 10.8962 -11.2265 -5.46314 4.67115 -7.22478
1821 1 19.4658 24.6226 11.1988 4.57466 -0.667328 1.01289
1822 1 15.4405 -2.53601 -2.90231 -6.21229 -1.81549 1.77993
1823 1 7.21827 -23.5329 10.5175 -0.160196 -2.67303 2.31321
1824 1 -16.6807 -18.1769 8.01339 1.81419 1.16401 2.47622
1825 1 7.89679 -10.6208 -4.68462 4.0028 1.82715 0.282528
1826 1 20.3621 8.97568 3.29456 -2.84591 -3.79563 0.127866
1827 1 16.5094 -21.1335 -2.47625 -1.30224 -1.30854 3.62154
1828 1 -14.3034 -22.7385 -20.4135 -2.29738 -0.824305 0.41613
1829 1 3.93458 19.4906 9.35833 0.50319 2.72694 2.62966
1830 1 -17.8395 4.09734 -15.72 0.154346 0.565999 0.439157
1831 1 13.0368 -15.9338 -3.20307 3.97406 2.94272 -1.73616
1832 1 -22.9485 -12.6104 22.3298 -4.42332 -1.02088 -1.29064
1833 1 -12.1825 4.87989 20.3341 -2.18255 -0.158867 5.06779
1834 1 6.65014 -8.12977 -20.2398 -2.36207 -1.67504 0.561854
1835 1 6.07536 22.9907 17.9711 -4.17091 -2.71064 4.1803
1836 1 -11.7246 -24.4899 -20.2165 -5.70295 0.582069 -2.4408
1837 1 13.9551 -22.3978 9.11481 0.458561 -0.323135 4.59552
1838 1 19.2872 21.6414 2.45565 1.52983 -0.216789 -0.571007
1839 1 19.4484 24.338 4.00396 -1.15087 -0.374873 2.32981
1840 1 -20.5675 -12.4459 2.23329 0.436635 3.30847 0.598542
1841 1 8.34877 -23.5096 -11.1017 -2.24533 -2.24165 1.63705
1842 1 15.5845 -20.5898 2.26251 -4.7785 0.650079 0.334447
1843 1 5.95265 -3.21982 -19.6854 0.146522 -2.27789 0.177662
1844 1 -4.55506 -2.63807 4.09059 3.93944 0.163596 2.57635
1845 1 21.151 17.105 -22.819 1.7678 3.66463 0.410923
1846 1 12.0075 -19.7428 6.29681 -0.543169 -1.2689 -3.91795
1847 1 19.3718 -15.4151 17.6427 1.12308 -1.85573 -3.45307
1848 1 5.14618 7.39284 -15.487 -0.00624484 7.14119 -3.14316
1849 1 12.59 -24.1353 -12.3932 -2.63413 0.846281 1.95784
1850 1 16.5373 -19.9222 -7.69286 1.1081 -0.882141 -0.182186
1851 1 -6.51956 3.72453 -0.828079 0.611537 2.71248 2.31379
1852 1 -0.1965 1.13283 -20.1677 10.0391 -3.18236 -2.95268
1853 1 3.78031 -12.0366 7.09516 0.728518 -3.43124 1.52652
1854 1 2.10324 -24.5281 12.4453 -1.17838 -2.36473 5.16517
1855 1 1.65876 22.3806 -16.5267 -1.45001 -4.53489 -0.335685
1856 1 6.02897 -4.09854 -16.8461 -7.14095 2.726 -1.77232
1857 1 0.232552 -21.0321 0.71332 0.770397 -0.790177 -2.1705
1858 1 1.8249 -16.0082 -12.6152 -9.05448 -0.759165 2.90533
1859 1 6.17675 -15.2734 -14.8539 -0.852445 4.71018 -1.39719
1860 1 6.32506 -1.25351 10.8634 6.23129 0.0973134 0.907227
1861 1 -17.5703 -21.4546 -18.1112 -1.04181 -2.55611 2.04304
1862 1 -11.9884 -1.23206 -7.84439 0.649116 1.00716 -3.52029
1863 1 -2.37869 -15.1179 -7.74003 -2.1286 -2.66373 -1.60456
1864 1 -5.486 12.2008 19.6146 3.07907 -0.424728 -0.0574057
1865 1 -9.9879 -3.69639 8.4507 -2.25514 -1.01054 -0.604464
1866 1 7.55592 22.5961 12.2428 -1.02315 1.52627 -1.44706
1867 1 5.94752 -7.06526 -1.06577 -6.52659 1.03571 0.0641316
1868 1 -7.51379 2.91187 17.5628 -2.55162 -1.48803 1.71661
1869 1 -1.37639 24.048 16.5136 1.60513 3.18451 -0.751034
1870 1 -19.5087 10.2354 14.2575 -1.38865 3.33494 1.28941
1871 1 16.535 -12.6475 4.86951 0.923161 -2.81502 1.87818
1872 1 -1.57812 -10.542 -10.545 4.44462 4.8858 -1.09295
1873 1 -10.9186 15.853 8.51394 -3.50594 -2.55053 -1.08059
1874 1 -10.0116 -15.375 -21.4287 1.33439 -2.20537 1.11035
1875 1 23.8517 -7.39826 -10.6416 -1.0256 2.0831 0.698767
1876 1 -22.9738 9.90033 -20.1276 -3.35174 3.48153 0.475011
1877 1 -13.7541 -4.92421 9.09798 -1.96185 -0.0124049 4.63476
1878 1 22.993 25.8749 -1.70504 2.02706 2.9921 -4.6286
1879 1 -19.5413 -17.5281 -19.8109 -3.48848 -8.458 -5.93569
1880 1 -1.45489 24.8116 -20.8027 2.2897 -3.2916 -0.493777
1881 1 10.1601 3.15201 18.8447 -2.38533 -1.52314 0.366519
1882 1 -9.10133 8.99247 18.4147 0.202603 -1.6323 -1.72614
1883 1 -7.76884 -12.7719 -7.41606 3.06405 -3.8122 -2.88808
1884 1 16.7521 15.8185 9.22615 0.355379 1.99837 -4.71039
1885 1 -8.35788 18.047 20.8658 4.60418 -2.702 -1.74564
1886 1 19.1407 24.0487 6.74259 -1.75412 -2.40466 -0.775869
1887 1 19.6819 -5.66107 14.8746 -2.28157 1.65323 -1.14304
1888 1 -9.19984 -18.1007 -11.8761 7.16146 1.60436 -1.80307
1889 1 -11.666 2.16849 9.30177 -1.87018 -0.20455 -0.362672
1890 1 -21.5835 7.70773 22.5733 -1.0048 0.217585 3.40952
1891 1 -10.1364 -13.5379 -23.6175 -2.24938 -1.71727 2.5422
1892 1 -1.40057 -14.5391 -15.5388 2.81233 1.94923 -0.408514
1893 1 3.03551 -0.635406 20.9637 -0.65591 0.307758 1.15208
1894 1 0.890866 -18.9822 -4.55491 -4.26425 -0.366672 0.172194
1895 1 -18.8942 -6.70754 17.7084 6.3145 -1.48251 1.3114
1896 1 17.4868 22.7527 0.488966 -3.02191 -2.27512 2.59681
1897 1 -12.7664 -23.9607 -5.29244 -2.44071 1.21424 -0.724088
1898 1 -20.7903 19.1111 13.1434 3.54732 2.15097 -3.29714
1899 1 -6.81925 18.4669 -5.82019 1.15485 -3.53193 -1.81208
1900 1 -11.2294 1.43018 4.89737 -1.05089 4.06389 1.92452
1901 1 -10.0523 -13.3443 -19.2254 -2.00166 7.77839 -0.0468156
1902 1 20.7459 0.0196551 -20.1881 5.49979 0.676787 -0.92225
1903 1 -0.101728 -16.723 -14.5558 -0.165062 -2.01542 2.00206
1904 1 -9.34889 -21.7163 16.856 1.86241 0.470796 1.73364
1905 1 -14.4445 9.4834 -7.02834 0.993004 0.472182 3.30468
1906 1 -20.4045 45.4575 13.2411 1.50348 -3.48835 1.70988
1907 1 -21.7151 -8.87728 12.1517 -1.83312 1.5271 2.64348
1908 1 -14.665 -4.72522 0.199777 2.45212 1.54079 2.1384
1909 1 10.4856 -9.24676 11.5869 0.505675 -3.12664 -2.42902
1910 1 -9.33168 -12.7474 14.5739 4.22826 3.04594 -5.18457
1911 1 20.0524 -1.9619 -5.52385 3.24151 -3.2149 -5.17102
1912 1 -15.8261 5.26838 -1.08968 1.49676 -0.578552 2.01049
1913 1 0.354304 20.0122 0.578533 1.40423 -2.29888 4.48829
1914 1 18.6388 7.36464 4.99617 1.22664 -1.15297 -0.277622
1915 1 18.9731 -20.5926 -14.6379 6.00169 -3.44112 -4.11682
1916 1 -4.61082 19.424 3.17042 3.92206 4.7677 0.668216
1917 1 -24.7591 23.302 18.3732 -5.12567 0.446707 -4.43151
1918 1 -18.5284 -0.86822 -21.1201 -3.76957 2.98648 2.9475
1919 1 -22.8874 11.6456 -14.572 -0.737234 2.03308 -4.42253
1920 1 22.8231 -15.3514 0.623524 -3.14024 -1.00111 0.374142
1921 1 17.3803 12.1134 -8.00685 -3.26072 -1.1966 4.77469
1922 1 8.82794 14.8366 19.7923 2.68693 -4.7835 -1.70219
1923 1 12.5248 1.79434 -9.78368 -4.89821 -2.58398 1.31945
1924 1 -24.4056 -17.394 -1.2641 1.70952 3.68631 3.63732
1925 1 21.5036 -23.2791 20.3506 -4.55608 2.24905 -1.4557
1926 1 12.5293 -2.93017 -6.94569 5.73912 -2.20899 -0.111078
1927 1 -8.66888 -22.2547 -21.4876 2.17576 -0.295235 -1.71739
1928 1 23.3814 -3.8285 4.73273 -0.413901 -2.32419 -2.16383
1929 1 8.39086 17.4425 2.65912 -3.29287 -1.25542 -1.36999
1930 1 -9.78009 -15.6026 -17.3716 -0.742126 -3.37015 -0.525415
1931 1 -9.56264 6.98622 -2.42836 2.76146 -0.880405 -4.58831
1932 1 -2.76564 20.1679 5.34442 3.08318 0.0531818 -5.05132
1933 1 -2.32815 18.8663 -19.2902 0.0608274 3.54191 1.34967
1934 1 -0.158795 -11.2958 -1.34107 -0.850977 -0.966501 -3.4109
1935 1 18.6312 -15.6469 2.3152 0.386857 -1.91876 0.0997363
1936 1 17.5874 -22.1023 24.191 2.91613 0.433525 0.186634
1937 1 1.65361 1.98445 18.2435 -2.07437 -2.5375 -0.690724
1938 1 1.88774 6.4356 17.6765 -4.17378 -2.75019 6.61848
1939 1 12.1657 11.2255 1.40349 -3.82313 -3.42861 -9.65444
1940 1 -21.1829 -23.458 8.64053 3.96306 1.28573 0.0413346
1941 1 -2.60284 -22.8158 -13.1719 -0.765897 2.15241 0.455122
1942 1 -2.88347 10.5335 -0.926923 -0.912585 3.45385 -0.595351
1943 1 4.11461 16.8952 -4.90165 -5.92818 4.00033 -4.99923
1944 1 -19.1342 -22.704 -2.84615 -2.21795 -2.30377 0.992541
1945 1 -24.3731 -20.4044 22.3151 -1.5816 1.41621 5.93609
1946 1 8.72691 9.77048 -7.35951 -1.7282 -3.8591 5.40938
1947 1 -17.4983 12.1182 -16.508 -2.80145 -3.62569 2.11374
1948 1 12.0512 1.37172 -14.4555 -1.96698 0.0418581 -2.8904
1949 1 -8.34349 -6.53274 -8.20951 0.964137 -5.54239 2.06371
1950 1 21.6803 22.6615 -7.37704 -1.26796 -2.6692 0.727516
1951 1 -4.41139 -14.2987 15.1328 1.74207 6.98786 1.07563
1952 1 5.2805 -15.7182 -12.2326 -0.0619329 -3.56761 -2.64929
1953 1 17.3918 -19.271 -0.452477 -1.55467 -0.805733 2.5513
1954 1 4.20379 6.46521 10.8599 8.53301 5.0972 -0.781576
1955 1 -12.9064 -18.36 22.3636 2.57086 -1.50274 4.68913
1956 1 -4.47189 2.44283 8.21482 -0.775804 -1.57463 -3.26559
1957 1 14.5087 16.0267 7.37774 8.32513 -6.33134 -1.55401
1958 1 13.5141 5.95835 16.2358 -2.12222 -2.26105 1.38095
1959 1 -24.4296 -4.514 -1.58547 -3.88136 1.03976 1.07243
1960 1 -16.7413 -5.04937 -20.3835 -1.44808 -2.08123 -1.72089
1961 1 16.6606 -12.3778 -5.00387 2.66016 -0.793104 1.40635
1962 1 -0.508808 -11.6332 -4.41854 1.46677 1.26077 -3.9939
1963 1 -0.635972 16.0272 0.848634 2.71234 1.62897 1.86146
1964 1 21.2193 24.9877 -14.7755 -1.76028 -2.94607 -6.01349
1965 1 18.5367 -4.75869 20.6879 -5.13147 -1.64289 1.03996
1966 1 -20.0026 -13.9478 -10.8091 5.01641 1.93592 1.57253
1967 1 -15.5511 -23.285 17.2428 2.25103 -0.520376 -5.54196
1968 1 -23.5052 11.187 11.5842 3.20923 -3.19142 2.20542
1969 1 -4.12536 -7.83608 9.96512 -2.29065 3.10791 1.75527
1970 1 21.6567 -6.22521 -1.07558 0.358374 -2.53401 -2.47212
1971 1 22.6871 -4.38271 7.45972 -1.22143 3.8539 -1.8783
1972 1 -3.24886 -5.74569 7.89766 -1.54582 -2.07493 6.93398
1973 1 13.354 -15.8896 19.8044 -1.53612 3.56322 2.62919
1974 1 16.2324 -10.8605 10.3696 3.29996 0.49413 -0.0177861
1975 1 11.6752 -18.0116 -17.2638 5.37026 5.04954 2.92803
1976 1 18.6878 -9.93959 -23.6055 3.71027 0.984103 -2.14573
1977 1 15.9479 -15.3288 13.026 -1.09254 4.52538 1.87374
1978 1 6.74821 -2.47199 22.7162 -2.03322 1.57724 -5.09083
1979 1 -0.168703 22.3466 11.052 0.235184 0.609209 4.41513
1980 1 -23.9284 5.57457 -18.4958 4.70706 1.74439 -1.73894
1981 1 16.414 24.3075 -3.39837 -2.88463 6.44238 0.725954
1982 1 -19.9097 -3.26924 23.5498 0.422872 -2.74101 3.74307
1983 1 16.0992 -6.71936 -5.85714 -4.15926 5.56694 0.267611
1984 1 2.42605 19.4244 19.7572 1.78996 -1.85683 -0.309099
1985 1 1.74717 -24.0931 -9.51269 0.155415 1.84303 2.30836
1986 1 13.1234 -4.81852 2.83204 -0.97067 -2.36463 2.51058
1987 1 -20.2368 3.30059 9.14941 -2.46659 -0.151859 -3.71839
1988 1 7.04625 18.7435 8.97919 -3.76346 0.230773 1.41297
1989 1 -11.7668 -14.9736 10.6299 -3.02628 -4.97535 0.545128
1990 1 19.8273 -15.1519 -4.95257 0.427925 -0.871758 -1.50498
1991 1 -22.1069 -23.932 21.7557 0.325512 5.16099 0.369005
1992 1 13.1416 21.4896 5.02601 -3.07436 0.1266 2.0407
1993 1 4.68356 13.2933 -13.8502 -7.63445 -3.09091 -0.45418
1994 1 -23.2105 -17.5936 2.69336 0.901871 1.68744 -2.54631
1995 1 2.07191 1.81139 13.5789 6.35117 -1.46275 6.1714
1996 1 -9.57431 6.30023 -23.1679 -3.07504 -0.644888 3.63563
1997 1 20.7992 24.8454 8.65694 -2.30731 -0.327954 -1.16784
1998 1 -12.6603 11.0245 -0.97757 -4.71039 3.56109 -1.03141
1999 1 -2.47667 -11.3215 22.8713 -1.54345 4.18661 -3.59777
2000 1 3.14872 3.43786 -19.2004 3.93817 3.92739 -5.11838
2001 1 -8.55805 -12.9156 -3.51007 -1.52473 -2.01275 -1.23072
2002 1 -22.6109 23.3631 -8.50657 -4.71298 -2.75461 1.43383
2003 1 10.534 -4.26468 -10.9487 -3.87596 -0.189904 -0.462419
2004 1 -0.196261 -22.3365 -23.5217 0.137181 1.00075 0.109036
2005 1 2.30093 -4.5248 18.2943 -4.85891 -2.06466 5.08488
2006 1 10.4042 -10.9556 -6.16204 -0.103867 1.83543 -0.536093
2007 1 -10.0421 13.2369 -12.1056 -0.420881 2.02852 -1.82025
2008 1 -9.63174 23.4185 12.7766 -4.93975 -1.18586 -1.06718
2009 1 -4.62473 2.12838 0.365933 2.07002 7.81864 1.70795
2010 1 -8.88376 2.60189 23.0639 1.75653 3.2488 1.3304
2011 1 -2.02092 9.68932 18.4557 2.02946 1.60568 -0.413601
2012 1 17.8165 -21.1304 14.3408 -0.835325 -1.48762 2.53072
2013 1 -13.9206 23.5948 4.17038 -0.242765 3.47033 1.09508
2014 1 -9.51328 -8.61395 14.1255 -0.947593 -2.42193 -4.66901
2015 1 -3.00597 -7.65056 -2.74857 -0.139234 -5.48961 1.52561
2016 1 -5.09796 -16.4561 -6.6945 -2.30959 0.196563 -3.39395
2017 1 13.2005 8.544 21.3576 -1.42906 0.43994 0.389224
2018 1 -16.6978 -2.30783 5.41389 1.60688 0.452584 -2.58457
2019 1 1.42958 24.4873 19.0238 1.42125 0.174134 3.04255
2020 1 9.10094 -14.6651 -14.0622 -1.32659 0.781265 0.758106
2021 1 -3.90902 11.9845 11.3634 -0.599884 1.96585 -3.74679
2022 1 16.9757 23.5317 10.1496 2.51506 -3.24863 1.42088
2023 1 -20.5457 -11.6019 7.3315 -8.36663 1.49874 3.7213
2024 1 9.04992 9.33185 11.6888 2.87576 1.12968 1.70934
2025 1 2.90736 -12.0569 24.1686 -1.90534 -0.261206 2.44489
2026 1 8.20968 21.1392 9.80864 -4.85077 -1.32596 -0.87185
2027 1 4.7833 17.3808 -9.22556 1.14357 5.92238 -1.17768
2028 1 1.4303 -1.73688 -18.2232 3.58948 1.49045 -1.67867
2029 1 17.457 -9.10891 -1.81503 0.940664 -1.74763 0.921724
2030 1 8.71462 -17.4798 -19.5439 2.49445 -2.2762 2.50177
2031 1 -6.89925 -20.7087 -10.5857 1.21119 -0.542607 -0.955702
2032 1 -9.28214 5.0418 6.37865 -2.80589 -1.97221 4.35368
2033 1 10.5913 14.7949 -0.685822 4.79314 -0.188211 -3.64072
2034 1 -9.76829 -2.7953 -18.2181 -4.92928 -1.29698 1.73955
2035 1 16.0812 -16.5619 23.9215 -0.674267 -1.48313 5.29803
2036 1 -12.815 5.73197 -21.3171 -1.81621 -0.366433 0.183795
2037 1 -17.0452 9.70897 10.8987 -1.23017 -1.08719 0.991922
2038 1 20.0611 -1.17164 12.7365 -2.07224 7.23712 -4.21912
2039 1 9.17025 -20.1318 -20.617 -1.93231 4.93907 -0.25257
2040 1 -6.67689 -23.8847 -4.49451 -0.915676 -2.61415 -1.9819
2041 1 -13.0176 -13.9594 22.5174 -0.584884 -2.66888 0.539743
2042 1 6.05987 -21.2238 21.5328 2.96881 -3.23251 -0.719554
2043 1 18.5741 12.7951 12.8273 1.47748 3.67206 0.803129
2044 1 3.28041 -6.25117 3.27003 3.14326 -2.94443 0.0284562
2045 1 6.07716 -18.0088 -16.4906 0.759044 -0.583467 6.6413
2046 1 -7.06004 15.6046 16.5631 -3.58955 -2.00381 -2.3569
2047 1 -5.8754 -14.4556 6.52571 3.30531 3.16724 -9.73147
2048 1 2.85515 14.3941 -17.5349 -3.28656 -1.68101 0.953834
2049 1 18.0331 20.8221 -19.186 -0.419673 0.059719 6.5726
2050 1 -12.5122 5.58496 -10.4774 4.23644 -0.191081 2.65975
2051 1 -23.4429 10.3592 -5.92792 -5.03091 -0.827107 -0.379159
2052 1 -9.87589 4.08686 -19.7264 -0.16924 -4.80646 -0.16199
2053 1 -22.7591 12.3557 -18.6632 0.713752 3.87626 -0.243092
2054 1 14.1873 2.71112 -1.19253 0.00555221 4.45239 -1.31655
2055 1 5.40736 15.4299 7.57976 -1.9163 -2.8143 2.03519
2056 1 -5.66316 25.4508 -24.1296 6.47689 -3.04067 -3.84574
2057 1 15.1568 -2.52159 6.78264 -4.53519 1.67956 -5.69162
2058 1 22.2313 9.51672 -12.0273 2.31027 2.20835 -1.80632
2059 1 4.60244 -8.15789 18.1629 2.21988 0.731677 2.32269
2060 1 -9.3073 -1.97318 -3.49767 -2.2115 2.7332 -1.67533
2061 1 -15.2196 46.833 -22.2118 2.67811 3.82395 -1.78978
2062 1 -17.2309 21.2549 -7.75347 -3.58477 5.31977 -1.04016
2063 1 -10.6148 -10.7631 -20.5083 -1.85684 -5.53371 0.240899
2064 1 -14.6924 -18.4322 10.4461 -2.16617 1.27429 -0.512187
2065 1 13.4704 -17.302 22.5846 -0.97952 1.22903 -1.48219
2066 1 17.8027 6.96931 9.69904 0.0523074 0.97175 -0.181718
2067 1 -22.0309 8.56197 19.7611 2.83075 -1.13279 0.942525
2068 1 -15.4042 8.29886 -4.25591 -1.86946 -3.86159 3.69221
2069 1 21.6139 -23.2476 -10.5141 4.9535 2.53987 3.32416
2070 1 -23.6643 -1.09007 -1.84526 0.643956 3.84841 -2.39855
2071 1 -20.4962 -14.1849 23.3551 2.87783 3.83403 -0.643315
2072 1 -17.7564 5.8671 21.257 0.849337 3.38954 1.23017
2073 1 -18.1518 7.47657 -17.3794 3.25961 5.26417 -0.000154919
2074 1 3.0292 11.0117 -12.5863 -1.03913 2.36035 -0.729507
2075 1 -6.69601 -16.2658 22.9881 1.01104 1.21421 5.51533
2076 1 -12.2426 25.6321 -8.52888 3.64739 2.98656 -2.95872
2077 1 -16.6434 -5.79606 4.88477 -0.500308 1.33779 -2.56194
2078 1 -14.593 0.791865 -22.7516 0.191099 -1.42238 -3.31732
2079 1 4.40317 -15.3604 -19.5534 0.906011 1.60526 -0.459819
2080 1 -23.1603 -24.8782 -16.8672 -3.50885 -3.62544 -0.466028
2081 1 -24.0308 20.3601 -16.6385 -2.65438 -3.12926 1.06317
2082 1 -7.70203 18.1746 3.43597 1.70302 -0.723868 2.84652
2083 1 19.8159 9.09857 -7.93492 -0.500239 -1.2598 0.477418
2084 1 16.0622 18.7802 20.2695 -0.629374 -3.54544 -2.49061
2085 1 -20.2855 -19.1549 -9.44081 -2.9297 -2.38999 -1.06458
2086 1 -10.5409 -13.8998 5.39442 -4.24061 -3.42233 -0.357726
2087 1 -8.66956 5.80853 -15.7488 -1.08358 4.95383 -4.37779
2088 1 8.82145 20.4374 20.3797 -0.382502 -2.4889 1.57929
2089 1 9.75077 14.1219 -19.7009 -1.89382 -0.997277 3.00495
2090 1 15.6805 7.78079 16.7772 -1.77419 -3.38269 4.26388
2091 1 -7.80704 9.06417 13.6727 -2.77545 0.0785732 -4.29546
2092 1 -18.6935 23.0024 -21.9071 -3.5051 4.19369 -1.0432
2093 1 -2.80638 14.6543 -2.92636 -4.22433 1.74286 -2.73241
2094 1 22.9517 11.916 -1.72601 0.0739992 0.963698 -0.240767
2095 1 -20.8107 -8.29757 4.45894 -4.83089 -2.39829 2.75272
2096 1 9.70087 -5.34209 0.34021 2.18131 3.04757 0.606204
2097 1 -4.35126 6.22762 11.7355 -0.866119 0.638853 0.866339
2098 1 -16.1563 -16.85 -5.86494 1.53052 1.71861 -2.06213
2099 1 14.2466 -10.4196 6.42566 -1.5186 5.41476 0.321062
2100 1 -1.06398 -4.53651 22.163 -3.32604 -2.08786 -2.25979
2101 1 -21.8739 -7.53956 18.348 2.47167 4.42639 -3.10713
2102 1 6.20899 8.83692 -8.45823 -5.63623 -0.579421 8.08615
2103 1 11.4386 -15.5228 -15.4343 3.00433 -4.27816 -1.26017
2104 1 -20.4912 -3.39738 20.0936 -0.343108 4.72341 1.71645
2105 1 12.1565 8.90467 -11.4426 -2.54 0.782516 -3.361
2106 1 -21.4847 -15.5083 -20.1378 -2.72215 -2.78152 0.240107
2107 1 -8.7191 5.10798 -12.693 -0.134338 4.56781 -3.7077
2108 1 -9.92605 11.1033 -0.143896 -0.387203 -4.41784 0.0590662
2109 1 -3.7493 8.68517 20.465 -2.39092 6.2145 -3.35561
2110 1 3.18006 9.71825 0.890326 1.53289 -3.50781 -6.04858
2111 1 21.7486 -10.3757 21.2376 -4.53921 -1.96714 2.89132
2112 1 -10.9 3.35988 13.6168 1.45502 -2.17544 -0.69727
2113 1 -17.334 -3.42398 21.8109 2.08157 1.25468 -1.15132
2114 1 -1.01805 -22.6036 19.0272 4.3105 -2.44973 -1.73628
2115 1 16.5639 -14.3919 -10.3052 2.73681 -4.47387 -1.07536
2116 1 17.5946 -3.74412 5.28898 6.30902 -0.814764 1.02097
2117 1 -23.884 24.417 4.79335 2.50774 -4.39572 0.199528
2118 1 -12.1007 -2.14538 -4.04869 -0.64203 -0.332941 4.07529
2119 1 -11.7527 16.4172 1.89551 2.11406 -0.760762 -2.79267
2120 1 17.1717 -18.1302 11.1985 -1.24407 -1.08143 2.7121
2121 1 7.51733 -18.472 23.8838 -4.10553 0.978875 1.752
2122 1 12.8811 7.34701 -9.1938 3.92633 3.41757 -3.07786
2123 1 20.0051 -8.51445 -17.4509 -3.00166 2.06895 3.28186
2124 1 21.0456 -1.58763 -17.8711 1.03336 -1.3222 -5.34423
2125 1 -1.49483 -14.1651 15.3811 2.92316 0.40477 -1.37274
2126 1 11.3364 -7.18595 -3.75195 -0.275798 4.7163 -1.35547
2127 1 23.073 -10.4901 -22.1733 0.0595402 1.33237 -0.962515
2128 1 -17.7891 -19.8251 -2.56485 7.03639 -3.1866 -2.81378
2129 1 -12.9821 -24.23 13.4597 2.46735 3.09128 -2.49926
2130 1 -21.3385 8.98178 -7.30024 0.438604 -3.38339 -3.44296
2131 1 15.9434 -3.82951 0.656501 5.40018 2.51035 4.42035
2132 1 11.255 -21.6522 -22.4054 -2.56649 2.29632 1.77991
2133 1 -12.876 -13.6317 7.04693 0.926035 3.28396 -2.15888
2134 1 12.0375 22.6379 8.70464 -2.86724 -5.03087 2.19871
2135 1 17.94 11.2325 22.9008 -1.60763 -5.78993 0.919854
2136 1 -4.46727 -21.8319 5.10234 -0.0440883 2.3953 2.05108
2137 1 17.1335 16.4628 23.6375 0.499346 3.67001 -3.5005
2138 1 16.9744 23.5235 -14.9344 -1.09322 -0.425608 -7.90844
2139 1 -7.94591 3.11735 -16.5768 -3.74067 -3.19719 -5.98105
2140 1 9.54316 -12.9277 16.8383 1.55261 -0.378556 2.92631
2141 1 -20.6252 -23.0988 1.79946 -4.30742 2.16831 -2.60017
2142 1 -16.8139 -8.83046 18.2603 -3.78129 -0.0371334 0.944259
2143 1 19.9593 4.83817 -14.3743 -0.730689 -0.361708 -3.11533
2144 1 5.83318 -0.435373 5.84942 1.31235 4.90058 -2.96248
2145 1 21.5125 9.95312 22.4975 -4.62934 5.00771 -4.06859
2146 1 5.09446 10.2613 18.5691 -1.88286 -0.537211 4.56111
2147 1 3.52598 4.89747 15.5635 -2.47582 0.948212 -1.03842
2148 1 10.9879 -22.0722 21.4139 -2.92879 -2.09734 2.1748
2149 1 17.629 -3.57243 -4.50286 2.22304 4.65423 1.98687
2150 1 17.8286 -9.84488 1.91302 -0.304991 2.40645 -0.201471
2151 1 7.21171 4.77817 -10.5895 3.62934 -2.24919 -2.55428
2152 1 8.46841 22.2817 -5.6833 0.269691 1.49028 -1.12488
2153 1 -7.80316 -11.675 -1.05369 2.5815 4.37366 -0.571365
2154 1 -10.544 18.2345 -23.6322 -0.086445 2.5901 2.28544
2155 1 15.1898 2.75417 20.0978 0.636708 -0.171932 4.83334
2156 1 -21.3781 19.0742 -8.66047 -4.01633 -2.8608 -0.495637
2157 1 -3.30064 16.4771 21.6023 -4.00717 0.650972 -5.50989
2158 1 -17.9135 13.7388 13.8855 -1.05618 -4.81622 3.37707
2159 1 5.15489 -19.6438 13.2603 0.997146 3.30804 -2.28067
2160 1 -20.3865 -0.884573 21.5644 -1.06016 1.54023 -3.42063
2161 1 -1.11056 8.28889 -4.78992 0.000218458 3.95233 -2.94834
2162 1 20.0818 12.0459 -4.68788 -2.68107 0.117657 1.19414
2163 1 5.02407 -7.4793 13.3202 0.925044 0.69731 4.3209
2164 1 15.2897 1.17749 -9.9699 -1.12352 2.93235 3.80345
2165 1 17.9669 20.2724 -13.3272 -4.15444 -1.33154 0.911482
2166 1 -16.0829 19.5068 -14.1765 -6.27185 -0.0799475 -0.402869
2167 1 -13.9678 -9.87566 -16.6603 -0.964625 1.42299 -3.25939
2168 1 -20.4188 17.0269 3.94739 -2.82752 2.18013 1.50459
2169 1 9.3207 -7.59456 -18.9326 -4.56522 -3.00458 -0.70365
2170 1 -7.6948 -15.6694 -0.242114 -0.514496 1.93261 1.52513
2171 1 -3.87867 3.51898 5.23359 -2.9321 2.67255 2.02324
2172 1 1.68016 20.6303 -4.09992 -1.3219 1.67126 -0.772328
2173 1 21.5913 0.857315 -13.9015 -1.61806 -2.16163 1.48741
2174 1 4.18489 7.82716 -4.36371 0.617428 1.89955 -0.907226
2175 1 11.8024 -23.5931 10.922 -5.73815 -0.335081 0.529809
2176 1 9.00539 -19.6804 16.3679 -2.89641 -1.63673 -2.41513
2177 1 18.8815 16.1867 17.5791 5.76062 -1.34375 -1.05183
2178 1 19.6528 -17.7663 -7.58085 0.0992652 1.99782 3.18056
2179 1 11.2066 -4.19161 6.41797 -1.0748 -0.314055 -2.22367
2180 1 10.649 -6.51051 -9.21509 3.00343 -0.122695 3.1773
2181 1 -16.1044 -21.8825 21.1524 4.56043 -2.56715 -3.65193
2182 1 -1.28843 -1.72969 10.6682 2.44524 -0.865506 -0.512291
2183 1 4.54614 -3.28672 14.8432 1.75777 2.80526 2.62427
2184 1 15.1081 17.7615 -19.1365 1.83459 -0.203394 7.84022
2185 1 6.77454 5.10448 19.0054 1.36075 2.79807 -2.47713
2186 1 2.81115 -9.90678 -16.3908 -2.76123 3.18924 4.89901
2187 1 15.9847 -4.15277 9.05665 -0.337187 0.310279 -2.85402
2188 1 -12.5917 4.94918 9.53536 1.19616 -2.01219 2.85054
2189 1 2.44129 18.8604 -8.93724 2.78317 -0.547735 -0.154448
2190 1 -1.51783 2.956 -11.9001 -3.54415 0.64701 2.00254
2191 1 14.1247 10.8951 3.63609 -4.78524 -4.10745 2.67957
2192 1 0.803732 2.83064 -23.1568 3.71008 -3.71973 0.574356
2193 1 16.1095 -13.4648 -14.3657 0.901589 -1.5619 0.318905
2194 1 -20.1572 4.34099 22.4326 2.99996 -5.29268 2.52947
2195 1 -9.76051 -17.9014 -9.02377 -1.72737 -3.07998 -4.11679
2196 1 -3.13653 7.45585 -11.7142 -1.18523 2.00129 -0.189203
2197 1 16.3426 21.776 20.6984 1.05245 6.48812 0.0863774
2198 1 3.99999 10.8198 -4.18979 2.12453 3.4229 3.66151
2199 1 -17.179 13.3075 1.23654 -4.88703 1.90793 -4.05122
2200 1 -3.32887 -23.5226 1.84257 1.08636 2.26281 -2.74257
2201 1 12.5926 -12.3518 -22.3852 1.5723 -1.07165 -0.139653
2202 1 17.66 -19.8004 -18.7759 1.44446 -2.56 2.23692
2203 1 8.52639 -0.477087 -2.19726 -6.00143 3.06232 1.41005
2204 1 5.89989 0.255077 -0.995359 -5.43834 -3.04166 -3.71684
2205 1 -21.8175 9.24917 -16.1703 -1.5286 3.53635 2.67309
2206 1 -3.75917 -10.6069 -14.9523 0.794758 3.38581 0.520195
2207 1 -22.2348 -7.49707 -2.12014 -0.307704 3.20975 1.04034
2208 1 18.007 18.6826 -4.25656 2.93708 3.7917 4.01236
2209 1 23.0857 22.7637 21.116 2.13196 -5.81808 -0.627458
2210 1 21.759 -19.1722 -1.71234 0.364838 3.82023 -1.83928
2211 1 -18.7326 5.63507 -19.6562 0.406622 2.80294 0.424415
2212 1 -17.7164 -4.48487 -5.54723 0.773472 -2.29954 -4.48471
2213 1 18.7877 9.42265 -4.4191 2.68416 1.6614 0.415551
2214 1 11.6693 9.03106 19.0627 -6.15124 2.25697 -0.226401
2215 1 10.5908 17.6515 -1.29535 0.22511 -2.1356 0.0453576
2216 1 2.40872 -2.01478 -13.8255 1.80463 0.328482 -0.132597
2217 1 13.1326 -13.9788 21.9837 0.214706 -0.0787004 -0.575648
2218 1 -16.97 -6.08599 21.0003 -2.54405 1.91352 -4.50661
2219 1 -11.6331 -23.0102 15.7479 -0.774318 0.161883 1.17939
2220 1 0.852432 16.6053 -13.2677 2.24949 -2.20178 1.35495
2221 1 18.5991 4.91375 19.1141 0.535926 -1.6565 -0.10041
2222 1 1.1666 7.55599 4.24925 -4.6272 4.39869 1.35839
2223 1 -21.5621 14.0988 -22.9955 -0.862837 -3.76166 2.44069
2224 1 -14.7452 15.1052 -5.00992 1.28561 1.5683 2.66472
2225 1 0.57135 -18.2792 23.893 -1.97694 -7.5673 3.97697
2226 1 19.2283 -1.10636 15.417 -1.81216 -3.22925 1.99713
2227 1 10.5584 2.74427 -1.52196 6.21086 0.441766 -0.169084
2228 1 -7.82142 -7.99822 -22.9039 -2.02 4.79865 0.258383
2229 1 17.4994 4.45641 16.2326 -2.5382 1.22907 1.31434
2230 1 3.86095 19.6933 -1.96703 -3.64498 -3.94035 -5.36224
2231 1 -13.3959 23.1708 10.8462 -2.35256 2.33977 -0.17266
2232 1 -22.1779 25.322 -15.5962 0.850118 -4.4002 3.29301
2233 1 -10.8707 0.435397 -16.9481 0.291175 -0.085255 -0.646734
2234 1 -4.44341 3.0653 -4.12879 0.151513 1.10616 2.91875
2235 1 9.59798 -24.8679 12.2468 -1.05957 1.98294 3.18291
2236 1 20.7883 4.16966 -17.0825 4.93867 -2.04784 -0.042767
2237 1 -0.461033 -24.2201 -21.37 -1.94477 0.342938 1.60994
2238 1 14.737 14.6131 -16.838 7.28035 0.85254 2.78379
2239 1 -15.1242 -9.54745 22.948 0.861182 1.11177 4.06227
2240 1 14.6803 17.3006 16.786 -0.151344 1.68656 2.94947
2241 1 -23.0913 -3.30717 -17.5392 -2.97745 4.34606 -0.482757
2242 1 -11.773 -18.099 19.8538 1.14371 -2.36817 -0.729815
2243 1 10.9833 24.1039 -9.84179 0.622175 1.3421 -0.629414
2244 1 22.5289 21.7707 -14.3023 -2.37261 0.579538 0.677769
2245 1 21.2981 -20.6275 7.95642 2.71945 4.65192 -0.962329
2246 1 3.58195 17.185 -14.3353 3.85306 -2.44784 1.3115
2247 1 23.606 -13.5414 9.8219 -1.52563 2.36162 -2.6986
2248 1 -1.77907 -6.46692 -12.6125 -1.34143 2.04482 -1.0384
2249 1 -14.7576 13.0469 -17.589 4.12638 -2.69519 0.590358
2250 1 -0.564241 0.628513 8.85623 -0.688987 -2.32484 -2.4491
2251 1 -10.0782 -10.5585 -11.7645 5.23181 4.43452 3.33846
2252 1 -24.4088 -13.8479 -1.55381 0.362504 4.04166 -0.47738
2253 1 5.99844 -18.7403 -2.8841 1.67891 2.30322 1.09951
2254 1 4.81436 18.312 14.7805 0.539144 -0.219541 -2.40678
2255 1 0.0500894 -1.48113 -15.3819 3.86497 0.669588 -3.93117
2256 1 14.1505 19.7911 -22.2107 -0.597042 -0.484422 -0.97219
2257 1 -0.63591 2.33383 -9.15103 -0.386181 0.202792 -3.10261
2258 1 -10.6521 15.3516 -22.7402 2.68879 1.2487 1.13223
2259 1 -22.7413 -8.57114 22.6431 4.07741 -1.04677 4.74551
2260 1 19.7707 18.35 -17.3863 0.685089 -3.84987 4.47275
2261 1 12.9742 -4.73152 -9.01118 -5.1189 -4.67059 -1.89071
2262 1 18.6326 -22.7528 -1.65751 0.095909 -2.18646 1.35062
2263 1 2.69287 -15.9742 -2.4168 -4.00872 -1.45705 3.26512
2264 1 -1.84585 20.4477 2.30177 -1.84549 0.28908 4.66049
2265 1 -2.15155 2.47226 19.4353 1.1197 -2.30827 2.73432
2266 1 -22.9911 7.64904 13.3859 -4.89859 0.378534 4.38286
2267 1 -11.0904 -15.0133 -0.729699 2.31064 1.20142 5.34884
2268 1 13.6304 0.895229 -5.24053 -0.137562 2.27068 0.940722
2269 1 17.7521 9.57157 -21.5657 -0.116935 -2.85972 -1.84587
2270 1 -6.10574 20.8516 1.25842 0.87147 -0.465779 4.81782
2271 1 23.7476 -17.8834 -7.89188 3.76136 1.66507 -1.10851
2272 1 -0.179971 12.5861 10.654 1.42613 -4.06568 1.90918
2273 1 -23.3818 -21.2811 15.9938 1.12699 0.154712 -1.58871
2274 1 -5.27635 -0.648029 19.7496 -2.10408 -0.222112 -1.07124
2275 1 -12.4125 24.0779 -15.6056 -2.7526 -1.80363 -3.44695
2276 1 0.371959 11.0276 3.65373 -3.0796 0.436321 4.26489
2277 1 -12.7362 5.03376 23.3082 -1.95796 2.20872 -7.63055
2278 1 -15.4443 -11.9184 -6.00821 1.76987 3.04836 -0.218411
2279 1 -12.4234 0.224117 7.21013 -1.27482 1.96958 2.13562
2280 1 12.3778 -11.325 -2.30276 3.88003 0.347875 -4.62068
2281 1 20.3593 12.7224 23.083 -0.451929 -6.82292 5.43213
2282 1 -6.35922 23.3369 7.77888 0.0558146 0.382534 -1.7307
2283 1 23.2044 -12.1822 7.35294 3.88703 -4.4975 -5.61892
2284 1 -21.4223 23.7523 -22.8513 -4.31455 1.97902 3.57433
2285 1 -20.8445 18.0804 1.05189 6.12414 -2.89854 1.40583
2286 1 3.29418 -9.14823 3.16787 4.28033 -4.16129 -3.42595
2287 1 22.0849 17.686 13.7472 -3.28355 -1.87351 -0.480959
2288 1 21.904 -7.37892 -6.10815 0.198917 0.773217 -1.37557
2289 1 -2.63116 13.4872 -21.2803 3.65574 -1.66977 0.167901
2290 1 16.7787 -7.71144 21.6251 2.24467 -0.249976 -0.073215
2291 1 0.190125 21.7825 19.6914 -1.71174 0.406781 2.06083
2292 1 -14.307 -10.1069 -1.58272 -0.411648 -0.838506 0.138654
2293 1 1.75966 4.99958 11.0002 -1.10466 -2.21865 -1.36161
2294 1 -18.627 9.88376 -19.1579 -0.930215 -2.36486 -1.06609
2295 1 -14.1697 11.4523 23.656 0.174995 2.19928 -3.90075
2296 1 -21.8525 -9.85678 -17.4494 -2.58017 0.531528 2.11804
2297 1 11.2248 5.61655 -20.9491 9.43314 -0.15455 -5.05256
2298 1 -3.80913 -21.3 -5.76233 -4.13745 -1.91064 -3.74407
2299 1 9.55362 -12.3254 -2.85353 2.39464 0.316496 -4.62573
2300 1 7.32821 13.1989 2.15515 5.17636 -2.28191 -0.0448805
2301 1 5.52622 -24.0972 22.0537 0.206179 -2.98853 -2.72916
2302 1 15.0325 10.4549 -14.12 -2.0167 -1.37509 6.38861
2303 1 -11.9857 18.6178 -13.1771 -1.42315 -3.62824 1.7475
2304 1 8.83525 16.528 7.35161 -6.41255 4.95467 1.56927
2305 1 -14.2158 17.3698 12.2035 -10.2159 -2.29074 -5.69122
2306 1 3.16038 -4.39797 22.3498 2.20433 -3.28504 -1.44614
2307 1 -16.1481 12.9636 22.3928 0.146305 -0.649512 -3.22653
2308 1 5.80765 3.88086 -18.6033 -4.8931 3.45735 -0.111095
2309 1 20.9504 17.2003 22.4993 -0.740923 6.70432 -2.01677
2310 1 4.7593 -18.4086 9.28914 3.94074 -1.37478 1.16194
2311 1 6.18159 1.15049 3.30309 2.27399 0.962462 2.13188
2312 1 -19.6075 -21.1212 8.20335 -1.22435 0.147258 2.84158
2313 1 -8.97985 14.3977 -20.5168 1.65659 0.783851 2.45087
2314 1 -18.0723 6.0527 8.70756 -4.2134 1.47317 -3.31498
2315 1 -10.9486 15.4962 16.261 -4.211 -0.750734 2.67602
2316 1 -17.9815 -13.4795 2.73636 0.710747 -0.376245 1.38994
2317 1 -3.46244 -11.4704 -8.08589 -3.1379 -0.0705885 -0.196718
2318 1 18.6157 -5.71346 -6.10321 -0.24096 -0.998858 3.09504
2319 1 5.83456 -10.274 8.13012 -3.884 2.55629 -6.14761
2320 1 22.1971 2.06203 -18.3665 -2.51882 -1.37334 -0.444564
2321 1 -1.28749 25.9884 23.246 -0.471649 -0.35348 6.68574
2322 1 -4.11469 21.017 20.1036 -0.53238 -0.476706 -1.35077
2323 1 3.71183 -3.49877 -3.83825 -3.59522 -1.51765 -1.98088
2324 1 7.85686 -20.295 -17.1721 3.75002 1.14398 -0.19225
2325 1 14.9314 -21.9837 -14.9565 2.33803 -1.98499 -0.502086
2326 1 21.7112 -10.2726 -12.3513 -2.63984 0.112515 -3.19856
2327 1 12.2383 -1.81046 -17.5011 1.2554 1.72047 1.10571
2328 1 -8.57356 -8.03273 -3.64455 -2.65319 -0.287328 1.16447
2329 1 6.60379 6.03493 12.4165 -2.90316 2.48863 -0.566669
2330 1 13.2009 -22.4235 15.6878 -1.5526 -4.72568 0.926774
2331 1 -15.312 -15.5173 10.9227 -2.97346 0.198662 -2.49998
2332 1 21.0311 -17.0199 10.7226 -2.40282 3.61365 -1.84333
2333 1 10.4075 -20.4769 -13.8828 2.70913 -3.99721 1.06171
2334 1 -9.24937 19.8057 15.3792 2.62056 -2.59881 -0.697689
2335 1 -5.33523 20.5941 22.7516 3.79831 0.559991 -3.50442
2336 1 15.0658 -11.4593 -21.3329 -0.83835 -2.08379 -1.97178
2337 1 9.11236 4.52765 0.159965 -5.65862 -0.460873 2.07568
2338 1 -0.0187811 -3.78368 -22.0619 -0.458431 -3.81262 -0.0802835
2339 1 8.59929 11.1676 -4.51498 -1.25649 -2.38242 2.4337
2340 1 8.10019 8.05606 14.0846 -3.00026 -3.74086 -1.54195
2341 1 5.91698 -18.1397 -19.3676 -2.02745 -2.87493 7.43227
2342 1 8.99457 -14.4892 0.964698 0.0430255 1.95825 -2.66101
2343 1 9.44777 22.9935 3.56462 -0.900012 1.89893 -2.914
2344 1 13.1922 24.1076 3.97701 1.99781 3.37476 2.79239
2345 1 8.32862 12.178 -13.47 -0.167065 1.34439 0.752489
2346 1 -3.79071 -20.1213 9.26285 6.90947 5.89519 2.74668
2347 1 -13.5445 12.4594 -14.9878 0.941978 1.60722 1.13386
2348 1 7.85537 -2.30113 4.61919 -2.28482 1.44598 -0.711305
2349 1 -9.62788 22.7795 15.574 5.40697 2.13352 -5.22027
2350 1 11.1406 6.81319 -13.4201 0.514513 -3.47551 2.17202
2351 1 17.3523 11.1503 -12.4087 -4.61586 -0.0497215 -2.82337
2352 1 -1.98761 21.8036 -21.5467 3.75702 2.73317 4.01943
2353 1 13.2751 -2.76377 4.85645 0.285535 3.91196 -0.710708
2354 1 19.4784 -18.5274 -22.8441 -1.0991 3.06992 1.37523
2355 1 -7.32161 0.0513971 2.51756 -0.301338 2.32221 -2.05145
2356 1 14.8392 -22.3338 -9.52393 -0.941051 2.71937 0.304837
2357 1 -3.1839 -0.609749 0.235082 -3.02102 4.61943 3.78524
2358 1 1.59444 -12.5787 -10.4939 0.485276 3.53708 -2.84631
2359 1 10.4303 9.37166 7.17884 -0.85796 0.675138 -3.25816
2360 1 15.3895 16.4696 3.4467 5.79075 0.55952 2.13448
2361 1 -22.0136 10.5175 -12.0998 -0.470964 3.5415 1.37282
2362 1 -20.6285 11.0614 11.8499 1.56399 -2.85052 -0.885932
2363 1 17.4539 -11.672 -0.476012 0.468537 0.0260168 -2.2275
2364 1 2.45724 -1.26686 0.0130142 0.913669 1.7564 -0.996199
2365 1 23.3386 -7.01506 -3.20706 2.79669 -4.79005 -2.23357
2366 1 10.8412 2.8586 2.11132 2.42212 1.08808 3.47391
2367 1 4.26889 18.3167 11.9062 0.0871336 -5.41987 -3.16145
2368 1 -8.75464 -19.5019 -6.67352 -3.42961 3.8511 2.8757
2369 1 19.2999 2.76105 14.8591 -0.562692 0.387857 0.73781
2370 1 -22.7359 -8.7589 -6.80383 -0.747763 0.942336 0.379306
2371 1 18.5889 -20.1771 2.39747 -2.88249 2.02321 4.19892
2372 1 -24.4644 4.49125 -1.10153 2.10399 2.824 0.0209485
2373 1 13.6271 10.7818 14.798 0.233748 -3.21778 -1.11269
2374 1 -6.85675 8.86054 -1.9312 -2.44032 1.93072 3.61714
2375 1 10.0751 23.3494 13.2667 -0.64711 2.00295 -1.11327
2376 1 -15.528 -0.449328 23.0624 1.95851 -2.25048 -1.63228
2377 1 -5.66176 -7.80446 -4.27054 1.73849 0.738099 5.69006
2378 1 7.57647 -1.85852 20.1304 3.90639 1.50165 -3.47642
2379 1 -23.7236 12.8202 9.06314 0.203462 1.60361 -0.718425
2380 1 7.56327 -14.086 21.7069 -0.877624 2.33649 -3.25944
2381 1 13.5621 -9.099 -3.87361 -3.38423 4.66088 0.616476
2382 1 -14.0305 15.8327 -17.8146 -5.94772 -3.54495 1.76577
2383 1 22.5234 -17.9893 4.6806 -3.3207 3.96352 0.291037
2384 1 5.48951 -12.9461 23.4268 4.84579 0.435944 -2.96207
2385 1 -1.22417 8.03821 2.90369 -0.415967 -1.50814 -4.2445
2386 1 2.51017 -2.17259 4.96527 0.272465 -6.1734 -1.80008
2387 1 -12.5022 -5.05103 14.8807 -1.52842 1.90042 2.31122
2388 1 8.34114 23.2705 20.6616 2.71265 0.549071 4.52995
2389 1 8.16868 -10.7692 10.4994 -2.96493 1.08195 3.0166
2390 1 -21.984 -5.732 -6.65986 2.07986 -0.00517869 0.537913
2391 1 -7.82017 -1.84239 8.40292 1.22276 -3.68112 -1.83366
2392 1 8.83948 -24.6413 -15.5136 -0.364964 -0.616796 2.32521
2393 1 5.17177 -17.6127 19.4063 1.6126 -2.63375 -6.19154
2394 1 18.0366 13.6446 -5.75497 -1.69803 0.824226 1.4632
2395 1 3.89538 17.1143 18.7062 1.08732 2.72362 4.97397
2396 1 -16.362 -21.2023 -0.414354 0.0596615 -1.8821 -2.39345
2397 1 -15.0014 -6.70963 18.9556 4.50038 5.43118 3.13334
2398 1 -7.99507 -2.64993 14.3632 3.1677 -2.24652 -1.12072
2399 1 -13.7734 -9.57264 9.88721 2.2225 -0.770744 0.0514528
2400 1 12.042 -7.64546 14.8207 -0.532371 2.16792 2.90831
2401 1 -17.8401 20.9368 -4.35824 -0.127245 2.46387 0.585892
2402 1 17.0369 15.5953 -18.8544 -0.487171 -1.61579 -2.58387
2403 1 -12.2093 -0.586157 -22.4841 2.01187 2.95009 -2.22224
2404 1 -21.245 -7.58947 -22.9443 -0.533075 -2.34358 -1.89302
2405 1 -4.81404 -10.7836 -21.548 -2.47634 -4.07568 0.327836
2406 1 -23.7035 7.77043 -12.4371 4.91209 -2.68961 -1.23356
2407 1 -13.6365 -13.1401 14.1143 -2.09125 -2.26869 4.50275
2408 1 -21.7401 -3.71202 -12.3825 7.28707 -1.42985 -0.888058
2409 1 5.47119 11.0601 14.408 -0.4198 5.4398 0.415859
2410 1 6.04903 -20.7902 -23.7826 -0.601179 -3.04251 3.7487
2411 1 9.29942 11.3453 -18.5188 -1.05365 -0.875637 -0.980555
2412 1 9.37373 19.1494 14.7611 2.58279 -3.14306 0.0799491
2413 1 -6.78207 20.6581 4.72672 0.811815 -1.25384 1.11413
2414 1 13.24 -6.91032 -6.76895 -0.267514 2.02887 0.878769
2415 1 21.6959 -23.0557 -22.9398 -5.00197 2.01283 3.90639
2416 1 7.44318 12.0951 9.21106 -3.43806 2.30225 -1.45077
2417 1 -3.00797 -5.31993 -0.914692 2.94749 4.71519 -1.71762
2418 1 14.1569 4.43453 -9.1646 0.586054 1.02242 3.19152
2419 1 21.5578 8.68213 -19.3821 3.49966 -0.936969 -1.2063
2420 1 -1.29693 -5.87385 -7.84243 -3.06216 -0.252319 2.9892
2421 1 -23.1158 16.7136 -9.01523 0.830423 -2.65373 -0.170855
2422 1 -15.7834 5.36616 15.8535 -2.03227 1.01586 -4.05947
2423 1 14.4584 21.6998 7.45593 -3.32062 -2.19915 0.770353
2424 1 -23.7296 17.711 7.10331 0.477337 4.63487 3.93336
2425 1 -15.3031 9.62691 -22.2287 -2.03144 -0.600303 -0.162101
2426 1 -0.519494 18.7895 19.9354 -0.473415 -0.49611 1.45441
2427 1 14.9246 4.91893 3.90767 5.60744 -0.167479 0.824904
2428 1 12.8152 -15.6817 15.6734 2.60535 -1.17131 -0.891679
2429 1 -8.1433 -8.65812 -12.5311 1.60941 -0.112946 -1.47588
2430 1 -12.8632 -6.94176 16.7785 -1.17808 0.130267 0.429432
2431 1 -19.5295 19.5804 -10.7116 -0.00470856 -0.840033 5.22963
2432 1 18.5788 14.061 -15.6361 2.9014 3.48033 -1.45337
2433 1 18.5524 -21.8565 20.6242 -1.39252 4.00908 1.4868
2434 1 0.177312 -22.8883 -2.18099 0.835605 0.0762191 -1.06413
2435 1 -15.8768 22.7721 9.33178 -2.78503 -0.0495612 3.22863
2436 1 -6.5653 10.4436 17.7965 -0.388105 -1.79299 3.9865
2437 1 -13.0276 -5.46926 11.953 0.149752 0.402756 0.83059
2438 1 -3.07731 -24.3656 -20.7441 -1.09785 -0.14902 -2.0607
2439 1 -14.1372 18.6983 9.71028 0.654004 -0.699698 3.25747
2440 1 4.61955 -4.03139 -14.072 2.71793 2.19552 6.33867
2441 1 23.252 12.8028 18.3722 -0.994074 -3.07052 -2.06615
2442 1 -2.00702 -10.4177 -17.1699 -5.54124 -2.56752 0.572669
2443 1 7.00124 9.70865 -22.8992 4.4892 -5.44166 -2.86013
2444 1 12.8368 21.1181 18.7495 -5.33538 1.98088 3.77807
2445 1 1.63842 4.05464 22.4664 -0.923216 -2.86867 2.54574
2446 1 -1.64649 -5.59681 16.1514 4.3211 -3.01572 4.47577
2447 1 -1.14994 -12.5539 17.7219 -3.74219 -2.86727 2.22294
2448 1 0.374063 -16.217 -10.3569 0.860552 -0.541982 -0.0103792
2449 1 16.8311 -24.356 12.9646 2.82667 -0.384165 -3.13933
2450 1 8.17344 10.6279 20.3187 3.52138 -3.86483 0.464014
2451 1 9.57092 -21.0392 5.8214 1.11827 -3.83248 -3.2542
2452 1 12.6111 17.0051 -14.4245 1.04265 -0.809175 2.75753
2453 1 -1.4342 9.96095 14.0355 4.20943 -0.279622 0.792337
2454 1 -4.91233 10.0365 -17.4211 2.94944 1.00038 6.95991
2455 1 11.3459 9.50097 13.4261 -3.70906 0.260163 2.67306
2456 1 19.9976 19.6464 21.2572 -0.627061 0.706507 -0.760344
2457 1 -2.83701 2.1371 12.535 -2.17828 -2.3655 1.7962
2458 1 -22.7851 20.6329 -3.42689 2.56132 -1.17468 2.0836
2459 1 -19.67 16.7533 -7.8629 -3.019 -3.18306 -3.07109
2460 1 9.35275 8.42897 -14.7627 2.87235 0.996602 -1.91173
2461 1 -22.4108 17.6773 -3.80345 -0.126661 2.19665 -0.6203
2462 1 -13.1469 25.1453 1.83721 1.54611 -2.01541 -8.82042
2463 1 -12.3077 -20.9007 23.5398 0.0996816 1.64097 5.67008
2464 1 6.23422 18.6447 -14.1128 -1.01554 -0.392799 3.10724
2465 1 -8.12882 -15.1078 -11.253 -5.86305 -1.03491 -1.55485
2466 1 2.80467 3.37622 -3.34255 5.36998 -4.79853 1.33491
2467 1 1.91488 -18.5075 9.50477 4.82435 1.30727 -0.385928
2468 1 -19.7347 46.9183 -6.28962 -0.364987 -1.77383 3.29809
2469 1 11.4267 -23.4886 23.6298 -0.478983 6.18824 -0.192564
2470 1 12.3043 -19.4543 -9.3753 0.707804 2.30407 0.209206
2471 1 -3.21932 25.5961 -22.9557 -0.0821336 -2.12018 1.4844
2472 1 -18.9481 1.35314 12.8272 0.602506 -0.419872 -4.4839
2473 1 13.6329 9.69685 -5.79925 -2.0376 -0.193582 -1.79472
2474 1 -3.66192 -8.48547 -18.3038 -2.86118 0.915297 -3.91719
2475 1 -17.0813 11.7653 8.96043 -1.1991 0.636965 -1.75347
2476 1 -5.78143 -18.2894 -18.9592 3.39488 -0.0129351 -1.31409
2477 1 12.2638 9.25798 -3.08888 0.0925663 0.444495 4.12634
2478 1 -3.68223 -21.9009 -1.83929 -0.825491 -2.54546 2.66411
2479 1 -20.5013 -4.03137 3.02474 1.69032 6.24219 2.58762
2480 1 -0.0587931 20.1484 -8.40329 4.5426 1.3119 -0.111385
2481 1 -14.3672 -6.23298 -9.25311 2.07221 -1.01595 -2.04453
2482 1 7.44347 -4.50871 -1.62999 -2.74651 -0.58167 3.40894
2483 1 -0.137841 9.32176 -11.1372 -2.38386 2.77584 0.760157
2484 1 1.36956 -15.1856 -7.84486 -0.560678 -1.69388 0.846966
2485 1 -1.02056 -19.6489 4.50719 1.12799 -2.99833 1.36437
2486 1 -3.41986 -19.6283 6.3955 -3.8004 -0.468563 0.662521
2487 1 3.53547 19.8572 0.861451 -3.19493 2.58499 -5.76298
2488 1 -8.46846 19.578 18.396 -4.12038 2.16894 4.75285
2489 1 6.26833 22.1819 -11.4732 4.64375 -1.18631 2.08013
2490 1 -11.3234 22.859 19.7153 1.85571 -0.937277 1.88528
2491 1 11.974 -22.8923 -3.83468 0.397157 -2.23433 -1.33241
2492 1 22.966 15.114 2.67168 -2.01087 -1.21806 -1.52754
2493 1 19.3922 23.995 -21.2387 4.15169 -2.32038 0.958202
2494 1 -15.1152 -15.3018 -23.8071 4.07212 -2.18337 1.18564
2495 1 13.9413 -12.7791 -9.74985 3.09362 3.08228 -4.91466
2496 1 3.2776 2.14156 -21.8115 3.40254 0.111713 2.36842
2497 1 4.20411 6.62729 19.6132 -4.58078 -0.615 0.257265
2498 1 -5.34669 5.91102 4.49905 1.02258 1.68246 -0.672311
2499 1 -23.3996 -15.5259 8.26453 2.85855 -0.404303 3.68633
2500 1 9.67168 21.6985 7.25811 2.78546 -0.969768 -1.38964
2501 1 6.3097 11.7452 5.40224 2.65245 -0.085091 -1.08771
2502 1 -5.57712 -11.631 11.5125 -7.01487 -0.136544 -0.295705
2503 1 17.7153 16.4514 -2.5356 1.12356 -4.54121 2.44274
2504 1 9.87559 10.7862 9.35553 1.46394 -7.86746 3.13182
2505 1 -10.893 18.2271 21.8466 -3.58804 3.63864 3.83616
2506 1 -23.7399 12.0443 -10.2599 -0.52964 7.9805 -3.17409
2507 1 8.24655 -2.39916 -16.4628 0.906662 -7.1117 7.58658
2508 1 12.5322 22.717 -6.3346 1.5217 -7.3885 0.925626
2509 1 -3.78722 -7.23498 4.6063 0.634085 -4.61995 0.821255
2510 1 -21.1304 2.25417 -2.18599 3.7608 -1.97814 -6.02881
2511 1 3.97785 3.99624 18.3152 0.119908 -0.853834 -0.0685852
2512 1 -9.44198 11.6046 13.9577 1.22226 2.40238 2.11685
2513 1 19.7235 7.24397 7.64573 1.32591 0.688243 0.344276
2514 1 23.1283 12.2517 22.5917 -1.66824 2.71587 1.32926
2515 1 1.48213 -20.8393 3.29014 1.64353 2.13247 -2.12878
2516 1 5.61169 11.1111 -19.4181 0.84718 -1.21158 0.218393
2517 1 -11.4682 -14.5012 15.5147 2.76938 1.73079 -0.325288
2518 1 -1.82587 -2.78584 -1.49331 -1.71038 -3.64731 -3.42529
2519 1 -24.3689 22.5156 14.1955 -6.50344 -3.7278 2.26492
2520 1 -22.2156 -0.112345 -6.94912 -2.41783 1.55526 -0.0061166
2521 1 9.21913 5.65417 15.3707 5.2612 1.13718 2.04209
2522 1 -3.19945 12.7102 2.16096 -0.107833 -1.7311 -0.224417
2523 1 -17.753 -24.6582 -22.5482 -3.26048 5.13828 -4.7281
2524 1 9.96418 21.7889 -21.4074 2.04861 3.15616 1.71103
2525 1 -13.3288 -15.4279 -8.78072 -0.486311 -2.0773 -1.8345
2526 1 -10.5743 -3.09632 -15.4921 -3.30915 -0.156406 1.79177
2527 1 5.56446 5.10313 8.49774 3.73404 3.19225 -2.01247
2528 1 -8.4933 12.9429 6.80982 0.166728 -3.03815 2.18316
2529 1 -18.7146 -7.77053 -3.46336 1.41 -0.916265 2.07823
2530 1 3.73089 -13.5876 -15.347 -0.486104 -5.00732 -2.4276
2531 1 -19.6566 -9.76348 -15.5678 -1.3782 -4.46068 0.566088
2532 1 -14.4715 -16.8231 1.4156 -1.0962 -0.465799 -0.169174
2533 1 -13.417 22.2997 -2.12791 -1.28625 -5.12641 1.74471
2534 1 -19.5581 -9.4905 -1.54399 0.717004 1.69601 -2.3075
2535 1 14.5769 -6.58605 15.4522 -1.74562 -0.0861219 7.08443
2536 1 -23.4008 -19.4607 -21.8806 5.3376 0.504507 -2.7616
2537 1 -2.20134 -23.4093 13.202 3.71426 0.359348 -1.22516
2538 1 -7.36401 4.14745 -23.2331 -2.27767 1.11304 3.15611
2539 1 12.9039 -11.9969 18.3853 -3.47887 -1.74461 -2.95234
2540 1 20.9055 -8.54138 15.0249 -0.890062 0.272033 4.35195
2541 1 5.83894 6.61694 15.2733 -0.9852 -5.22837 1.45302
2542 1 -11.7955 -8.01944 -20.7394 -3.81097 -2.39253 -0.249584
2543 1 -14.9971 -5.71328 -6.25687 6.08637 4.04181 1.28205
2544 1 11.8995 2.17786 7.01125 -2.51228 0.350647 2.85672
2545 1 -11.3764 9.48601 -21.803 -5.48707 4.86792 -1.30728
2546 1 -16.4023 4.82017 12.9224 -2.08255 2.17731 1.19051
2547 1 -11.6651 -3.06068 5.30121 5.907 -3.00141 4.56201
2548 1 16.0773 -5.12289 -8.90585 2.0844 2.9152 -5.02174
2549 1 8.19481 10.821 -15.9856 -0.547502 -0.771359 0.956885
2550 1 -23.1126 -17.142 -18.5175 0.44722 3.13525 -0.698354
2551 1 -6.53576 12.1188 -14.7044 0.696243 -2.19837 0.632477
2552 1 -1.09884 -15.085 8.42974 0.0861656 6.00205 -2.48822
2553 1 1.12436 24.9191 15.4374 -1.41474 0.155353 -1.49142
2554 1 19.523 24.0726 -5.80109 5.35798 -0.759982 -1.53908
2555 1 3.92158 14.553 -6.63578 0.0816058 4.34983 0.550323
2556 1 -7.46775 -12.8355 9.6977 1.86143 -0.496924 -5.65213
2557 1 17.8467 -23.7791 -12.9189 1.91594 -3.0938 0.81287
2558 1 -20.3306 9.62363 -21.5342 -3.81097 -2.72272 0.164248
2559 1 -15.9247 7.1864 5.08631 -2.95402 1.07128 0.445187
2560 1 21.0055 -23.3731 9.12821 -2.49544 -0.744662 -1.47671
2561 1 -9.49464 -1.35363 12.2103 1.52458 1.22326 -0.0438744
2562 1 -19.7322 -4.96348 -9.42518 -0.667656 -6.77052 -5.46379
2563 1 20.499 -3.80557 -21.2172 1.19896 -1.48787 0.95722
2564 1 -10.9471 -14.6613 -10.5127 -3.43497 -0.445696 -2.48764
2565 1 14.5837 17.576 13.7808 1.63499 0.011917 1.31325
2566 1 -23.8293 -10.947 12.7487 -0.428902 4.2664 -1.62975
2567 1 -13.6567 -1.04455 -17.059 -2.12461 -2.45257 -3.94407
2568 1 18.6624 -9.3876 -19.9212 2.85891 -1.19922 -0.451691
2569 1 23.55 -19.7279 -13.2977 5.27733 -1.64068 2.4811
2570 1 -20.7743 18.2913 -17.3348 -1.43808 -0.506367 1.33532
2571 1 12.6181 -0.306427 21.4434 3.5103 0.3684 -1.72973
2572 1 -22.2987 -19.5798 -7.43796 3.40252 -0.152019 -5.23314
2573 1 20.3396 -23.6265 -3.91286 0.851291 0.167091 2.32574
2574 1 -19.0259 46.8353 -9.02296 -2.52901 3.52034 5.1207
2575 1 3.64644 16.9491 1.16409 3.44405 -6.82196 2.20689
2576 1 22.1288 20.0451 15.2438 -0.0527288 5.23785 -4.03613
2577 1 13.9066 21.5083 -4.18581 1.83775 2.89446 1.38518
2578 1 -15.8048 -14.3738 -4.39773 3.63074 1.66818 -2.9218
2579 1 -7.6619 11.8214 3.08173 -0.37199 0.163396 -0.902373
2580 1 -24.0188 14.1263 -20.5146 0.142775 -4.14184 -2.22789
2581 1 -7.01096 15.9569 22.3125 0.829126 -2.69079 1.30564
2582 1 11.7745 24.9614 10.303 -1.90953 -0.544786 -3.67846
2583 1 7.21411 19.9133 -0.61267 -0.14733 1.59597 -0.876252
2584 1 -12.6066 -20.8209 -12.0285 0.635021 2.96531 -0.0281115
2585 1 16.1199 -15.309 19.4531 -1.66058 3.52111 1.59624
2586 1 -14.315 14.5976 12.1422 2.1029 -0.775582 4.60864
2587 1 17.4772 -19.8297 8.07288 -1.62041 -0.679348 0.242602
2588 1 16.2498 0.623355 -17.4212 -1.40547 -3.01618 -0.575633
2589 1 -0.668354 -7.08792 8.41689 -4.24302 -5.10066 1.50131
2590 1 14.1831 4.28922 -12.0843 -0.568321 1.95782 1.32021
2591 1 -4.81631 -22.8898 13.3703 1.72993 6.04526 1.96327
2592 1 -0.942801 -17.9757 8.90839 -0.397949 2.31002 4.64359
2593 1 -23.7621 -5.63095 -22.7558 1.72587 1.94138 -0.45213
2594 1 22.3394 -7.81982 17.6798 0.627501 1.769 0.0928205
2595 1 -1.71296 -18.5079 -18.2996 -1.32092 0.945812 -6.7674
2596 1 -13.6484 9.56396 -19.7478 -0.270731 -4.7407 -1.39978
2597 1 -20.2909 -3.29195 -17.6592 -2.50637 -1.18911 1.17932
2598 1 20.4889 -0.177467 -3.42977 -0.181939 0.477193 -0.941056
2599 1 -6.87788 3.89053 8.70853 -1.85218 2.26803 0.252643
2600 1 6.21596 21.1441 2.11279 -6.60563 -0.981922 0.625317
2601 1 -3.01921 7.8661 4.96814 -2.57362 2.33731 0.85002
2602 1 -5.23684 -12.1778 -2.13498 1.26916 0.036368 -0.0527434
2603 1 23.7951 21.1847 -5.73132 0.301909 2.54839 0.821174
2604 1 13.2811 -13.6763 -1.38458 -5.07768 4.08813 -1.42718
2605 1 -17.3125 9.70956 -6.14691 -3.1588 3.8898 -2.89306
2606 1 16.2852 16.182 18.718 -3.67358 -2.13377 5.06824
2607 1 11.0069 1.91457 23.933 5.29321 -0.687296 -2.21766
2608 1 11.7125 -18.5373 -20.3304 -1.06764 1.19808 1.26025
2609 1 -14.054 -5.63065 -17.9525 4.25115 3.21251 -4.33283
2610 1 0.939314 3.93774 -17.1449 -2.14697 2.25752 3.30531
2611 1 -23.0475 24.2744 -20.5782 -1.4493 0.0279298 6.43043
2612 1 -15.2152 -20.092 18.9347 -2.80154 -0.293724 -3.22763
2613 1 -22.6799 5.2314 15.3142 -3.7088 -5.13168 0.672129
2614 1 -12.5209 12.4332 -19.6595 -0.787475 3.92867 -0.555997
2615 1 -2.44521 1.81138 16.6439 -6.34231 -3.15152 -2.55914
2616 1 23.486 -2.19507 -9.4374 0.810235 -0.153437 -0.0159691
2617 1 -5.20847 12.8241 -17.2079 -2.52074 1.57578 -4.75025
2618 1 -6.38466 -17.742 -11.2263 -4.32069 1.06885 1.00639
2619 1 0.702557 11.6532 -22.8289 -5.94344 -1.12465 -4.38517
2620 1 -9.77689 15.4835 6.12517 0.678791 -0.924862 2.51228
2621 1 3.41791 -22.876 4.64811 7.54795 4.23488 2.99381
2622 1 -2.27006 -18.5434 21.7685 0.911896 3.07826 0.500033
2623 1 -19.9507 18.0065 -22.9263 -1.71395 -2.54565 -1.14747
2624 1 -18.3176 18.1427 -5.79137 0.137325 0.544305 5.92215
2625 1 -5.90473 -4.55487 -24.2014 3.13902 -1.05982 1.47387
2626 1 -3.11984 4.09877 21.499 -0.495415 -0.568347 0.355767
2627 1 14.3722 25.1072 9.3249 -4.05093 2.56913 2.78213
2628 1 12.5548 -8.05644 -21.6634 1.7644 -1.73865 -6.7371
2629 1 -20.329 -2.43228 6.27768 3.96265 -1.31662 2.76931
2630 1 -12.3186 -8.93256 19.1004 -2.57859 -6.73602 -7.47083
2631 1 18.8299 15.2983 1.4563 -5.0792 4.23325 -1.78978
2632 1 18.2924 -1.19191 -16.4057 -0.862316 -1.76175 3.52991
2633 1 -5.51072 -16.6424 -15.546 0.0114262 2.66828 -2.4303
2634 1 -5.23464 11.9862 -22.0538 -2.23756 -1.02637 -0.198773
2635 1 0.460293 10.2029 21.564 2.62891 -2.05734 0.355817
2636 1 -15.8941 -20.887 14.0345 0.718134 -1.08254 0.799891
2637 1 10.1646 -15.3625 -17.9429 -0.934002 1.9455 -0.758128
2638 1 11.8664 4.24583 -7.18851 -7.18395 -2.77392 -2.01167
2639 1 -1.03846 -8.556 18.7489 -1.3382 2.08082 -3.14772
2640 1 5.58663 13.7238 -17.928 -3.42338 -4.63078 -0.864913
2641 1 -24.3664 8.23132 -15.1385 0.990495 -3.08798 -1.35634
2642 1 -5.34936 -19.5496 3.44658 -2.9238 -2.32033 0.993315
2643 1 -2.41568 -15.1746 -22.2619 1.26422 -1.2833 1.15423
2644 1 18.7876 -19.8394 -12.0059 -0.672915 -5.95389 1.38251
2645 1 6.07786 -23.6864 15.1272 -1.44332 -2.69111 -3.08459
2646 1 -4.97703 11.138 -2.47353 -3.12602 3.70568 0.699149
2647 1 -9.74569 5.06808 3.72971 2.06462 3.52928 -1.47411
2648 1 18.3033 1.43934 2.04305 -3.70359 1.76543 -0.998225
2649 1 -18.3813 22.2122 -10.1986 0.285103 -3.23078 2.28655
2650 1 -3.78372 9.04779 15.297 2.22301 3.06154 0.208448
2651 1 -17.6207 -19.0578 15.5123 0.852758 2.63283 -3.40237
2652 1 -21.5262 -6.25108 -13.8457 1.03742 1.02682 1.52379
2653 1 -8.83955 9.15931 -4.31804 1.4237 1.36629 0.541779
2654 1 20.3068 -8.68867 -1.9426 1.17268 -3.40056 -0.223443
2655 1 -4.34692 -10.4716 1.13156 1.76863 3.85137 2.2568
2656 1 -4.7268 7.94244 -19.5513 -1.71506 -1.60772 0.418699
2657 1 -10.1537 -6.63074 8.46255 -3.84554 3.56015 3.15414
2658 1 -5.23017 1.01701 17.1854 0.0419876 2.03732 -0.326751
2659 1 15.6513 -4.52178 -23.4957 -2.57673 3.05463 -8.02455
2660 1 -12.4815 23.1359 13.3842 1.13531 5.49127 6.44458
2661 1 7.87442 6.59895 23.0817 -1.51532 -1.15846 3.00872
2662 1 -22.3108 -23.0686 11.3531 1.44166 -3.42216 2.80858
2663 1 -7.55575 9.41711 22.952 -0.318666 -1.26244 0.658453
2664 1 -15.6444 17.9074 22.5337 -0.23217 4.4265 0.938755
2665 1 -21.228 2.61695 1.31674 2.34193 1.05972 -1.88848
2666 1 20.5834 -23.4 1.52072 -0.758895 5.82446 -0.460583
2667 1 -7.0095 -3.57944 -4.38847 5.05248 0.256961 2.79314
2668 1 -8.11428 -19.4062 -20.9258 -0.550634 4.20335 0.372135
2669 1 1.79601 -9.03261 17.9644 5.52319 0.296647 -4.19334
2670 1 23.5869 24.0719 -16.0122 -1.13035 -0.349418 2.18361
2671 1 11.1106 18.991 19.9485 0.323763 -2.89053 0.410928
2672 1 7.16916 -6.24903 8.92424 -2.51159 0.381118 -0.408466
2673 1 -14.8341 -23.6895 -0.862933 -3.48695 -2.90571 -0.297996
2674 1 -8.09244 -21.1555 -1.86294 -1.59375 3.41303 -1.85064
2675 1 18.791 4.53484 -9.45721 -4.76192 -5.23433 0.30568
2676 1 20.5522 22.5051 -18.6397 -2.55901 -6.41809 -1.13166
2677 1 -0.274664 -23.5419 1.84085 3.57029 0.73448 3.45435
2678 1 3.88441 -19.3036 -15.0372 -5.63161 0.292659 2.98772
2679 1 7.74446 -1.0392 2.02834 -3.35709 -4.22512 1.61871
2680 1 9.27448 -5.45285 -6.81795 1.13727 1.26538 -3.89344
2681 1 -15.3632 -7.5937 -16.253 3.98318 -3.48196 0.635261
2682 1 -20.354 3.83941 14.1111 3.13925 0.845488 -3.35418
2683 1 -16.0834 5.39485 -18.0782 -0.408998 -0.884486 1.60324
2684 1 23.2038 -11.4374 3.17163 1.72338 -1.75611 -0.821522
2685 1 -2.44891 -8.58054 6.7772 -1.3585 -4.78172 -1.12838
2686 1 5.78941 -22.1532 -18.4863 -4.23557 -1.72571 -0.159423
2687 1 18.2875 -15.5579 -14.6117 0.140416 -1.58227 -0.26079
2688 1 -16.1577 -2.42346 0.373315 -0.0627768 -0.287776 -1.48044
2689 1 -7.45827 -2.28494 -7.0581 1.85239 -1.44437 3.97441
2690 1 -13.0181 -13.0999 -18.8003 8.53063 2.00343 2.8803
2691 1 -19.5385 -23.7691 20.6055 4.38408 -0.361152 -0.696665
2692 1 5.12523 0.791182 -13.5655 0.125249 2.95565 7.16786
2693 1 9.10681 18.8621 -17.7468 7.27086 -2.75808 -3.90214
2694 1 -5.31163 -10.7078 19.2204 -1.92553 4.16693 0.542779
2695 1 14.4593 6.82839 12.4408 -1.61675 3.31805 1.51234
2696 1 -24.3331 -16.061 -23.4675 -3.88946 7.63855 -3.30857
2697 1 6.86451 0.797383 -5.51456 -0.223843 1.84389 -0.588048
2698 1 15.9824 -12.8219 21.3254 -4.02568 0.367366 0.479972
2699 1 -16.063 15.8821 -2.3993 -1.61947 -3.00129 1.53446
2700 1 -7.94738 -20.3835 2.93921 -2.72997 0.0895672 -3.7138
2701 1 -20.2965 23.4673 -1.30598 1.88704 4.72517 4.76296
2702 1 -8.50702 18.0018 -20.8227 2.97972 1.62331 0.502302
2703 1 12.4584 -6.86677 -12.9585 4.13106 -1.26279 -4.17617
2704 1 2.62778 -23.923 1.71583 0.629707 4.84707 -1.13844
2705 1 -2.59391 -4.68677 5.26799 -2.18006 0.833265 -1.39027
2706 1 3.13449 -23.1271 20.9941 -0.931456 -2.52576 1.96939
2707 1 -9.3225 -13.2682 0.709008 3.59614 0.0334202 5.1239
2708 1 -14.1619 2.16769 23.0356 -1.40267 0.0389602 4.40856
2709 1 21.0797 -3.40414 20.8148 -6.84488 -1.04721 -2.87129
2710 1 -3.35441 16.7846 18.497 -2.0326 3.47189 -1.64398
2711 1 -14.2056 -5.43459 -23.7941 2.1905 -0.6077 3.04885
2712 1 17.9691 14.4895 6.03835 -0.0820664 1.54592 4.06143
2713 1 22.8696 3.50233 -6.90465 -4.52526 -4.78535 -2.5928
2714 1 -19.6728 4.28717 -11.1291 0.714691 2.19009 1.30316
2715 1 -12.1486 12.0808 19.8721 0.686369 -3.60777 1.57648
2716 1 18.9427 12.4848 0.954527 2.56379 0.0749094 3.24361
2717 1 11.1116 20.3815 10.1549 4.69637 2.59968 1.03558
2718 1 9.98386 -14.2247 -22.3187 0.911276 -0.295144 -0.633773
2719 1 20.4596 -10.995 2.95367 1.02987 0.680398 2.36924
2720 1 -13.1927 -10.1391 -19.3233 -0.349599 -1.15234 4.30285
2721 1 3.84109 -11.3167 11.2492 1.17771 -5.59766 3.80486
2722 1 -11.3371 19.0932 -7.14416 -0.0222209 0.802973 -2.52873
2723 1 -4.55 15.4138 13.7823 3.58756 -1.8753 3.11849
2724 1 -6.51446 6.10941 7.09629 4.16451 0.00892535 6.30663
2725 1 -2.04244 9.44735 -17.4264 2.32386 -8.31429 -1.08142
2726 1 -10.5669 -7.38947 -23.6587 1.88861 0.110322 3.25415
2727 1 -12.4094 -19.204 -0.863805 3.8703 1.88576 0.0329391
2728 1 22.1775 -3.22059 11.5378 -0.133498 1.30613 1.89486
2729 1 -4.53002 -24.3504 -18.1252 -3.03719 1.17901 0.875245
2730 1 -6.90048 -15.8188 10.0442 2.78251 0.19028 -2.24655
2731 1 23.1667 24.9171 -8.09877 -1.23272 -3.90707 2.55342
2732 1 1.04269 2.67566 5.65626 -0.325894 3.92039 2.17747
2733 1 -7.82612 10.4829 -18.0697 0.959349 1.43826 2.83482
2734 1 15.7756 -8.27518 18.947 4.0011 -1.06048 -3.07024
2735 1 -5.33057 7.91689 -15.3458 1.94435 0.0590596 -0.452083
2736 1 17.078 15.1786 20.9687 8.15834 3.38906 4.62996
2737 1 -21.5076 -17.4951 -1.81563 1.28334 0.968347 0.0486693
2738 1 -5.55662 10.8061 14.1908 0.974935 1.67273 4.00144
2739 1 -12.7327 -6.29487 20.6113 0.617138 -0.867361 0.326234
2740 1 -14.0929 -14.5586 -21.03 5.63859 1.21927 0.367217
2741 1 -7.5285 6.95568 2.79833 0.67858 0.78384 3.07353
2742 1 -13.9229 13.1877 5.25727 1.06715 0.934303 -4.9684
2743 1 1.09214 -19.4645 -7.43611 1.06318 -2.38361 -0.809799
2744 1 -16.7955 -18.0047 -21.0404 -3.0528 -0.309919 3.24626
2745 1 -10.5677 21.9046 1.6315 1.55014 -0.164574 0.0412081
2746 1 5.26506 -11.7007 -3.83262 -5.56588 4.21925 -0.582625
2747 1 0.314579 2.96968 15.7235 -5.42785 -2.42526 2.67863
2748 1 -6.70345 -2.33297 -10.0547 0.660482 2.19349 0.391779
2749 1 -12.921 -7.80326 23.0719 -4.61941 0.512735 -3.73978
2750 1 -14.0482 22.2592 -20.4817 1.2386 -6.17417 -1.98326
2751 1 8.41826 -22.5115 8.08535 -0.32139 -1.80696 9.54364
2752 1 -8.72805 17.7886 -10.467 1.63046 3.44622 4.0439
2753 1 -0.779408 -5.89488 10.9276 -1.48821 -2.01924 -1.89877
2754 1 -12.0288 23.7271 -0.120613 0.858548 -9.41679 -0.0736957
2755 1 1.3595 -13.6577 16.3085 -0.0257965 -0.396666 -1.0256
2756 1 21.4652 10.2464 18.251 -3.29662 0.679463 6.25444
2757 1 17.5265 -17.7332 20.0336 -6.88282 -0.918823 -1.23802
2758 1 -21.7657 -13.4215 -8.66356 2.24279 -2.17726 0.398809
2759 1 -17.7753 -15.7511 7.28366 -2.8247 -0.649459 -3.02915
2760 1 1.10103 12.841 -19.2096 -4.04978 0.270982 3.99525
2761 1 -6.24647 -13.4053 19.6253 1.29471 -3.71783 4.88994
2762 1 -10.1638 10.618 9.97152 -1.00473 -0.0533729 4.34688
2763 1 -7.75587 -12.5138 17.024 0.245521 3.6285 1.63499
2764 1 10.0223 20.9408 -13.0575 -3.04701 2.05252 1.08399
2765 1 7.08215 -15.6216 -17.9616 2.1581 -1.67074 3.6414
2766 1 9.47508 5.95784 18.1316 2.16328 -1.40292 3.27434
2767 1 -14.4072 -19.2749 -22.1055 -1.99618 3.66597 -3.14591
2768 1 -5.73504 23.4739 -0.689414 1.93479 1.55151 -3.93873
2769 1 -14.9586 16.5071 15.7986 8.32036 -1.10141 -1.78188
2770 1 -24.3764 10.6919 3.2616 -2.55541 -5.40532 -2.75575
2771 1 -18.6188 -14.2983 -17.6129 -0.0860379 -2.05198 4.23305
2772 1 -14.4542 18.23 -18.8999 3.89959 0.0481809 -4.69055
2773 1 9.52932 24.2971 6.03256 1.15052 -1.0053 -0.504119
2774 1 22.614 0.110432 -16.356 1.46735 1.32062 2.55296
2775 1 -3.2301 -18.6237 14.9308 0.701592 4.20317 -1.71114
2776 1 9.53622 7.31928 -6.20459 -2.99715 2.43933 -3.2202
2777 1 -14.2192 16.0684 4.67308 -3.41944 0.156262 -1.08407
2778 1 -21.6798 17.7454 19.2862 3.8432 -0.748774 -4.62113
2779 1 20.7238 14.3827 18.8838 2.61669 2.58369 0.417514
2780 1 -10.8856 0.471993 -4.45985 -0.734648 0.972665 1.63639
2781 1 12.3747 24.7871 13.054 -3.35582 -3.275 0.282311
2782 1 8.30866 -11.4061 13.5546 2.49753 -6.33027 0.235048
2783 1 10.775 -10.3517 -12.623 6.8246 2.12909 -2.36184
2784 1 -11.919 3.35593 -0.461914 3.87498 -4.35703 -0.657255
2785 1 20.9705 -5.0632 -14.7475 -1.22665 1.75771 5.74344
2786 1 6.48782 -4.72247 3.64301 4.49299 -1.54791 1.22291
2787 1 -15.1179 15.0069 0.0386234 2.63059 3.07276 0.817771
2788 1 -21.9392 16.5166 11.7091 1.17579 -5.37079 -2.96033
2789 1 8.81608 -5.84685 -3.98898 -0.58482 1.04461 -3.81273
2790 1 -8.24905 -5.39053 -15.3938 -3.31661 -6.53897 1.62852
2791 1 22.6395 14.6319 -5.8142 4.61393 -2.77388 5.37593
2792 1 -7.26747 -4.19101 4.52106 4.00257 -1.49299 -4.36812
2793 1 -1.58904 1.76567 6.24493 -0.655811 2.60362 2.06231
2794 1 5.87012 18.4427 -6.67897 2.88654 3.98116 4.68309
2795 1 19.2655 13.8083 -18.3593 -2.30105 0.608737 1.78867
2796 1 18.6763 -16.1413 12.2356 -0.133906 -0.392017 -2.82326
2797 1 16.6505 -12.0352 -24.048 -5.56233 4.20463 4.62957
2798 1 -19.9362 0.329154 -5.19793 0.496053 -0.301892 1.13818
2799 1 -0.155357 -16.6158 -5.64499 0.795885 0.277258 -0.427567
2800 1 -12.0292 -14.1891 -16.2229 4.2844 -1.65916 -3.84163
2801 1 2.20658 17.6016 7.92424 -0.818237 3.61855 0.223824
2802 1 6.94506 11.6255 -10.9786 2.45928 -2.60427 3.00951
2803 1 22.79 -6.84814 -15.9201 -1.77446 2.91653 -2.31844
2804 1 -17.8251 17.4827 -10.0973 -0.427933 -3.64323 -3.63032
2805 1 -15.9565 6.87385 -11.398 -4.07897 -2.22394 -2.64279
2806 1 -4.16651 19.5416 -17.1029 2.59723 -2.78089 3.75376
2807 1 -20.307 18.474 -1.76039 3.68651 -3.18315 -0.30762
2808 1 4.1718 -24.2819 -11.2303 -1.64622 3.26668 -0.106242
2809 1 -10.6608 18.0821 17.4764 3.68743 2.42195 -2.9689
2810 1 6.52656 24.0897 -13.9074 0.64675 -1.98217 -1.73019
2811 1 -13.3973 11.244 3.34704 -1.91927 -0.912479 -0.0464984
2812 1 -8.97856 -1.44163 21.6191 -0.420884 0.0430576 1.84854
2813 1 0.484007 -8.59733 -17.704 1.1348 -0.364574 -2.06243
2814 1 21.2224 -4.48621 -6.13742 0.241723 -3.88827 6.19768
2815 1 23.0431 6.57953 6.76547 -0.247633 -2.69973 -3.86381
2816 1 1.17003 -16.5006 19.4092 2.14515 3.27907 3.5491
2817 1 6.54733 -17.073 -22.1795 -1.19089 -1.24284 -0.2947
2818 1 -0.384486 -2.27671 2.78108 3.87603 3.77724 1.7389
2819 1 19.3125 13.6693 15.7484 -0.0197795 1.55476 1.99134
2820 1 -15.4439 21.4231 6.95917 0.035927 -1.91385 1.43891
2821 1 17.4114 -10.6302 -11.8377 0.260204 2.64539 -5.17343
2822 1 -14.2796 -2.88662 4.14873 1.7908 -6.10099 -0.975092
2823 1 11.6308 -15.3206 4.71556 1.51185 1.08865 1.9405
2824 1 8.46021 14.1602 15.0905 3.01309 0.0512411 1.41808
2825 1 15.9177 18.8005 -10.4261 2.0383 2.98754 -4.51941
2826 1 7.86012 -19.6259 -0.987417 -2.0165 -2.0214 0.737392
2827 1 6.42433 -8.8969 20.5217 -2.50778 -0.59443 -1.86925
2828 1 1.98301 -4.23049 -17.3016 1.99518 4.04924 -5.53569
2829 1 18.3939 -22.3857 9.35976 -1.99582 -2.49539 2.3115
2830 1 -22.4343 6.69138 -0.41321 -3.35041 0.421838 6.26401
2831 1 18.0959 4.42658 -12.3549 0.14797 1.06861 -2.4727
2832 1 -22.2445 -21.3662 -9.54238 1.30909 4.17354 -3.06425
2833 1 -22.1423 1.67897 5.44419 -1.22461 0.805019 -3.87491
2834 1 -9.2644 -16.7343 22.2017 -0.969605 2.13867 -2.6201
2835 1 -4.82958 6.686 0.250895 -0.507404 -2.1215 -2.90024
2836 1 -12.2345 19.2813 -4.58773 -0.0670984 1.54673 -5.92201
2837 1 -17.0254 11.0494 -10.5632 -0.404838 -0.2734 -0.439753
2838 1 19.1701 -9.55618 21.7532 -3.98584 -4.34444 -0.107043
2839 1 -18.3158 -3.59755 -22.2704 0.310718 -2.56003 -5.16746
2840 1 3.28708 -19.4333 -24.2005 -1.23619 4.29629 0.733291
2841 1 19.1103 -17.8961 -4.27184 -1.6388 5.60897 -0.386317
2842 1 -4.11894 -14.0248 -9.78133 2.76697 2.01812 1.97953
2843 1 15.2287 3.66247 -21.5861 0.665848 3.60855 -1.08158
2844 1 21.5218 17.433 7.29291 -3.91972 -0.892057 2.26803
2845 1 19.4111 4.20841 -22.0717 4.97843 2.87158 -2.2131
2846 1 -21.7855 0.300002 2.92927 -0.880175 1.8016 -4.48277
2847 1 7.92106 14.5517 -0.438889 -5.1095 5.58816 0.496454
2848 1 -17.5939 -22.9346 -10.1743 3.15616 -2.96394 -1.15503
2849 1 -22.3243 -24.4135 13.9622 -0.682109 1.72394 2.21789
2850 1 1.94925 3.59531 -9.61396 -1.38635 -0.872809 1.69449
2851 1 -6.19997 22.9358 19.8197 -0.637151 1.09913 3.98603
2852 1 2.50307 -5.05895 0.84461 -0.443187 1.52398 1.46186
2853 1 -2.5842 25.257 21.1053 -1.47444 3.39571 0.277639
2854 1 4.8974 -7.63909 -5.9528 0.727208 -2.63262 -1.89961
2855 1 -18.0905 -7.32938 -19.5464 -2.72722 -1.16238 1.19254
2856 1 16.4466 -16.7884 0.312263 -0.328203 0.0214987 0.19796
2857 1 18.806 9.78102 10.3121 -3.96112 0.673501 1.22673
2858 1 12.4599 -2.86869 -21.9629 -3.2591 0.955936 -0.523712
2859 1 -23.6665 -24.0718 -19.4311 1.24665 -0.161435 0.0433565
2860 1 -21.9062 5.71065 19.1811 3.13986 0.156668 3.99939
2861 1 13.5255 11.5012 20.9281 1.04685 2.81055 1.9525
2862 1 10.2143 -3.90043 -18.1244 -6.45635 1.87236 1.4477
2863 1 20.1943 -18.4877 -18.0081 -2.55714 1.58146 -2.12123
2864 1 -15.2246 12.7922 14.0188 2.88216 -0.535143 -2.92622
2865 1 5.73979 10.9656 0.474987 1.54857 -5.07495 0.497009
2866 1 -18.6943 25.0261 -7.13826 -0.846304 -1.84374 -4.85608
2867 1 -17.6653 17.055 -14.4715 -3.84215 -1.56261 -2.48734
2868 1 3.19126 -24.1054 18.2603 -1.5179 -3.51734 -3.56783
2869 1 -19.9176 -18.0764 16.9687 -3.39229 2.96312 -1.06937
2870 1 -11.6509 15.7716 -11.7401 1.5375 -5.19749 3.45081
2871 1 -14.8654 19.9449 -23.8736 0.403733 -0.597061 -1.20532
2872 1 6.84976 7.66746 8.61582 -2.3716 1.93531 4.70089
2873 1 -9.94839 -1.10935 3.89764 5.15804 1.66694 2.78628
2874 1 -2.75329 -12.7548 -12.2908 1.40151 0.35347 -0.247746
2875 1 20.9767 -4.00403 -9.02249 0.0576827 0.286596 0.689442
2876 1 19.0269 -23.8914 -22.4778 4.47066 -3.06091 -1.32534
2877 1 11.0142 -6.15244 4.23654 3.5618 -1.75467 0.402587
2878 1 -16.6188 22.6227 -13.8268 -3.53308 1.47437 3.88542
2879 1 3.34149 17.3708 4.32489 -3.39757 -1.73001 -4.33809
2880 1 -0.37144 -0.16645 15.9316 -5.58718 -0.431206 -0.584899
2881 1 -16.7964 14.8958 -21.5157 -3.57287 -1.52262 -1.98297
2882 1 -22.3792 -16.798 20.8498 0.828341 4.92927 2.03446
2883 1 11.8039 -14.9587 0.780693 -0.600807 -6.96549 -2.59011
2884 1 9.18464 -6.55211 24.1489 1.23035 -2.37373 -2.50958
2885 1 -6.64156 4.53754 -6.06642 -0.867832 -1.00668 1.28134
2886 1 11.4044 23.6093 1.77432 1.4419 -1.42237 4.47121
2887 1 22.8268 18.0358 20.5575 -1.76615 3.97894 -3.69538
2888 1 -11.1906 3.76796 -22.3666 -0.551869 -2.38752 3.10227
2889 1 4.16522 -2.32899 7.76165 -0.891692 3.99608 3.66328
2890 1 -1.80863 -7.62228 -23.256 -4.80953 -1.06317 -4.01201
2891 1 7.56148 -5.07042 15.863 4.58168 4.93833 -2.53223
2892 1 22.704 19.5961 -10.779 -5.30913 7.76731 0.283223
2893 1 -11.6339 -16.0723 23.5799 0.246678 3.02127 -1.39547
2894 1 -9.40063 6.9217 16.8702 2.95049 0.285568 2.33862
2895 1 -18.9819 20.0578 20.6485 0.989588 0.332095 -3.30973
2896 1 -13.8562 5.98399 18.2466 1.78959 -1.69939 0.0835015
2897 1 -1.54225 16.9281 -1.91693 2.79127 -2.99824 1.01325
2898 1 -8.95064 -10.9201 -22.7542 5.20138 0.259616 -2.1807
2899 1 -4.68855 -21.8346 19.6936 -2.59104 -0.184841 -0.730956
2900 1 15.5071 1.93053 -23.9985 -3.38915 -4.65585 3.73109
2901 1 -12.7316 -17.829 -18.1416 -2.83741 1.89207 2.37482
2902 1 -21.7168 1.74601 -20.2706 -0.20633 -7.52386 -2.16743
2903 1 -14.2772 -13.3132 4.77373 2.573 4.14421 -2.16143
2904 1 -4.88674 13.5974 -1.41736 -0.206605 2.06158 4.85967
2905 1 -17.6227 22.5008 21.0525 0.987779 -0.816373 1.99977
2906 1 12.8812 2.90023 18.2699 2.41181 -0.502668 -4.87391
2907 1 -16.9061 23.4505 -5.81687 5.83913 0.228506 3.48771
2908 1 2.33964 10.9194 17.9792 1.6501 -4.02888 2.12006
2909 1 -10.5944 -4.68504 -22.1495 6.216 -5.79941 0.560782
2910 1 -13.9268 8.70711 18.3513 -3.75309 -1.17594 -2.47084
2911 1 0.341072 4.05152 -20.2652 -2.34232 -4.90931 0.736038
2912 1 10.1271 -15.9787 -7.62393 -2.85811 2.62873 -0.777491
2913 1 17.2424 6.63373 -2.60845 -3.08094 -2.69687 -4.46379
2914 1 -0.290396 -0.711969 13.0564 4.13017 3.44333 0.193631
2915 1 -14.9939 -12.3057 24.0933 3.04567 -1.36847 -0.0389082
2916 1 20.0328 18.6484 -6.55824 1.28267 -0.611239 0.613885
2917 1 -7.05534 8.94251 6.94296 -0.737754 -0.562925 -0.0237369
2918 1 20.4169 6.91385 -5.56256 -2.39455 3.17971 -0.459791
2919 1 24.1244 -15.7643 -3.67222 4.43284 3.64957 -1.50102
2920 1 22.481 14.7107 7.89163 -1.96048 -2.9264 2.62699
2921 1 -16.2979 20.1205 10.253 3.21634 -1.42587 3.39452
2922 1 -15.2038 -21.403 23.8572 0.94497 -5.432 0.406024
2923 1 -13.015 2.16407 20.268 -5.71498 7.10441 -2.42223
2924 1 -1.45707 -16.2212 23.2736 2.67886 1.69018 1.68251
2925 1 18.8283 -8.82753 13.0635 -3.88877 2.69651 4.14779
2926 1 -8.38133 7.80378 -12.0249 1.23634 0.91382 0.0578106
2927 1 11.4769 5.80515 1.05959 -1.89078 2.93724 -1.62092
2928 1 -22.8486 46.4663 -10.8995 -3.38567 -1.31779 1.89765
2929 1 5.79172 -14.1289 7.56275 3.34567 3.68009 -3.09768
2930 1 -19.7874 7.63235 0.457478 2.76476 0.349165 -0.544564
2931 1 3.54962 -9.2761 21.3012 -1.70492 5.24117 -0.868968
2932 1 8.44416 17.9719 17.1414 -1.56388 3.83688 0.0529926
2933 1 21.1344 -5.97067 12.4547 -5.23133 0.593622 4.00057
2934 1 9.94568 1.9911 -20.3134 -1.45917 -1.36674 1.24161
2935 1 7.49712 23.6424 1.57971 1.04731 0.102201 -0.809874
2936 1 22.5215 9.17439 -7.76611 4.53414 3.17394 0.107768
2937 1 -17.1093 4.84478 -13.089 -3.45944 4.54779 2.79157
2938 1 -7.23717 -4.52602 -1.52433 -4.08472 -0.736945 -6.30581
2939 1 -10.3553 18.5021 3.816 2.20068 -1.32245 -2.97865
2940 1 15.7529 15.9488 -0.484663 3.60855 -5.29017 5.52804
2941 1 -5.95358 3.84987 -11.9417 0.556044 -4.06293 1.26783
2942 1 -20.7485 13.6196 21.7796 3.09316 2.65212 0.510954
2943 1 23.168 6.45301 9.88879 -4.15787 -4.78221 -3.3826
2944 1 8.71352 -23.3126 14.3393 1.92866 4.21087 1.40909
2945 1 -7.14481 10.433 -8.69248 2.12759 0.533832 -2.85173
2946 1 12.225 -0.895284 12.6466 -1.82445 0.797548 3.66326
2947 1 18.6688 -16.0207 -21.8209 0.22416 1.32617 -3.71378
2948 1 2.16485 -21.0045 -1.35397 3.83626 3.68729 5.2544
2949 1 -10.8765 -19.3966 -22.4893 0.800473 -1.47841 3.12108
2950 1 -21.4257 15.0681 5.73112 -1.70067 1.10732 -1.65889
2951 1 11.6682 -17.164 -10.6362 1.72974 -2.56179 0.229505
2952 1 -11.623 21.7294 -22.0243 -6.00812 0.934685 0.246795
2953 1 16.5183 3.668 1.89828 2.82142 -1.01438 -3.38066
2954 1 -15.3128 -2.37762 9.3012 1.03448 0.465181 1.66469
2955 1 12.2473 -10.3081 15.7571 -0.0531077 1.6055 -1.40471
2956 1 -13.7827 19.5325 -2.2207 -4.20441 -1.49371 -0.690105
2957 1 1.62151 -18.542 14.9007 -1.3307 -0.639395 2.65867
2958 1 7.07705 -7.38057 -11.5105 4.31048 4.37334 -2.05108
2959 1 -17.0571 18.2619 -22.5211 1.92469 -2.73846 -2.56912
2960 1 -13.6155 -2.31982 -19.5414 -4.5752 2.87982 -1.57158
2961 1 -12.451 -12.0761 -22.4856 -3.06208 -1.40687 -1.8687
2962 1 -7.72858 -1.76781 -16.3063 4.1696 -2.09672 1.63267
2963 1 -21.5713 12.3038 -4.9091 -0.649165 -0.501596 -3.904
2964 1 -0.454906 -20.0341 -22.2525 1.47275 -7.77929 1.43517
2965 1 18.8063 -0.769958 -13.7295 -0.147476 0.708029 -6.81053
2966 1 -3.26742 -22.3116 17.3273 -1.73205 -0.363114 6.05064
2967 1 1.12086 9.7884 10.1144 1.63823 2.27204 -3.29807
2968 1 -4.2579 -14.338 -0.412559 -1.55305 3.16477 2.01145
2969 1 -4.32874 -1.68294 17.0824 1.70335 -1.26339 -3.65703
2970 1 19.6446 -12.2396 -13.0548 -0.921024 1.09492 -4.8725
2971 1 -4.10966 19.9427 10.7228 0.0354695 0.750885 -4.49084
2972 1 -9.85056 7.49548 -9.35259 1.458 -2.57953 -0.497117
2973 1 -12.4968 16.1436 20.7281 0.582703 -3.36994 -2.52374
2974 1 -24.6581 -0.620864 20.2523 -0.668405 0.738375 -1.6377
2975 1 18.2054 11.198 -1.30399 -3.45144 -1.83506 -2.60431
2976 1 -20.1563 21.3421 -14.7735 1.08562 -0.688327 1.56961
2977 1 3.46228 -8.43145 -0.707506 -1.96573 -2.08942 -0.497272
2978 1 11.8101 19.914 -17.4176 -3.86282 1.79019 5.77972
2979 1 6.67261 2.51875 17.2476 0.53538 0.852574 -5.29978
2980 1 -1.89728 13.3628 -0.400196 2.29924 0.0397584 -6.25041
2981 1 -12.613 9.46322 16.1099 3.33015 2.8941 0.773516
2982 1 -12.7628 -7.4436 7.84994 -4.16901 -1.57293 -2.67478
2983 1 -8.7129 13.5794 23.2911 4.88641 5.37496 0.927892
2984 1 -1.16073 -0.641877 23.0027 1.61133 2.44388 0.275851
2985 1 -13.6922 -13.1968 11.3409 -1.80217 -2.00488 -3.4301
2986 1 -5.3333 18.8088 -23.1706 -1.68904 2.28785 1.90283
2987 1 -22.1477 46.5368 -8.36566 -0.0984962 4.5803 -3.46954
2988 1 0.943711 -23.3356 -5.17288 0.237781 -2.15925 -0.627576
2989 1 21.5958 19.1422 -13.2396 6.53198 -1.20862 -0.610086
2990 1 11.7413 -18.5796 16.3164 4.73507 3.68238 -2.55964
2991 1 3.01606 2.10923 10.7158 -1.25159 -8.33686 -0.616768
2992 1 21.7425 12.1529 -11.3957 0.76873 -3.38878 0.262109
2993 1 -22.8724 16.496 16.6232 -1.93618 -2.12395 0.120019
2994 1 18.1033 0.830681 12.7646 4.5215 -2.45383 -1.68145
2995 1 -3.49424 11.1584 -4.96023 3.94856 5.10794 -4.43542
2996 1 12.5256 4.84634 5.66696 -0.887608 3.08838 0.51267
2997 1 -5.95665 -18.2041 6.06843 2.3363 -0.306424 2.11741
2998 1 3.25153 -14.431 14.3215 -0.303963 -1.55448 0.714175
2999 1 11.7264 -19.2931 -1.57221 0.959764 -1.63033 -4.60228
3000 1 -1.58453 12.9052 16.6904 -1.90653 2.25229 -1.69251
3001 1 11.9773 12.7984 8.78396 2.07667 -7.59606 -5.89049
3002 1 -19.9265 16.6366 17.1149 -0.574673 -4.86792 0.746029
3003 1 16.5837 13.7679 11.037 -0.613375 -1.31507 2.68573
3004 1 16.9937 19.1054 -17.2696 -0.0117798 0.775443 1.0787
3005 1 2.60428 3.35073 -6.42662 -0.614369 2.16594 3.40533
3006 1 19.6264 7.0956 -21.0824 -2.32478 -0.0568831 -4.27688
3007 1 -6.85434 -22.1708 -23.6561 2.96752 -0.310356 2.15599
3008 1 -3.74548 -18.9817 -23.7977 -2.10786 1.83591 -2.4222
3009 1 -14.0258 -21.9443 9.36858 -6.09608 -2.31111 4.66452
3010 1 -18.7487 -19.5352 -16.1342 5.86041 -2.57856 1.07568
3011 1 -8.7472 -1.60415 -11.8218 2.39485 -0.798812 -1.22724
3012 1 1.55931 -23.3917 -19.4881 -3.91419 2.23819 -1.57785
3013 1 10.8973 -17.1025 21.5082 2.32835 -4.53397 -2.51547
3014 1 -22.9202 12.446 20.5132 -1.78076 -3.34135 6.95527
3015 1 -3.34821 10.7341 8.87777 -1.65833 1.04474 3.74178
3016 1 17.8828 -12.9374 -21.2373 3.541 0.33256 -1.14918
3017 1 -13.3806 7.68487 -23.3245 -3.28564 0.144391 1.91821
3018 1 -23.4762 -1.68828 -12.989 1.00127 -1.2814 3.41528
3019 1 -20.2695 -20.9156 12.3195 0.169765 -4.26176 -1.90565
3020 1 -12.2085 -11.1009 7.99091 -2.41389 5.8745 -0.287249
3021 1 -17.4732 26.6581 -3.71806 3.0836 0.386572 0.172542
3022 1 14.926 -12.4024 0.530123 -0.745771 -3.68122 0.0651984
3023 1 6.31168 18.8529 -3.16047 -4.10368 1.05914 -2.26267
3024 1 23.6398 5.53477 3.16291 -0.110126 -3.20829 5.75418
3025 1 4.32612 -23.5173 10.8229 1.58262 -1.58573 1.11813
3026 1 1.27435 -22.5941 7.82239 0.107314 1.77552 -1.68918
3027 1 13.1623 4.60116 10.9107 1.58351 2.80118 -0.512434
3028 1 -16.0648 12.4852 19.3457 0.206598 0.381388 2.41057
3029 1 6.79359 3.28716 12.5433 1.64649 1.35906 5.36234
3030 1 -15.5713 21.8559 -11.1846 5.72232 -8.34039 -1.56181
3031 1 21.5118 -11.0251 -16.8183 0.0289341 -1.22088 1.44367
3032 1 18.1623 -10.2373 -6.03813 -2.74131 -1.55012 3.60098
3033 1 -11.7296 3.78669 6.71552 -3.77529 0.962927 -3.92198
3034 1 -10.9176 -6.86038 -15.7903 3.18605 3.06502 -2.50364
3035 1 19.8655 17.836 5.12577 2.03145 -2.02774 4.03744
3036 1 13.3516 18.3658 21.4344 -2.08943 0.137781 -2.53849
3037 1 -3.45336 -11.1042 7.49789 1.54555 2.27173 -0.70415
3038 1 -17.7609 -24.2475 -17.7229 -1.88686 0.748419 1.0256
3039 1 16.0934 -22.0736 19.0642 -0.294034 4.68579 -0.520223
3040 1 7.99251 -18.085 13.8673 1.82124 1.89356 -0.646546
3041 1 -20.0464 21.0221 -2.54308 2.5963 1.5985 -2.19919
3042 1 -6.74543 19.277 14.0768 2.36859 -2.34941 -1.21264
3043 1 5.02426 -11.7765 -17.2248 -0.949719 2.14165 0.848926
3044 1 -4.77716 16.0133 -4.71962 3.11721 0.751303 -1.16008
3045 1 0.270012 -3.91118 5.05073 1.97718 -1.50544 -0.346315
3046 1 15.5783 -9.18175 -16.7135 3.59076 1.15351 3.50351
3047 1 7.25572 17.7059 5.28239 -2.12827 3.26459 -0.359986
3048 1 6.35142 -11.6751 19.326 0.641746 -6.11644 -2.91303
3049 1 -11.4895 -21.1506 -14.9068 -0.470604 -1.50583 -0.281374
3050 1 0.618472 -24.0184 17.2282 -1.19874 -2.1642 5.15124
3051 1 -17.5686 0.255846 -13.2221 1.27679 2.80925 -1.32737
3052 1 -20.3076 14.7096 -15.3465 0.781375 1.19925 -0.000853226
3053 1 21.1587 -21.8433 -0.935229 4.16332 -0.384593 0.547114
3054 1 21.976 -2.13003 23.2936 2.28797 0.196156 1.02426
3055 1 19.4389 1.36417 4.88689 7.75888 7.51459 -2.40043
3056 1 -23.8931 13.6784 12.9566 6.32943 -3.03425 0.80873
3057 1 17.7769 5.97763 22.0698 2.6777 -0.351107 -4.99445
3058 1 12.9095 -7.04463 9.30754 -1.39596 -0.69879 1.78746
3059 1 -10.3302 -22.4984 -4.49611 2.85221 -1.5829 3.61546
3060 1 -22.0501 24.9854 -4.27282 -0.361241 -1.04431 1.21175
3061 1 -9.45453 24.6201 -18.3106 -0.366185 0.754589 0.608294
3062 1 -10.1452 16.7341 -16.3254 5.05042 5.64831 4.16758
3063 1 8.96118 23.3076 -12.2354 -3.41888 0.0229986 -2.31362
3064 1 -0.996609 11.2419 -20.499 1.8532 -2.5522 3.4957
3065 1 5.32106 -11.8189 -11.0352 -0.258166 3.82286 1.3699
3066 1 21.2801 -2.46539 1.70989 -4.1782 -1.15555 -0.302467
3067 1 15.9947 17.7438 -13.2378 0.968563 1.99894 2.71163
3068 1 20.9679 17.9127 -0.965437 2.84538 1.20244 -1.03421
3069 1 6.96743 -8.2008 -3.57487 -1.7916 -1.02143 -1.35979
3070 1 23.4057 -6.70679 1.22762 1.94074 0.0421241 1.82573
3071 1 -3.51618 -2.93067 -6.65874 -2.50554 0.417296 2.67964
3072 1 2.90153 8.98312 20.0474 1.57808 -3.03344 -3.60503
3073 1 4.26485 22.7551 0.153696 3.26737 -3.28336 1.94176
3074 1 -8.04882 -8.52969 9.60179 -1.14441 -0.747668 -2.21932
3075 1 19.5141 9.3717 -23.8991 -1.67466 5.56451 0.211442
3076 1 -11.9875 20.5871 10.4767 -3.80834 -2.93507 -2.9352
3077 1 -13.8821 -22.7931 -7.23941 1.78734 0.813133 4.32184
3078 1 -20.2165 6.90522 -15.5148 2.33503 -1.75051 2.04055
3079 1 13.293 -5.06434 -4.38062 0.399853 -2.54944 4.68008
3080 1 -20.4842 11.5936 -7.78032 1.55428 2.4165 -4.62058
3081 1 -18.488 7.52584 6.38126 4.58963 3.69647 0.794802
3082 1 -2.81604 2.73089 23.9437 -2.09824 1.79227 5.55568
3083 1 6.65292 -13.5038 -8.02588 4.26917 -2.65617 -3.6353
3084 1 -15.9047 -23.2803 7.59377 -2.36364 -1.53638 -5.86587
3085 1 -15.5239 -2.96651 -7.06836 -1.70362 0.810962 2.98627
3086 1 14.8542 20.7386 2.80696 0.977206 -4.40605 1.95683
3087 1 -9.53772 -21.664 10.4713 -4.28113 -6.42932 -1.19616
3088 1 8.36396 2.95828 15.0762 5.04979 -1.59856 1.47879
3089 1 9.08519 -20.8233 13.5223 -0.534929 -2.3522 -0.0714914
3090 1 15.2563 -3.92052 -6.30047 -0.360165 1.35194 0.30986
3091 1 -3.78999 0.392539 22.7577 5.61717 -2.56927 5.21518
3092 1 -10.0325 -6.88229 21.5929 -2.96484 3.57971 1.71454
3093 1 -13.9431 3.07471 -20.9747 -0.884473 7.86441 0.377159
3094 1 14.1161 5.64729 20.2468 1.29091 1.13541 2.08323
3095 1 -17.4307 -12.6142 -2.57435 -2.37742 5.92834 -5.84515
3096 1 7.42721 4.93061 -22.798 -0.597805 -1.74934 0.375788
3097 1 -6.98682 -12.6409 -21.2665 -5.03177 0.130389 0.68627
3098 1 -10.5235 -19.2886 4.33304 -1.05458 3.99055 0.40601
3099 1 -18.8131 8.29486 22.7043 -3.46517 -3.43742 -5.41204
3100 1 16.6103 -9.00956 -21.9512 -1.17031 -0.303451 1.8959
3101 1 22.1756 -14.5139 -19.5123 0.823031 -3.91167 -0.862669
3102 1 3.72889 4.93036 24.1437 3.21051 -2.51356 -3.59474
3103 1 -6.27332 -12.8281 23.9553 0.98406 -2.8923 1.79021
3104 1 -19.9462 -7.23241 8.91009 2.42594 3.42333 -2.19868
3105 1 -23.8601 -5.99397 20.3706 -2.8831 2.76006 -3.14958
3106 1 2.08965 -10.2215 -5.19695 -6.00297 -2.24091 -4.45432
3107 1 20.3246 -14.5515 22.0203 0.1982 0.690999 2.3702
3108 1 7.85043 -17.2996 -6.20669 0.556811 -0.308376 -0.856901
3109 1 2.1956 1.01927 1.65285 -0.137951 1.61372 -2.78141
3110 1 7.08997 6.14708 1.7509 0.681836 -1.38403 3.99699
3111 1 10.7717 -20.5883 -16.7709 2.64015 -2.47794 3.32908
3112 1 -0.100573 -13.3958 -22.2459 0.453451 2.33032 2.47838
3113 1 7.53155 -12.8401 -15.85 -0.952542 -4.90154 5.91598
3114 1 2.58835 5.98915 -15.5311 2.3582 -1.25003 -6.91133
3115 1 -18.3661 19.2471 -16.2055 -1.25493 -3.47143 -1.28436
3116 1 -10.4149 16.0457 -0.83866 -1.31535 -2.0335 6.27812
3117 1 15.3673 -11.0683 -2.76408 4.24304 3.72744 2.06189
3118 1 4.40501 6.32283 6.19507 3.37941 -1.63647 4.36904
3119 1 -7.77201 -8.40915 3.69116 2.98434 -0.580643 -1.73972
3120 1 -10.3407 -6.92344 -18.4868 -0.293722 3.91221 -5.62044
3121 1 -1.49925 -21.1074 15.3741 3.01776 -3.33807 1.03542
3122 1 -13.5417 24.7215 20.5992 -6.31052 2.26202 -0.027681
3123 1 14.239 15.2633 11.7101 5.30321 1.32216 -0.19393
3124 1 -13.5636 12.1455 -8.34646 1.76295 -0.869837 0.534802
3125 1 -2.06304 -15.7303 -1.95205 -0.923285 -2.40381 1.65314
3126 1 1.41145 8.03726 -8.90137 5.81984 0.0577621 -3.58752
3127 1 17.8969 6.095 2.28479 0.518815 4.19755 -3.13234
3128 1 2.4805 10.2533 -16.2401 3.80981 -2.16444 0.251042
3129 1 -2.76922 -11.4231 10.5482 -3.3539 1.96562 2.97633
3130 1 21.3384 -8.64474 10.3934 2.30217 4.4591 -1.81777
3131 1 -10.1385 13.388 1.85484 -1.73987 1.05109 2.86579
3132 1 3.19681 9.87018 3.64904 -2.10621 -0.365261 -4.41679
3133 1 -0.586578 14.1554 -12.7031 2.74676 -1.2033 4.10786
3134 1 21.7601 7.56845 -3.03144 -4.45131 0.495579 -0.886127
3135 1 -17.9651 -11.0046 -4.76731 -0.00134655 1.08092 0.347764
3136 1 -17.0383 -20.8191 6.71233 0.183393 -0.345089 3.63422
3137 1 3.98433 -6.08769 -17.4973 2.68207 -5.11723 0.254419
3138 1 19.5289 -3.21853 -23.9462 1.55006 3.79081 0.781728
3139 1 6.0359 10.3921 -13.2481 1.25618 2.22032 -0.14713
3140 1 2.56622 16.8487 -18.7627 -1.22993 1.58895 0.345863
3141 1 9.41767 -2.50559 -6.51439 -0.678978 -1.67184 -2.21327
3142 1 3.18037 22.9464 -20.1397 -1.41263 -3.23893 2.73788
3143 1 22.1604 24.6929 -20.2406 -1.51766 1.72764 0.316019
3144 1 -1.99525 15.2058 3.40818 1.66788 0.580857 -1.97694
3145 1 19.7276 -19.6484 10.2012 3.14601 1.08369 3.48162
3146 1 -0.975255 6.78116 -9.77218 -3.43084 -0.227724 -5.27299
3147 1 -1.84171 -19.1519 0.558959 1.81892 2.53305 -3.29437
3148 1 8.46469 -6.90257 5.69303 0.648198 4.64341 5.10712
3149 1 10.7905 7.67157 -17.0621 -1.85662 3.87314 -1.41369
3150 1 -23.1727 13.4319 3.88145 0.301946 1.38872 3.54439
3151 1 -12.8187 -24.0386 -17.3302 -7.21699 -0.15053 2.89556
3152 1 -14.6223 17.1018 -21.3916 -2.59555 0.776035 3.65623
3153 1 16.7462 6.66186 -20.9528 -7.04727 0.560732 -2.30728
3154 1 8.51049 20.0772 3.74998 5.80443 1.19599 1.18703
3155 1 -6.05595 -12.0385 2.97108 4.45489 2.48649 -0.780634
3156 1 19.814 -4.20983 7.21626 -6.73633 2.4991 -1.58302
3157 1 10.2525 1.39906 4.45597 -0.906808 4.93053 0.438276
3158 1 19.3052 -20.7036 -8.16956 4.85575 -6.63302 -1.40409
3159 1 19.7027 4.14281 -5.08672 3.63999 0.712173 2.60862
3160 1 -11.4138 -24.5765 24.2598 1.26455 -0.682069 -2.49729
3161 1 -9.49804 -17.6571 -3.57471 0.689132 -0.385251 -1.25638
3162 1 -14.5283 -14.2284 -15.3246 1.46772 2.65202 2.0017
3163 1 23.8795 0.705748 13.4507 2.58104 1.16577 -2.30622
3164 1 -20.6374 3.15082 19.7195 1.37005 -1.60242 2.22699
3165 1 -6.87418 19.8769 -16.1577 2.97967 1.03692 -1.85477
3166 1 17.1734 -10.3591 17.4863 3.41884 -0.600064 7.13105
3167 1 19.6715 -15.8646 -19.1356 -2.13653 4.28693 4.99251
3168 1 -17.4623 -21.25 17.7444 -0.11317 -1.89225 -3.76781
3169 1 12.6505 -23.3112 -19.9417 -3.07192 -0.990827 -3.36883
3170 1 4.86423 21.0242 22.5685 3.20983 4.4878 -0.275638
3171 1 -6.9604 14.4125 -22.6948 -1.38647 -1.17484 -0.969815
3172 1 -8.06884 2.28945 6.33307 -1.62905 2.90427 0.2267
3173 1 10.6377 17.6964 9.35466 -0.514342 -0.86898 -4.2554
3174 1 -23.316 13.7352 -12.5699 9.84631 -1.75947 0.413919
3175 1 19.6993 3.51545 -0.806866 -1.36675 -0.454317 -0.159786
3176 1 19.7104 1.10305 17.2126 -0.690722 -1.53844 -0.0885937
3177 1 -0.0955766 -11.1294 -23.7478 -1.99395 3.29535 -2.01351
3178 1 16.77 19.5166 13.5211 -3.93816 -1.65465 1.21385
3179 1 1.06754 1.19464 22.2187 -3.38995 -0.315545 -0.753523
3180 1 0.64828 13.7796 3.57781 -3.09428 -2.29924 0.78019
3181 1 -22.6349 -18.406 23.6178 -1.14843 0.737858 0.774226
3182 1 -18.1544 45.8613 21.6163 -2.60678 -4.49283 -0.93459
3183 1 -23.5651 16.7358 -6.17567 -1.96832 1.24976 0.854335
3184 1 14.0313 -2.18248 2.09435 -5.72607 -2.52207 -0.645875
3185 1 -16.5046 20.8105 -21.4455 -1.82461 -0.187082 -2.30092
3186 1 -5.51132 20.6391 7.12146 3.17361 -5.93655 -1.21326
3187 1 -21.6104 -15.2932 1.8294 1.33849 -1.06452 -1.13259
3188 1 -18.6734 14.6474 -10.08 -0.190458 -0.306824 -2.67133
3189 1 14.5575 11.2 8.06265 3.49498 -2.96043 6.32883
3190 1 -21.4307 22.0784 -16.966 -1.26806 0.949121 1.93811
3191 1 6.598 -5.9257 -7.80945 1.17429 -1.28406 5.74333
3192 1 -24.3042 10.0284 0.518891 -7.10846 3.86247 -3.40628
3193 1 -17.6758 24.6453 -1.65305 -4.3914 -2.15864 3.31135
3194 1 -17.0587 -5.60311 1.86048 -0.706704 -0.810142 -3.05315
3195 1 -16.9726 0.82507 3.42007 -1.86716 -0.153069 -0.134594
3196 1 1.21311 -0.807631 -2.54979 -4.86634 1.76727 -2.75424
3197 1 -4.14946 10.2392 3.72431 -1.67107 -1.07623 1.32915
3198 1 9.74737 1.55429 -15.8602 -5.71392 -0.807711 -3.73357
3199 1 12.874 -22.5657 6.09578 -6.49273 -0.918285 0.103037
3200 1 -23.3579 -2.94366 -3.94534 3.00618 -3.60267 -1.46016
3201 1 -15.5825 -1.68199 20.5038 0.827776 2.11505 1.34671
3202 1 -17.1845 -12.161 -9.15544 3.09303 5.19698 0.0408723
3203 1 17.4781 9.12525 20.4921 -1.5759 4.56738 -0.932726
3204 1 -16.2745 -8.01439 10.7087 -1.4893 -0.936541 -4.57655
3205 1 -12.19 4.47784 -5.09117 2.1832 2.48075 6.18132
3206 1 15.499 12.5858 -4.45867 2.30873 1.55654 -0.452179
3207 1 -0.144845 -5.88707 -18.442 -0.191414 4.02359 0.3876
3208 1 5.7207 -7.04019 4.80861 -2.09032 -0.613081 6.64951
3209 1 10.1121 -14.3778 22.7012 -1.7302 -0.030838 -3.3448
3210 1 -13.038 10.2624 -3.7279 4.19202 0.284167 -5.99374
3211 1 -2.35185 18.4142 12.2148 3.95088 5.17792 -1.6238
3212 1 -10.8552 6.89615 -17.7298 -6.76267 0.524268 -1.78779
3213 1 -2.16858 2.42601 -14.7164 3.2868 -0.387333 -1.65233
3214 1 -0.961772 15.7821 17.0297 -1.71387 1.18595 3.67224
3215 1 9.27499 2.81266 11.129 3.67055 -1.59057 1.52844
3216 1 22.9734 -1.59061 9.04905 -2.09763 -1.57412 -1.40111
3217 1 9.54038 1.78682 8.43125 4.10742 -1.45635 -0.930469
3218 1 -3.82766 21.402 -9.5604 10.8533 3.65559 2.82453
3219 1 -8.47797 -19.3676 -17.9785 -1.34567 -3.12736 -0.24359
3220 1 -4.91656 -9.32941 16.6773 5.39153 -1.28526 -1.54937
3221 1 -5.87368 -7.10963 -1.32747 1.04887 5.65551 0.370636
3222 1 -14.2892 -19.7039 1.0462 0.537342 3.25118 1.13387
3223 1 -24.4015 8.59844 17.5276 2.79218 -3.89297 -0.13465
3224 1 -4.75835 -5.95027 1.17628 -0.742794 2.65403 2.18814
3225 1 -8.84288 -6.82909 16.1011 5.71847 0.447433 1.51423
3226 1 -22.2342 23.4685 -11.436 -0.942893 -2.00862 -0.3579
3227 1 6.15031 20.7043 -5.13671 1.27105 0.0884778 0.775397
3228 1 -11.8035 11.3084 -10.8828 1.59305 0.259388 -1.9002
3229 1 -9.88077 2.16774 -2.48784 1.6047 -0.354322 -5.65434
3230 1 -23.9737 12.4695 -22.9946 -2.37965 -5.59958 4.66576
3231 1 -18.3512 -17.1244 -1.68906 0.645495 3.96252 0.304526
3232 1 -23.6549 17.0998 4.30622 2.12749 0.762682 1.74459
3233 1 -0.725879 16.695 5.52692 -0.882569 -3.41886 -4.35207
3234 1 8.69899 -5.45367 -12.4759 3.28757 0.0631525 0.401885
3235 1 -6.735 10.8731 -11.517 0.357656 -2.13195 3.04652
3236 1 18.0287 20.1963 8.49799 -2.92375 -3.47626 0.657122
3237 1 -3.31311 -13.9253 23.4653 2.1083 -0.809101 4.04054
3238 1 22.399 22.3967 -3.39043 -2.45342 -2.28203 -0.387846
3239 1 -13.9542 -17.1782 8.02694 3.83173 -3.04294 -0.591726
3240 1 -14.9357 -22.1082 -17.5587 3.76633 -4.69957 3.80451
3241 1 1.53032 -22.0927 15.1493 -1.80642 4.32223 4.03296
3242 1 19.5219 -13.1386 -16.0515 -0.134826 -4.72916 3.89614
3243 1 6.90016 16.1222 21.676 -2.16335 1.01083 1.06889
3244 1 19.8901 15.3288 -13.1278 -6.23136 -0.624052 -3.16347
3245 1 -9.31727 21.2648 10.8225 0.902582 1.73547 -1.36887
3246 1 19.2295 4.24258 4.58162 3.42348 -0.217458 4.1778
3247 1 -5.15386 8.97732 -9.9288 2.48242 -4.40857 1.93025
3248 1 8.91891 -2.56796 -0.0500141 -0.0612521 -2.87992 -0.69498
3249 1 8.9423 -3.74619 13.3856 -3.15937 2.88001 1.74003
3250 1 14.0797 4.3052 -17.0091 -3.57511 -1.22938 0.729419
3251 1 0.221881 17.4284 11.3648 0.926289 -3.54237 -1.79517
3252 1 17.776 -23.7323 15.7228 -2.78456 1.30215 1.74365
3253 1 10.8451 16.3432 3.81999 -0.773479 -1.75213 -1.39285
3254 1 20.2779 3.12848 -7.79241 4.03464 -0.0766609 3.56715
3255 1 -17.2453 12.6236 -19.6798 -4.80709 -1.84868 -1.32802
3256 1 -6.14076 17.163 -10.6965 3.25048 -0.521549 0.879249
3257 1 -12.8909 7.86278 21.1531 0.850032 5.24663 1.26532
3258 1 -19.8262 -6.06871 20.4482 2.24968 0.869007 0.142406
3259 1 17.4903 19.7726 3.29086 0.103219 3.33188 5.37914
3260 1 19.1929 45.9522 -5.13137 -4.80999 -2.35407 0.665882
3261 1 -15.2202 -2.92166 -15.5327 -4.47526 1.49382 1.6062
3262 1 8.67264 6.94225 10.6117 4.15694 -1.98448 1.01523
3263 1 22.5546 4.07315 17.94 -1.57771 3.41973 -1.31939
3264 1 11.3094 8.09842 23.2936 -1.64175 1.65076 1.73475
3265 1 5.34344 -6.8161 -13.7768 2.60152 4.61625 0.355565
3266 1 8.94796 -0.0490279 23.596 0.286029 -2.66026 0.648835
3267 1 -16.3551 9.63408 0.907225 4.62714 -0.879678 0.924674
3268 1 7.15877 -20.6275 11.4118 -4.372 1.01852 4.464
3269 1 8.69103 17.7414 -3.63914 -2.90483 1.30785 3.97711
3270 1 16.5611 -17.542 16.2358 0.0059467 -4.90684 0.0288678
3271 1 8.47925 -11.1253 21.5311 2.90417 -1.98318 -1.5431
3272 1 2.43568 11.683 -6.51597 -2.33924 -1.85086 -5.00235
3273 1 -17.0122 9.25348 -15.315 -1.2148 2.33061 2.03039
3274 1 14.7348 -19.7696 4.84385 -3.7933 3.94863 -3.11715
3275 1 20.3434 7.53213 11.5561 -2.78473 0.112897 1.51658
3276 1 9.80718 0.91819 13.3345 0.227737 0.917383 -4.99482
3277 1 -1.34206 -17.4109 2.88671 0.0565941 6.26582 -3.07974
3278 1 0.772901 -6.50546 -21.29 1.85908 -1.38976 0.713328
3279 1 7.0896 -2.08055 15.7737 2.94645 -0.0257257 2.19584
3280 1 9.89465 16.7668 11.8735 -8.29727 -0.190313 1.27284
3281 1 -4.83396 -14.4215 12.0942 -2.31902 1.35833 1.1542
3282 1 4.80492 -1.63211 -15.8386 -2.2652 0.64982 0.531441
3283 1 -3.00618 -0.169954 14.5774 -3.87398 1.64543 -8.09401
3284 1 14.7307 23.1354 -18.6371 -1.78256 -5.90328 -0.99251
3285 1 1.40584 19.5644 -13.7569 4.4212 -4.89492 0.941298
3286 1 -15.0381 19.9775 4.38138 0.0507303 -1.39557 1.23482
3287 1 -5.32494 -15.1763 17.6156 1.53209 0.726631 0.378913
3288 1 0.820827 8.85506 -20.1854 -0.663117 -4.08209 1.6188
3289 1 -18.0518 -22.775 11.6172 -0.392493 -0.917901 -2.00599
3290 1 -12.8544 19.7785 17.3549 0.846675 -0.590741 -0.630883
3291 1 21.6616 23.4604 -11.8439 -3.01193 3.21593 6.95114
3292 1 -20.6068 22.601 1.37746 -0.859331 0.476007 -3.66755
3293 1 -9.60693 10.7346 -23.9508 -5.79037 1.08994 0.281666
3294 1 -22.0189 1.75319 -15.6305 -0.856048 1.03042 1.58114
3295 1 5.42902 -24.5163 0.677765 -2.91005 -5.19943 -2.87801
3296 1 -17.7104 -13.4205 16.4017 0.562506 0.607566 4.2347
3297 1 -17.3855 21.9097 24.0146 -0.0825686 0.118022 -0.12413
3298 1 5.31318 -8.72315 -17.7215 0.254447 0.0731504 -2.82595
3299 1 -13.737 24.7429 -6.2093 4.49067 -0.342062 -4.11337
3300 1 -2.09703 4.67215 -7.97045 -2.80535 5.22683 1.77952
3301 1 -23.4565 8.99348 -9.67685 3.36318 1.55894 -4.10775
3302 1 -17.8145 -11.162 19.9423 0.40751 0.60855 3.00421
3303 1 -24.4376 -23.0793 -14.798 -2.84278 -0.347028 2.91418
3304 1 -0.0705266 15.9265 13.8921 -2.8652 -0.430311 -2.0436
3305 1 1.97528 5.73889 -7.63777 5.14502 0.929048 -1.56566
3306 1 -7.77941 10.3717 -21.8191 4.04937 -0.447827 -1.01741
3307 1 -18.8756 12.9285 19.5068 3.44914 -1.92389 2.0942
3308 1 -16.3841 18.4748 -3.4202 0.661954 2.57497 -0.699548
3309 1 3.59672 -1.98913 10.7398 -0.0121102 2.36273 -1.89041
3310 1 16.1996 24.0473 7.1924 -1.41302 3.48908 0.307847
3311 1 10.0771 3.20738 -9.55988 1.84235 0.324221 3.18033
3312 1 23.3214 5.4877 13.5684 -2.8541 0.159327 -1.77464
3313 1 15.7233 9.51898 12.8387 -0.308334 3.6277 -3.80647
3314 1 0.898928 -2.54277 9.11314 1.02967 -0.202819 5.0191
3315 1 20.2266 -11.0867 -21.5667 4.55986 1.26951 4.25704
3316 1 2.85278 -5.62212 -5.76429 -6.30631 0.518862 -6.28403
3317 1 4.02585 1.70628 7.12356 2.25185 2.92742 -0.0466077
3318 1 -10.216 0.385722 16.2521 3.20551 5.31862 5.91559
3319 1 0.383898 1.29575 -15.927 -3.7128 -2.29169 -3.49095
3320 1 4.34858 4.25371 -11.3276 0.315851 0.441265 0.630721
3321 1 -9.26357 -16.9034 19.2116 -4.27131 0.805909 -4.96031
3322 1 12.5751 -11.2035 23.1798 -0.14018 4.26304 2.49821
3323 1 -2.76985 17.1747 14.8919 -4.84965 -2.71909 2.6331
3324 1 14.3211 -16.4203 -10.0859 0.855799 0.0988793 6.70164
3325 1 -11.5093 14.428 4.13298 0.694278 -2.64061 -6.43538
3326 1 23.7823 4.90477 -21.4229 -1.63967 -1.22725 2.26143
3327 1 6.8582 -22.4981 -9.06681 -1.1188 1.47172 -3.8283
3328 1 1.72062 -19.0178 -10.2322 1.26912 -2.54856 -0.159458
3329 1 11.5499 5.21609 -15.8426 1.62929 0.384693 -2.62584
3330 1 -7.17015 18.8009 -13.5431 1.82538 3.63474 -0.014215
3331 1 -18.5285 -3.2448 -1.63082 1.33598 -2.0548 -2.04426
3332 1 -4.86537 6.31154 21.8344 1.57337 -2.87339 -2.74363
3333 1 6.79046 -7.96031 23.1759 -0.54389 -0.111491 3.75675
3334 1 -23.5353 19.8255 16.5911 -0.420808 1.90403 1.55012
3335 1 23.0851 0.563419 -3.44868 -0.131517 3.53233 -4.78567
3336 1 13.9264 -16.5221 1.71969 1.52291 0.94579 -1.9942
3337 1 -14.2828 10.877 9.80775 1.85502 3.27038 3.45921
3338 1 12.0453 22.604 16.371 0.47085 1.80003 4.73028
3339 1 10.9214 17.9703 -21.0585 -0.595504 -2.75609 0.328266
3340 1 17.8703 0.123244 -20.1027 -1.02114 2.53667 -3.27835
3341 1 20.0835 20.6854 -15.3064 -2.87113 2.78598 0.556886
3342 1 -0.339939 1.55926 2.14555 -0.911469 -1.37997 -0.802562
3343 1 -22.913 -5.80997 -16.1396 1.53579 -0.387667 -2.03209
3344 1 15.9248 -19.3195 18.37 -1.39164 2.61018 0.601386
3345 1 12.9889 24.1131 -23.0469 1.20281 1.19832 -3.82921
3346 1 9.14809 -22.8657 0.157044 5.35783 -2.34161 2.08516
3347 1 -23.0836 15.0895 -15.2539 2.51027 -0.739882 -0.957159
3348 1 -10.0376 -19.2926 1.33385 2.30416 -1.35169 0.317286
3349 1 13.7509 19.2956 -13.872 0.263431 -1.16316 2.24542
3350 1 -3.59784 -7.37624 14.506 1.08464 -1.7886 -1.85725
3351 1 -20.4509 -9.70649 16.5193 -1.18893 2.35341 -0.783811
3352 1 4.50663 14.2081 5.20232 0.444669 -3.51353 1.55887
3353 1 -22.7776 3.39577 17.5172 -0.652519 -0.324186 0.891509
3354 1 -15.2146 9.78347 -1.73602 3.24227 5.65501 -0.391477
3355 1 -16.0766 -19.6048 -4.79615 -3.38397 1.82203 -0.574363
3356 1 -10.0402 22.855 5.72472 -1.13591 -2.84695 -2.22796
3357 1 6.46312 -5.95478 19.3236 0.28378 1.14065 -2.15438
3358 1 -1.34991 21.0373 13.4845 1.80887 -5.19116 -0.0390979
3359 1 -4.59296 22.8052 11.7841 2.98945 -0.502396 0.741252
3360 1 -7.30726 -14.9387 15.4072 5.35703 -4.77491 5.26841
3361 1 -2.68681 22.935 9.65907 0.40517 -1.36609 -7.04152
3362 1 -5.72007 2.72187 -14.7929 -1.44869 1.74402 0.590088
3363 1 11.8433 -3.9366 -15.6159 -3.28411 -2.48511 -2.34011
3364 1 -19.8719 -8.07738 0.834946 -3.00499 2.40222 -0.461255
3365 1 -1.69768 -8.87719 11.3541 3.17011 -2.68722 -2.09125
3366 1 -20.9641 -23.1981 -20.1457 4.1196 -4.58968 1.61962
3367 1 1.21564 -20.5115 -19.9031 -1.24767 -1.06134 3.95237
3368 1 20.6384 -20.1241 17.4623 -0.474052 -0.51076 -0.705521
3369 1 -3.39763 -4.15955 -9.51742 -1.29956 0.841008 1.03487
3370 1 -19.4348 -14.2829 -14.7835 -2.67221 -1.7125 2.08724
3371 1 -8.37722 5.15656 13.0926 7.04925 4.66413 -0.289355
3372 1 5.88429 -3.21304 -7.58876 -3.82512 4.67574 1.30648
3373 1 12.8757 -5.0514 20.2297 4.59595 2.97569 1.65313
3374 1 20.7711 -13.9547 -22.1758 0.821724 0.899126 1.30507
3375 1 20.8842 -10.5634 -0.0135707 2.78359 2.81858 -4.20938
3376 1 -16.8529 10.108 13.7127 3.50794 -1.47966 -6.74406
3377 1 5.61497 -12.7585 13.2409 2.22906 -2.23888 -1.07574
3378 1 -5.82731 -19.0773 -1.20292 -2.92485 3.17666 3.39182
3379 1 10.2447 -6.52594 8.33955 -5.46503 -0.207399 -1.62557
3380 1 0.149282 17.4285 -23.9767 1.36697 4.41663 -3.72332
3381 1 -4.32517 -16.6149 -20.5814 1.0364 0.0690208 1.13473
3382 1 -20.7916 14.1291 12.6226 -1.56505 -3.08414 -4.16073
3383 1 -21.3489 24.7748 -18.4594 1.67155 0.900144 -3.70453
3384 1 15.9836 -19.0095 -12.3317 2.83708 -1.92034 1.19303
3385 1 -4.12309 -19.105 -7.49651 -1.96747 0.273181 -1.07031
3386 1 9.75317 -11.2306 -22.5 1.31056 -1.4582 -2.53607
3387 1 -17.6485 -3.09008 2.95141 0.074343 -6.39833 -1.13355
3388 1 -18.2904 -2.76189 14.1194 -4.15993 2.35203 0.0253203
3389 1 -14.2229 -11.0154 -12.2302 -1.10251 4.03766 -1.64095
3390 1 23.5099 -23.9145 15.1488 0.00939339 -2.23526 3.09113
3391 1 -8.64417 -14.7642 3.0509 -6.01384 0.668546 1.15067
3392 1 -8.20471 0.637004 -18.3111 1.20158 -0.978513 -0.833112
3393 1 -12.5267 15.3634 -20.3898 0.426561 1.16377 -1.54768
3394 1 -11.3617 0.323303 13.471 -1.44705 2.82027 1.23187
3395 1 14.8102 -15.6878 10.4968 -3.30371 -6.18163 -1.36778
3396 1 -19.6188 8.18095 -5.26584 0.123868 0.517774 4.05124
3397 1 -4.9987 1.95606 20.7994 1.07023 -1.81387 3.0543
3398 1 -7.80258 -21.341 -4.67029 -2.63151 1.75727 -1.97677
3399 1 0.391283 -6.33679 3.56711 3.91 -0.512475 -1.82354
3400 1 15.0038 -24.1969 -21.2269 2.81542 -3.34142 -1.95833
3401 1 -20.458 -23.2019 -13.9028 3.2399 -0.424845 1.64897
3402 1 14.2087 -17.1924 -17.6321 1.46474 -2.09848 0.903977
3403 1 -16.5589 47.0909 1.09892 0.468716 0.0900751 4.43509
3404 1 -17.2327 -8.56219 1.94844 -0.516271 0.821688 -4.71641
3405 1 16.4501 4.95323 13.5006 -1.44253 -1.5938 0.865533
3406 1 3.95726 -3.3979 2.98425 0.456293 -2.04467 -0.641112
3407 1 12.2109 0.0965015 -12.0578 2.58204 -3.33339 1.09846
3408 1 -17.9836 14.0944 -23.935 -4.01188 1.87095 2.23826
3409 1 -3.28652 -19.263 19.2888 2.92435 -0.957937 1.00774
3410 1 -19.4808 -8.66474 14.0835 3.59438 -0.38215 -3.69489
3411 1 -5.0187 -3.52479 19.4858 -0.591362 -1.68785 4.07347
3412 1 5.28976 -3.10081 -10.3538 2.50983 1.74808 2.4924
3413 1 -3.88975 -18.6851 -16.6051 -0.186402 -0.472108 -1.60764
3414 1 -18.3616 4.54963 -7.19412 -1.65914 -0.756191 -0.784214
3415 1 -18.2451 0.794389 -16.1865 2.51801 -5.14305 -1.30481
3416 1 20.6873 -21.791 -5.85193 3.49163 -3.49758 2.95237
3417 1 23.5081 -10.5459 9.98509 3.20977 -1.03723 1.29624
3418 1 20.085 19.1584 11.9565 -2.82348 -0.0241925 7.54009
3419 1 -11.1263 -11.0288 1.47675 -2.79263 0.133317 4.90574
3420 1 -19.2028 10.0791 7.69848 -6.08739 -3.1773 -2.39338
3421 1 10.3105 16.2958 -13.1003 1.21237 0.387767 -0.730938
3422 1 6.8549 -16.2062 -4.03825 -4.97947 2.44834 2.81658
3423 1 -14.1993 4.24752 1.03096 2.96752 -1.05268 2.77937
3424 1 -0.778392 -10.027 1.90382 1.30664 0.980641 1.04607
3425 1 -23.9459 -9.81541 18.0737 3.94394 2.45355 1.37518
3426 1 -19.6352 -5.75948 5.11462 3.29103 -0.81035 3.3853
3427 1 23.5229 12.8797 -16.6063 5.11233 -3.05989 4.20614
3428 1 -3.34177 12.4294 14.0852 3.74105 -0.555725 -2.40788
3429 1 5.2742 -18.0372 15.8012 -2.72136 3.37131 1.34034
3430 1 -13.4568 -16.5804 18.4125 3.7582 -2.05411 -3.09125
3431 1 -9.81447 -4.9892 1.11611 1.70934 -0.797907 -0.782007
3432 1 -2.03515 8.30625 7.83645 -1.67419 -0.917253 -2.29571
3433 1 -7.94611 -1.68035 -20.0204 1.06803 1.63367 -5.12261
3434 1 14.3682 16.5185 -8.85304 -3.26979 -3.05177 0.111171
3435 1 -2.79178 22.1069 -15.9888 -1.27634 -3.78673 4.42743
3436 1 -4.46578 8.02751 17.7721 0.221374 0.109705 2.62407
3437 1 12.3566 16.3783 -6.50779 2.61989 1.43346 -0.661852
3438 1 -18.0825 10.8505 2.92848 -3.34097 0.636021 -2.78118
3439 1 1.88783 -13.506 12.0439 -1.22885 6.07658 -1.41812
3440 1 4.70108 22.8699 -9.014 -0.00185875 1.31683 -4.33571
3441 1 5.33782 -14.4172 -5.52403 -3.1679 -0.758657 1.55306
3442 1 -5.56825 1.05434 5.70761 -0.891309 -3.37896 0.134175
3443 1 -23.6206 1.8247 -0.704821 3.02468 -0.982394 1.46659
3444 1 -18.9583 13.7685 3.55876 -1.53459 -5.50255 -1.57425
3445 1 -11.8196 2.40982 -9.17136 6.21519 -0.671773 2.07371
3446 1 -4.06353 -21.6489 -16.6657 -0.716828 0.650817 -3.48956
3447 1 -4.85968 4.54301 -8.3504 -0.294738 0.385857 1.46171
3448 1 -18.8689 4.81338 16.1534 0.549999 1.36009 1.69894
3449 1 8.43859 23.6082 -15.987 1.41854 -2.86856 -1.10535
3450 1 -3.77374 -14.866 -14.1532 0.102064 2.69165 1.24987
3451 1 4.06384 -12.2145 -20.124 -3.5786 0.254998 -0.929635
3452 1 -10.3899 0.476197 -12.4282 -1.87372 -1.63991 0.815304
3453 1 15.2422 9.22877 -20.0564 1.16943 -4.48872 3.33597
3454 1 -23.4703 20.4374 12.2188 -2.43138 -0.335044 3.83206
3455 1 -18.2173 15.6181 19.066 5.30353 2.74007 2.12932
3456 1 10.4904 24.6199 -14.3863 3.31186 -0.559333 1.95425
3457 1 23.2632 15.2295 22.9273 -4.55035 -2.28981 -0.655843
3458 1 14.5109 6.0975 -22.9146 -2.71963 -1.8117 -3.14552
3459 1 -2.79388 19.4749 18.2114 4.74189 1.14722 -1.02398
3460 1 -0.847292 21.2525 17.0974 -3.94907 1.53708 1.27692
3461 1 -14.3188 46.7792 18.7151 -2.63508 3.50241 1.43478
3462 1 -12.1106 22.0465 -7.6003 0.0652439 -1.77895 4.2335
3463 1 22.2692 7.34205 -22.6648 3.90785 0.0792331 -0.0388104
3464 1 -18.4042 -17.6309 12.9746 -6.50585 -0.0159317 5.60774
3465 1 1.64004 -4.34983 10.8937 -1.50344 -0.266669 1.33296
3466 1 -8.3569 2.99949 -7.75455 -6.48504 0.105744 -1.22127
3467 1 13.6543 13.3593 14.0069 2.97447 -0.577774 0.506074
3468 1 -7.34222 -6.59114 23.0675 -1.41414 -2.90145 -1.8281
3469 1 -2.90255 -7.93751 2.13676 -1.97211 0.174 -0.11645
3470 1 -17.528 -20.1415 -8.84777 2.09525 -0.714484 0.864701
3471 1 -17.8235 -16.8837 -17.3513 -1.68643 -1.60444 -2.38958
3472 1 -14.1426 8.50805 -16.2068 3.90612 -0.666541 4.62908
3473 1 23.6627 22.5977 -18.6256 -4.3152 0.183672 1.08159
3474 1 17.6103 -3.53318 14.3509 0.0205647 3.133 -2.16099
3475 1 -21.6475 -13.2971 19.1797 -0.453216 0.731007 1.53735
3476 1 3.95077 13.6971 15.0081 -4.69698 -3.36843 0.914827
3477 1 -20.3154 -1.40956 -15.4404 2.23542 4.62555 0.0242666
3478 1 10.8304 -13.2556 3.03503 -2.01353 -0.882941 3.14492
3479 1 16.0712 -7.1576 9.64263 -1.21872 3.85204 -0.106504
3480 1 24.1573 26.0785 -5.64842 3.65374 -2.83906 0.948176
3481 1 2.40212 -22.2619 23.7333 -3.64555 3.9089 -0.543678
3482 1 16.7421 20.0328 -0.221332 0.919077 1.15065 -0.84278
3483 1 11.2045 21.1835 -1.06077 -3.54043 -1.0133 -1.60279
3484 1 3.30364 10.2521 7.79992 2.35583 0.470847 -1.36622
3485 1 1.97132 6.09916 -4.20053 -2.32329 1.69573 -2.22145
3486 1 17.4818 25.838 18.4497 -2.03648 2.67191 2.08477
3487 1 9.40004 -10.6348 -9.82015 -0.952729 2.98139 -4.45185
3488 1 16.5485 14.9454 -13.7453 -4.52682 4.41884 1.07141
3489 1 18.2197 1.17808 -6.78039 0.0487107 1.96374 -0.810344
3490 1 -18.3743 4.71826 4.04362 3.04738 3.59218 -0.621954
3491 1 -7.64805 8.10384 -19.9813 -0.398786 -2.42054 3.2221
3492 1 17.1716 -0.672993 5.30077 0.0477433 0.905749 1.75092
3493 1 6.93719 11.4961 16.8061 3.80237 1.03186 0.641447
3494 1 -16.5047 3.77839 22.7082 -3.06096 3.06521 2.2868
3495 1 -24.558 -3.85811 18.2186 1.34867 -0.602038 6.36743
3496 1 -9.21154 8.63549 -16.341 -0.16511 5.58631 1.07469
3497 1 -16.8325 12.6163 16.4831 0.143958 -0.332672 -3.54084
3498 1 -16.6693 12.7841 6.17843 0.248731 3.8397 -7.46747
3499 1 -20.7686 20.9024 -21.9083 0.217439 -2.67249 -1.5101
3500 1 20.8094 15.0064 -7.87121 2.89111 -1.47161 -0.754703
3501 1 -16.3693 18.6308 -7.82145 -1.73935 3.82325 0.336385
3502 1 -6.67671 23.0807 -4.37659 -2.6579 2.4325 4.98375
3503 1 18.991 -22.5861 4.18343 -3.9065 1.03843 -2.7936
3504 1 17.6301 -0.78968 0.375595 -3.22329 0.572265 -2.59771
3505 1 0.895421 -13.5293 2.42523 0.40462 -0.973545 0.884622
3506 1 -21.7816 22.5876 -5.71298 -2.41182 2.30309 -1.81166
3507 1 8.43285 9.37224 -10.1728 -0.00959625 1.02974 0.807278
3508 1 -2.97716 -12.542 -20.7111 -0.130541 2.4819 6.31657
3509 1 -21.0614 -20.0956 -20.4624 0.694744 -0.978064 -1.35318
3510 1 -12.9226 4.48104 15.6812 0.541886 2.97398 2.55752
3511 1 14.7827 8.12621 -2.2485 -0.353478 2.84134 3.72743
3512 1 -18.4575 2.90867 1.73032 3.94724 1.8391 -4.73227
3513 1 -20.5395 -21.4112 -17.7665 -0.511849 -1.22627 1.91501
3514 1 -4.25355 19.1329 -11.3822 -0.95114 0.990198 2.66546
3515 1 15.4103 -18.0448 8.8002 2.262 -3.9137 1.80831
3516 1 -21.1688 5.50256 -17.889 0.433963 0.388964 -2.25662
3517 1 -6.10802 17.9967 18.08 -3.68803 -1.49472 2.26424
3518 1 -0.920049 0.769588 -0.705309 -3.44628 -0.462973 4.29319
3519 1 -3.35938 4.75826 16.7361 -3.23782 1.03645 -1.62978
3520 1 -4.71776 -15.1281 21.212 3.50313 -1.51333 -4.36871
3521 1 2.3694 14.4395 -14.7945 -2.83414 1.90137 -0.556282
3522 1 22.1804 14.3905 -22.6224 4.11122 0.179351 -1.1871
3523 1 -12.6216 -19.7452 8.65293 -0.0839129 -0.738521 -1.50085
3524 1 -0.465355 23.5343 -1.56043 -0.819051 7.50691 5.43314
3525 1 -14.7052 12.7647 -21.7303 3.61069 -0.850799 -0.35562
3526 1 11.7263 19.1361 -7.5643 -3.98129 -0.648012 -0.239723
3527 1 -1.95258 12.3016 7.03257 -1.99418 2.86897 -0.41668
3528 1 -22.8516 -23.8828 0.206002 0.972464 -3.79136 -4.58312
3529 1 -19.0371 8.9723 19.0179 4.7582 3.05675 -1.17183
3530 1 -10.0544 10.7126 7.13212 -4.38516 1.61925 3.43626
3531 1 4.92467 6.69848 22.3883 -5.00573 0.339061 0.646212
3532 1 -7.46899 13.4666 -8.33167 0.180073 -0.366893 1.08776
3533 1 16.7165 10.9423 2.17343 -2.37189 0.103898 -1.0641
3534 1 5.30436 -3.70933 20.379 -2.69991 2.19549 -0.455607
3535 1 13.0689 -22.2374 -17.0744 3.52844 3.40181 1.46855
3536 1 22.9145 -18.358 8.72258 6.56655 -0.0492082 1.11517
3537 1 20.9119 23.665 17.6214 -0.711359 1.79613 -1.96028
3538 1 2.56949 -6.24159 14.7571 -2.45606 0.240095 -1.89697
3539 1 15.0051 23.6049 -12.6819 1.70523 -5.35216 -5.33591
3540 1 -1.21655 12.7082 -4.08755 2.62024 1.092 1.31593
3541 1 12.282 0.0292786 -22.519 1.1453 -1.97282 -3.31387
3542 1 19.9401 -1.72809 5.65456 0.0325114 -2.38658 -1.27985
3543 1 -15.4781 13.982 -7.52965 -0.729057 1.13422 0.0668634
3544 1 -8.29062 19.8643 -2.722 1.31888 -1.98194 4.71435
3545 1 2.64281 20.9658 12.8345 -2.31761 0.721478 -2.91943
3546 1 19.7777 12.7376 -9.58051 -4.25981 1.00528 -8.37878
3547 1 8.761 -17.1323 -9.99853 -4.17594 -0.258281 0.477058
3548 1 6.77429 -12.9132 -19.5547 4.4885 -0.127134 1.80185
3549 1 -9.7911 7.92928 6.62052 0.787623 -2.74819 1.70778
3550 1 -13.8758 16.5958 7.59499 0.29256 6.25359 -1.40278
3551 1 12.5178 1.065 -19.8555 1.58279 1.03842 1.57707
3552 1 16.2235 19.8492 6.24999 -0.387865 2.23749 2.77474
3553 1 -9.36931 15.5808 -4.71454 0.0345127 0.619126 1.22921
3554 1 13.6129 14.3979 -14.1853 -2.29674 0.835681 -0.739758
3555 1 -22.5794 -19.1658 0.440712 -1.22578 -1.10799 -1.78825
3556 1 -9.09274 -14.0378 19.2459 -1.78445 -1.90526 -4.03927
3557 1 9.19229 6.789 -19.2146 0.389459 2.62762 3.68312
3558 1 -19.4022 -14.4738 -2.50069 1.60011 2.53819 2.90229
3559 1 10.5364 -4.99177 10.9619 4.07528 2.16931 -3.67282
3560 1 -18.1359 16.905 -20.0588 -2.4273 0.345589 2.959
3561 1 -17.9142 20.4137 4.39926 1.85681 -5.68404 4.25146
3562 1 21.1905 11.7136 2.78392 0.948234 1.09621 -5.06994
3563 1 3.05832 -23.6355 -7.19521 -1.9736 1.46388 -0.276562
3564 1 19.7267 12.5536 -13.5727 -2.65044 -3.29306 -4.0777
3565 1 16.9407 -17.5123 -6.41642 3.37446 -4.19806 6.20042
3566 1 -10.9435 -16.4773 3.99514 3.10149 2.58996 -2.14925
3567 1 1.99777 -9.71062 5.72701 -0.111296 -2.32474 2.63931
3568 1 16.1355 -0.90568 14.0559 -2.64134 -3.0028 2.61745
3569 1 -3.45394 4.88736 -12.6974 -3.43109 1.95718 -0.109176
3570 1 12.4698 22.8361 22.7893 -1.85816 1.13443 -1.95478
3571 1 2.6157 24.2315 10.1885 -0.858562 4.58642 -0.369754
3572 1 -15.337 -16.8652 -18.977 2.16669 1.27312 -0.887413
3573 1 18.1389 -3.0252 -1.49253 -0.977308 -0.0930303 -5.33723
3574 1 -16.7136 -2.97595 -11.1369 1.30734 2.80916 2.33574
3575 1 -11.7582 -12.8289 -12.3077 2.45703 0.0553428 2.21155
3576 1 14.6149 3.26261 16.148 -0.666859 -6.13559 1.80812
3577 1 -6.7089 9.17172 -5.91623 0.763743 2.59225 4.96979
3578 1 22.0406 6.76771 18.8962 2.59614 1.7777 7.49923
3579 1 -16.1948 -9.62282 -7.58982 0.418647 3.38559 2.0145
3580 1 -1.01745 -12.3457 8.34725 1.76352 1.64504 1.7611
3581 1 -11.3793 8.16917 4.1669 -1.17429 0.278884 -3.68885
3582 1 -15.8937 -23.5413 14.4071 -0.341329 -3.04126 -1.77551
3583 1 -17.6287 16.7011 7.48213 -1.57072 -2.1987 1.92862
3584 1 10.4485 5.40081 23.3225 0.533545 -1.9645 -2.34562
3585 1 11.5818 -2.35097 9.9121 -1.00667 -0.710395 -2.31045
3586 1 14.8284 -0.710186 -7.61231 1.22439 1.3239 -0.215726
3587 1 22.1383 -14.6245 -16.7441 1.11495 5.91571 2.7967
3588 1 -21.8611 -7.19699 -9.45588 2.44859 1.93154 3.7492
3589 1 -12.5123 1.91971 -6.48585 -0.769222 1.41924 -0.307976
3590 1 11.3828 -0.0476593 -3.76515 -1.18913 -1.52295 0.812828
3591 1 -6.7839 -10.186 23.7366 3.91724 -2.82839 1.33646
3592 1 -7.98029 -16.6125 -5.66144 -2.14262 -1.61128 0.795405
3593 1 13.4357 -9.58375 -13.6322 -5.58604 -2.27095 0.00316323
3594 1 13.1964 0.359907 5.04767 -2.14221 2.04889 -0.128719
3595 1 -2.22609 -16.7518 6.43985 3.19595 -2.50754 -2.17003
3596 1 -7.18098 -9.22393 -8.35237 0.741304 -2.33156 4.69097
3597 1 -3.87091 12.6504 5.06908 -0.0276783 3.22536 -1.99751
3598 1 -13.1979 -11.2691 -4.42007 -5.8337 1.04236 2.3403
3599 1 14.5456 14.422 -6.94395 0.433694 -0.787081 -1.96019
3600 1 -20.0345 24.311 -9.62611 -4.11683 2.50845 2.68668
3601 1 -22.3151 -10.8961 -4.88747 1.38466 0.354129 -0.690399
3602 1 3.13374 24.4811 21.4591 -1.27599 0.787252 -5.70113
3603 1 -5.17896 0.22132 12.6662 2.50313 1.15518 -3.28479
3604 1 11.9297 12.445 -23.5447 -1.87555 -0.51436 -4.27095
3605 1 17.9848 21.8798 14.7817 -2.77418 -0.812123 -3.63706
3606 1 2.86108 8.31491 -13.7638 -2.18393 -0.699252 -3.10089
3607 1 -19.1688 5.96534 18.6447 -1.01719 -4.54935 -3.34365
3608 1 19.4223 23.348 -16.4191 1.06676 5.57417 0.152615
3609 1 7.9648 -13.0289 6.33882 -1.01231 0.562602 2.91542
3610 1 15.9116 9.97758 -23.9189 0.534543 -0.997761 0.0571063
3611 1 -17.5794 22.0878 -16.4613 -1.59947 0.99861 -2.75476
3612 1 -2.48933 16.9473 -6.28095 0.265771 -2.21414 -1.68048
3613 1 1.33803 23.9011 12.7549 1.80389 2.46649 0.620844
3614 1 -0.803129 -4.04747 -3.76663 0.475626 -0.706679 4.18255
3615 1 3.40589 20.2298 3.79641 5.53036 2.33934 1.47186
3616 1 -10.7626 -12.4552 21.7269 3.2387 0.855749 5.16032
3617 1 14.9887 -0.488989 -19.6314 4.35322 0.753626 2.40217
3618 1 -0.383723 -8.80249 -8.15581 1.70759 4.07214 1.27856
3619 1 0.25758 19.9147 7.81221 0.751834 3.25457 1.70022
3620 1 -2.22642 15.5364 -10.8763 4.53543 -1.67738 -1.95114
3621 1 -9.29607 13.0991 11.7106 3.30164 -3.38619 -3.85846
3622 1 5.90272 -12.7834 9.94513 -2.03637 4.51662 0.10594
3623 1 11.6935 -1.30176 16.5403 2.48361 4.3196 -4.78093
3624 1 21.8753 -7.97594 5.77534 2.45071 -0.423124 -0.241973
3625 1 6.88158 -17.1097 21.5807 -6.95578 -4.54606 4.89352
3626 1 -15.2813 4.60848 -7.23126 -1.68988 5.18504 -1.13063
3627 1 -2.91332 17.6657 7.17506 -2.21151 -4.80926 -2.73159
3628 1 9.84808 -0.953404 7.94161 -1.68844 -0.00576271 -1.869
3629 1 -2.5102 -0.398492 2.8925 3.06276 -1.59451 2.66372
3630 1 5.27388 -12.3134 -0.998005 4.16243 -0.988143 2.34069
3631 1 8.83027 8.75241 18.3137 -2.32146 -4.29509 4.11824
3632 1 -14.4035 -16.091 13.5664 -4.59392 1.72991 0.100432
3633 1 9.54624 8.49529 -3.69092 -5.31356 4.80327 -0.649868
3634 1 -2.02916 4.10316 8.23977 1.03007 -2.65535 0.0812306
3635 1 -0.40749 -16.6208 -20.211 -0.401038 2.93557 1.33038
3636 1 3.888 -18.4157 -12.3534 -0.489334 -1.15343 -2.82789
3637 1 -3.68391 12.1823 23.5813 1.6889 -1.07624 -2.32749
3638 1 22.8734 -7.71672 22.3606 3.31261 0.843744 -0.329526
3639 1 4.83871 -18.8785 5.06728 -0.821059 -1.65667 -2.83464
3640 1 19.3801 -15.6486 -9.76086 0.960383 1.59834 -1.32864
3641 1 5.75876 11.9696 21.0255 -3.25411 3.03282 -0.575629
3642 1 -2.15524 -15.0714 4.37635 2.80142 2.71787 0.945015
3643 1 0.688191 5.14853 7.39201 -0.0722187 3.18329 4.93559
3644 1 19.5539 22.0164 -3.79698 0.837833 2.58428 -0.639297
3645 1 -16.8391 -14.3352 -7.34185 1.63515 -0.827383 3.40458
3646 1 18.3839 2.79264 -17.1122 3.44652 3.55853 -4.59907
3647 1 19.2599 -20.1449 5.81961 0.956289 2.43791 3.07794
3648 1 -22.4645 -21.3261 -1.4023 5.0477 -1.00225 -0.874583
3649 1 -18.2562 -1.33033 -18.3345 -5.63569 0.294538 -0.111935
3650 1 7.11028 -8.17867 -15.6356 -1.228 0.333652 1.70545
3651 1 -11.2755 5.88102 12.1047 -1.67942 2.38375 -2.04585
3652 1 22.3495 -12.662 14.039 0.887096 3.60525 1.03242
3653 1 1.04151 18.5585 -1.99006 1.39682 -0.0855931 0.35335
3654 1 -20.8156 21.8322 12.2818 -1.1676 -4.1098 -0.520419
3655 1 -9.63121 24.0878 -15.4288 3.98391 -0.0920827 0.658169
3656 1 -10.9445 -20.6965 19.0507 -1.66815 -0.371287 -6.10656
3657 1 23.5188 25.2282 -10.8115 -0.402369 -4.35085 3.22607
3658 1 21.7417 15.8558 16.1322 -0.574266 2.41892 2.06037
3659 1 19.8623 6.58668 -18.0176 -7.20528 -2.31337 -2.62341
3660 1 16.2162 9.32182 9.86276 1.12626 0.563424 -4.02618
3661 1 19.8721 10.7987 -18.5987 2.65739 3.39588 -1.02452
3662 1 -1.3525 0.956899 -22.6671 4.57428 -0.347621 -0.178044
3663 1 -22.0163 -13.2386 -12.5382 3.7526 2.89638 -4.36039
3664 1 7.22295 17.5678 12.1066 -3.92002 -2.53837 0.013977
3665 1 10.6068 -10.0824 -17.5643 4.74036 3.34107 -0.0100889
3666 1 3.92972 -16.5806 -23.5429 -2.6983 0.0996676 1.17041
3667 1 12.7803 16.9642 -17.1625 -3.13143 -0.472433 -2.95204
3668 1 -13.0574 -1.55495 22.0733 -5.08521 0.708353 -1.77608
3669 1 1.34434 21.9715 4.41607 1.85809 -0.809166 1.4433
3670 1 15.7497 6.86626 -9.30232 -0.88025 -3.9774 -3.76629
3671 1 -1.65905 10.969 -13.1471 0.144036 -1.57409 -5.59544
3672 1 -13.1459 10.7942 12.7209 -3.10841 2.69496 2.50786
3673 1 -3.83475 -23.5418 21.7456 -2.95484 1.02826 5.63244
3674 1 -1.29702 -1.08606 -6.09229 3.67969 -2.69879 2.47406
3675 1 -13.5144 20.3757 -9.642 -0.791767 4.13692 2.76013
3676 1 17.6306 14.2005 -11.0451 0.626643 3.48857 -0.158078
3677 1 -5.00748 13.8575 16.2722 0.0549134 -2.7029 1.30093
3678 1 -19.5167 7.45868 14.9953 -1.25881 -0.288126 -6.61042
3679 1 9.3652 -19.4992 -5.85133 -1.73335 2.32611 -3.14859
3680 1 13.1298 5.02508 22.8714 2.56324 5.36897 -1.10932
3681 1 -6.93456 0.026623 15.0745 -2.22417 -1.9485 -3.37736
3682 1 22.8038 -22.4757 17.6409 -2.07341 -0.511172 -2.04632
3683 1 4.9956 9.07922 5.79294 1.0494 -0.815364 1.61466
3684 1 14.7901 15.6725 -23.5087 3.20595 -0.34992 3.637
3685 1 5.12446 -2.04668 0.787724 0.758395 2.23219 -1.99526
3686 1 -21.4386 10.0837 0.338911 1.63717 1.8518 0.233613
3687 1 9.41116 -15.1346 9.48558 -0.0898628 0.726714 4.19146
3688 1 -11.9688 -23.3685 -0.161903 1.26147 -2.97529 -3.13412
3689 1 20.7135 16.0857 -15.9896 4.54266 1.77952 -2.5598
3690 1 -7.51309 6.85555 -7.52439 1.63899 -0.058957 -2.01419
3691 1 21.4067 45.7563 -7.09281 -0.466079 -0.472138 4.81499
3692 1 5.66387 1.14479 -18.1701 1.66894 2.44014 3.35552
3693 1 4.59364 22.5437 -2.8262 -0.581573 0.0495821 -0.412575
3694 1 -21.2714 2.66773 -6.15469 -1.77686 5.1855 1.53285
3695 1 -7.17485 -4.34762 1.50525 -3.27582 -0.668003 -4.41818
3696 1 7.05528 0.275267 -15.7117 -5.26523 2.23202 1.90763
3697 1 9.94298 6.01837 5.25412 0.644473 -1.94007 1.07672
3698 1 -21.3355 1.6363 15.6588 -0.533199 -2.42125 2.79061
3699 1 -9.77678 -4.91016 14.2109 0.770235 2.63736 0.998074
3700 1 -6.93923 -20.8347 -16.0362 3.02074 -5.75061 1.32917
3701 1 16.083 -3.90822 11.9084 -0.237793 -3.76248 0.267653
3702 1 -7.17662 -0.384359 -13.8172 -4.25253 1.90403 2.7456
3703 1 19.8456 13.0171 -22.3534 -1.17963 3.57529 0.0674056
3704 1 19.0408 -3.83875 11.7945 -0.253947 -2.94306 5.10825
3705 1 3.54766 0.648829 4.2345 -1.66602 -1.40296 1.28382
3706 1 -13.6116 3.86912 -17.3357 -3.64453 2.89044 -5.03983
3707 1 19.2482 7.39861 -15.2111 -0.136338 3.55885 -2.25884
3708 1 6.61014 2.18666 8.04105 0.0840948 4.50987 -9.94797
3709 1 -20.2953 16.5689 8.36329 -1.92859 0.260081 -3.51172
3710 1 -8.49799 -7.20509 19.1161 0.158103 -3.12495 0.108907
3711 1 -11.7956 12.1981 15.0825 1.29569 3.45468 -2.08846
3712 1 16.9034 25.3694 -5.86756 0.0274937 -2.47651 -4.61076
3713 1 -0.0557476 19.5817 4.82163 -4.59263 -4.27653 -0.759927
3714 1 -11.0675 0.350541 21.5384 0.307419 0.186792 2.21817
3715 1 18.8842 18.8212 18.771 -3.16191 -0.428519 -0.8624
3716 1 5.47593 5.91242 -0.353356 2.93702 0.196872 -1.57641
3717 1 -4.21135 16.7103 -19.9323 -0.99476 3.04131 3.1708
3718 1 -15.5331 7.31697 2.34831 3.12363 -4.51624 0.721249
3719 1 -0.42187 14.6757 -5.98836 4.46542 0.969477 -2.5965
3720 1 16.8002 16.4707 15.2267 -0.283672 0.337405 0.348379
3721 1 -1.78239 18.2892 -10.0815 2.40303 2.88897 -1.46044
3722 1 19.236 -9.4275 6.76419 -2.93913 -1.4618 -2.26239
3723 1 6.12884 4.58298 -15.8134 -0.0141738 2.87748 0.355366
3724 1 -4.81207 0.84572 -2.3828 2.83858 -2.34796 0.289231
3725 1 -12.0018 22.2639 -4.5866 -0.790246 -5.91486 1.35031
3726 1 -8.09518 -13.6135 -15.4281 1.43866 -2.56236 1.07673
3727 1 5.28894 -9.93989 -21.8843 2.28499 -0.534862 0.100721
3728 1 14.9366 -9.54136 23.1133 0.26517 -1.35895 0.27528
3729 1 -23.3934 -8.37374 -13.4819 0.719306 1.22107 1.03809
3730 1 13.7743 -4.95399 13.3518 -0.185816 -2.05145 -3.36706
3731 1 3.53104 -19.3771 -21.2228 -2.78164 0.392817 0.894266
3732 1 20.6817 20.4859 4.74546 -0.650812 0.559272 0.367267
3733 1 5.34078 -15.2555 -1.62574 4.40247 -0.517763 -5.67712
3734 1 15.2142 13.5582 -9.7177 -2.99522 0.466813 -0.119083
3735 1 -8.38976 17.51 0.707183 1.08501 0.173444 -3.2402
3736 1 -21.2901 15.2528 -10.9746 -0.131825 -3.03679 -4.34444
3737 1 -1.93818 5.82915 1.31184 -0.872516 4.5511 1.73074
3738 1 -5.9642 -6.76364 16.2546 -0.91454 -0.560499 3.66504
3739 1 1.52903 -4.9512 7.42319 -6.08427 -2.54473 -1.71693
3740 1 5.39649 -0.484933 -20.4176 -3.39783 5.3215 -0.226818
3741 1 -18.3874 12.1841 -5.29496 1.29613 -0.528671 0.581264
3742 1 -1.86073 -19.0633 -14.3933 2.82284 0.0257671 0.758655
3743 1 5.2601 -13.1171 16.126 -0.427234 0.707119 -6.59632
3744 1 -16.9021 17.8935 3.24654 -2.31133 4.28385 -5.81103
3745 1 2.70357 -8.87249 10.5055 -1.97918 0.69974 -3.98038
3746 1 5.65351 -20.6153 -5.21758 0.121797 1.60214 4.42699
3747 1 -18.6675 23.4623 -18.8624 -3.00826 -1.97524 2.63939
3748 1 -16.1403 -3.35387 -18.324 3.31379 -0.361603 0.267855
3749 1 -21.1601 -2.30181 13.9675 -0.160826 0.880888 -7.32717
3750 1 13.1326 23.6797 -14.85 -0.23254 -2.97218 -2.0556
3751 1 -6.23264 -1.78532 0.626474 3.24153 0.414429 0.604016
3752 1 -19.3688 15.9769 -17.5941 2.01576 2.40237 3.78188
3753 1 5.5437 -5.23838 -21.8477 -0.752346 4.41675 -7.28444
3754 1 -10.7631 7.58854 9.51213 2.98793 0.520125 -0.450564
3755 1 17.989 6.77277 -7.62961 -4.65604 -3.57562 1.8987
3756 1 -12.7394 45.5665 -22.1689 3.85303 -4.39063 1.17066
3757 1 1.61926 22.2707 1.54661 -0.163423 2.88657 -1.02709
3758 1 22.0896 -7.41127 -13.1896 -2.54351 -2.81574 2.03312
3759 1 -10.3436 7.17483 -20.4615 4.50013 5.21573 -8.79656
3760 1 15.2336 23.4077 2.18515 -2.08371 -2.06991 -0.266899
3761 1 17.5071 -11.1321 -18.1765 -2.02731 -0.529572 -0.08172
3762 1 9.42224 -11.6835 8.34626 -0.779521 2.59485 5.1557
3763 1 12.9779 9.53612 6.1922 3.90523 -7.90784 -0.583183
3764 1 17.9335 -11.5736 20.0589 0.0631617 -0.225782 -0.930414
3765 1 -22.6858 46.6268 -2.21681 -1.13245 0.814139 -1.31556
3766 1 -11.4248 20.2582 13.4956 -4.4412 0.409181 5.05443
3767 1 -11.4182 -21.9735 2.2406 0.198762 -0.421543 2.57246
3768 1 -0.732677 7.27481 -15.5207 -0.570102 3.3912 0.677782
3769 1 -20.8652 -18.5518 8.82264 4.64733 -3.07363 -1.63609
3770 1 -7.54479 -4.62986 9.64685 -1.7183 2.53799 2.98665
3771 1 -16.2996 18.8673 19.9266 -0.973851 1.17396 -2.1421
3772 1 15.8331 -15.3732 -2.07889 -2.5343 4.43585 5.16144
3773 1 1.86945 -3.787 13.601 1.32465 6.1385 2.46559
3774 1 -6.52858 14.0538 4.71049 0.0614017 1.39369 -5.52025
3775 1 2.82959 -1.67315 -11.0132 -0.629359 -2.70109 4.53875
3776 1 9.10344 -5.27317 18.2905 -1.30388 -0.155285 -0.885622
3777 1 11.9157 -6.73807 -0.721145 1.493 -0.048466 0.508094
3778 1 6.42691 15.3886 -10.6452 -6.13996 1.67983 2.10953
3779 1 -9.37807 0.552209 8.12915 -0.323869 -1.84534 -1.63553
3780 1 21.8522 19.9047 -18.7246 0.0605977 -0.292609 3.55257
3781 1 -2.83783 -3.12764 8.86631 -0.73533 -1.87447 -0.677281
3782 1 -0.0923741 -14.569 -18.128 2.4599 -2.12182 1.6106
3783 1 22.8571 21.3187 3.11443 3.39558 -1.21794 6.89039
3784 1 15.7709 1.03544 3.24701 -1.55576 -1.65629 -0.232527
3785 1 -3.22979 -21.8204 23.988 3.36148 0.242676 1.69844
3786 1 20.2678 5.63198 16.7559 2.90089 2.45431 1.05039
3787 1 8.37497 20.5046 -15.606 -3.22892 0.39475 3.15409
3788 1 5.69816 16.2889 10.1422 2.3594 -0.808754 -1.70262
3789 1 19.1283 24.4257 -13.0032 -7.01797 -0.638996 0.0905591
3790 1 4.31769 -19.1982 -0.484402 4.20303 1.37757 -7.45115
3791 1 -9.562 16.9149 -13.4771 -0.788254 -0.667321 -0.97794
3792 1 -11.8457 -8.0204 12.0188 2.19772 -7.69905 2.94286
3793 1 -13.1208 21.3386 2.74519 -3.94435 -0.943877 0.548937
3794 1 -4.03853 -20.7447 -9.76094 -2.73156 4.62915 1.10078
3795 1 13.9676 23.1971 20.4296 3.85669 -1.40795 -1.61817
3796 1 -10.8061 -8.19896 -8.42138 -0.791577 -2.10071 -3.60627
3797 1 -15.3412 -14.5615 8.21085 -0.459321 3.51439 -0.0111249
3798 1 5.13717 3.17076 -1.32764 -1.73955 0.0852307 0.36004
3799 1 19.0062 21.3607 -6.81716 4.47637 5.55276 -2.72301
3800 1 16.0271 3.06441 -3.50801 -0.486958 1.94053 1.68183
3801 1 2.72605 14.7933 -9.23058 3.24025 -0.153337 -1.72227
3802 1 6.50932 0.272467 -22.7938 0.151047 0.263933 -4.41584
3803 1 -19.0424 -6.01184 -23.9798 2.44105 -2.47289 0.239856
3804 1 12.5045 15.4963 9.62167 -1.4265 -0.69838 -4.61824
3805 1 -6.34971 18.2637 -18.8702 -2.95075 -3.45739 0.799865
3806 1 0.0875427 1.88921 -3.65685 0.589261 2.44289 -0.000935868
3807 1 -8.05858 20.8363 -19.6402 2.62974 3.01599 -2.31192
3808 1 7.16246 -14.0384 -22.2895 1.36067 0.430896 -2.30894
3809 1 4.36679 -23.8059 -20.3789 -5.1475 -0.619041 -3.3854
3810 1 -16.4959 -4.18095 12.4352 -0.714914 -4.58959 -1.88919
3811 1 14.5416 -14.025 -23.784 -2.41794 5.68205 0.418475
3812 1 -3.89957 -17.1658 -0.118034 4.65574 2.53823 -0.299836
3813 1 16.7311 4.26302 -0.916558 -1.6513 1.42554 3.41133
3814 1 3.41559 9.07483 11.598 3.18224 -0.986778 -4.51178
3815 1 -1.70295 18.5305 22.3455 1.58809 -2.74047 -0.0760474
3816 1 -14.3418 -8.69051 2.78074 -2.68294 -1.82812 0.263363
3817 1 7.40924 9.01659 -1.82282 0.975198 -5.99339 2.70304
3818 1 12.4422 16.1487 23.0515 4.21995 -3.22036 -0.928913
3819 1 4.46873 22.7202 14.5899 -1.72919 2.71163 -4.95964
3820 1 23.8261 12.5348 -7.19163 2.92032 1.70147 -0.0757118
3821 1 11.2338 -11.4234 13.3578 -1.81286 -3.53495 -1.54369
3822 1 10.3942 6.6832 8.22187 -2.84453 0.892513 2.36429
3823 1 -6.71763 -18.4011 -8.489 -1.33191 -3.41448 0.325452
3824 1 -9.20753 -24.3177 -6.45176 -1.88242 4.27477 -1.45291
3825 1 20.9987 -14.0495 10.7753 -0.994925 3.76484 -1.41592
3826 1 -0.962777 16.678 -15.3155 -2.05461 4.13118 -1.88981
3827 1 0.186814 7.86619 19.6227 -0.225894 2.44513 -3.87308
3828 1 -17.0433 19.4137 -18.9777 -0.986624 2.06919 2.1159
3829 1 -13.2694 -17.77 -5.49033 -2.18522 -0.505756 1.62831
3830 1 14.5615 -11.9502 -12.4951 2.76163 -4.45985 4.05784
3831 1 -3.50097 21.2445 -0.135927 0.803149 8.44668 -1.50436
3832 1 22.3945 -1.22731 4.02683 -3.37073 -3.28689 -2.44112
3833 1 19.4634 -0.658272 -10.8559 0.452647 2.01524 0.790592
3834 1 6.93374 5.67799 4.63341 -1.74338 2.10081 1.56033
3835 1 22.8087 -24.1605 -2.77369 0.595143 1.69592 -2.23799
3836 1 21.7281 13.4382 0.487491 0.898857 1.1105 3.54724
3837 1 11.8075 13.9929 1.8206 -2.8964 -6.74163 -0.921496
3838 1 -6.57404 4.894 -3.30235 -4.91457 -1.53973 4.58022
3839 1 22.0471 5.03681 1.09429 0.0544521 1.40885 5.02573
3840 1 -11.228 -21.7396 13.0764 -4.44669 -2.07046 -1.81056
3841 1 21.2538 2.44664 9.87594 -0.224462 2.22988 2.39353
3842 1 23.5511 2.9027 21.5661 0.615169 -2.33305 7.99739
3843 1 -0.77686 -17.2299 15.4033 2.12599 -1.13188 1.838
3844 1 -22.4923 -13.491 6.22842 -3.66164 2.52388 -1.99269
3845 1 -4.31376 4.67098 -22.771 0.1499 0.110198 -3.0469
3846 1 -21.884 20.5243 20.1281 -3.62821 3.72013 -2.09142
3847 1 -17.0327 -15.8642 -14.8953 -1.00236 0.871955 -1.54794
3848 1 5.15606 -16.8492 7.06478 -0.94183 1.73727 3.47957
3849 1 18.0247 12.3515 -20.3517 5.46844 2.11998 3.9912
3850 1 19.3311 -20.1773 22.8933 -1.33522 3.84833 3.37548
3851 1 -2.32917 6.44509 -1.63077 -0.814945 -3.01325 -0.126056
3852 1 -4.53621 19.064 15.9563 2.24064 -1.05891 2.71065
3853 1 19.0972 -13.5381 3.9369 1.1217 3.4963 3.46069
3854 1 18.1624 13.4713 -2.88192 0.634531 -1.1848 -0.222352
3855 1 -3.35053 -5.67691 23.6072 1.81002 2.18536 0.117934
3856 1 14.1372 -19.5934 -3.06536 3.5816 8.91278 -1.48683
3857 1 -13.0876 -23.6161 -12.0345 -2.53837 2.81178 4.08852
3858 1 15.8048 6.76404 6.10514 1.02275 -0.605302 3.19906
3859 1 21.287 22.031 10.0623 3.28405 2.75386 1.20534
3860 1 14.073 -16.6687 -14.8808 4.84099 4.34507 -2.40382
3861 1 -17.6079 -13.6669 21.3117 -0.946028 -2.70955 1.77885
3862 1 -5.19641 1.00177 -18.5225 -0.418892 2.13695 2.76121
3863 1 -13.0303 -2.03367 14.8486 0.54611 0.233364 0.334142
3864 1 -4.93058 -3.46522 -13.7592 -1.45391 2.2401 4.06269
3865 1 0.115364 47.325 14.6026 6.5536 0.762208 -3.24923
3866 1 9.569 -15.4066 6.55319 0.672089 -0.285166 1.27087
3867 1 -24.3689 0.364933 1.88637 1.75642 0.357778 -0.514867
3868 1 6.24695 6.77342 -2.90098 5.04128 -3.33009 0.78414
3869 1 -8.92293 5.5964 10.0703 -2.70018 -1.84205 6.32963
3870 1 14.9615 -19.2543 -10.0052 0.124642 2.82943 -1.37446
3871 1 18.2699 -0.00125099 19.685 1.85235 -2.0179 2.28436
3872 1 22.0165 -23.5439 -7.61717 1.70819 3.54691 3.4412
3873 1 -4.23264 6.53596 14.4949 3.45309 -3.38096 -1.41804
3874 1 -20.3637 -24.1881 -16.6695 0.66016 -2.54892 -0.220837
3875 1 -23.8982 -0.661366 6.18691 4.981 -0.669152 -1.46188
3876 1 -22.6359 -10.6158 20.3729 2.67883 2.57361 1.12406
3877 1 -22.2669 4.0136 -3.88922 4.1127 -1.23475 -0.210223
3878 1 7.09105 -16.235 5.02487 1.01942 5.78258 3.01362
3879 1 18.067 -14.5763 23.8638 0.926335 -4.73066 -1.15314
3880 1 -7.76134 17.1792 -23.4148 -1.82601 -0.018194 -0.205144
3881 1 -13.667 1.93761 -14.9847 2.78154 -1.04959 -0.501377
3882 1 23.0497 18.7449 -2.53098 3.47919 -3.14094 4.07284
3883 1 22.5557 15.0793 -12.0872 -0.0492177 0.0214011 1.69613
3884 1 11.9091 -18.5126 -6.86594 -1.5701 -0.0656876 1.94842
3885 1 12.7457 25.3196 15.6871 -1.58066 -1.22348 -1.28246
3886 1 -11.9214 -15.2113 -6.16075 1.30507 0.0220859 -0.776823
3887 1 0.895444 -12.2826 -19.7864 -0.410778 0.546828 -0.0928162
3888 1 -4.83656 5.29779 -18.6276 -1.58993 -0.331487 4.92843
3889 1 -15.7147 16.5164 18.4184 -0.489554 2.51693 0.0807087
3890 1 0.892669 20.3765 15.2464 3.06891 -4.49536 0.6335
3891 1 5.33043 -15.4613 17.5493 -1.43511 1.26645 0.534105
3892 1 -12.9304 22.9352 6.71202 -1.61504 0.388777 -0.252464
3893 1 -6.76592 11.9451 11.5559 -2.41155 -4.0984 -1.57815
3894 1 10.8348 10.7837 -13.295 -0.59914 -1.84304 -7.38305
3895 1 14.2585 -6.83153 1.04523 0.923623 -0.85661 1.92356
3896 1 -8.42855 -8.91833 -0.786196 -5.17786 -1.89864 -2.44863
3897 1 6.37075 13.1574 23.6575 -0.841782 3.8821 0.436197
3898 1 17.622 -1.98078 17.7448 -4.82032 1.14359 4.60494
3899 1 6.19992 7.62239 17.7269 -4.8813 -0.625221 0.360689
3900 1 11.3418 -17.7542 -13.468 -2.73062 4.69328 -3.82689
3901 1 -16.2037 13.5193 -14.0492 4.964 -0.658828 3.29862
3902 1 12.9134 12.3113 -5.92546 1.1406 0.99586 -3.83336
3903 1 -19.1352 -15.9829 2.66364 -0.164379 -1.32908 3.83157
3904 1 10.5137 -8.02251 -6.30571 4.83195 -1.95712 2.85215
3905 1 0.133653 -11.7342 5.77628 2.04711 4.61266 1.5767
3906 1 -16.7579 8.74429 -8.95812 -3.19456 0.896574 -2.44065
3907 1 -21.1509 0.615524 10.0258 -11.8457 -3.99939 0.386935
3908 1 22.9519 -16.1938 15.8538 -1.24679 1.10888 -0.177675
3909 1 2.0937 -11.5432 19.9334 -1.84198 -0.15956 -1.31011
3910 1 -5.87822 17.143 -8.0708 5.47087 -1.43529 -2.96746
3911 1 20.7204 21.4372 -0.125797 0.448778 2.02632 -5.67949
3912 1 -6.52511 -8.41384 1.34983 2.2016 0.00297604 5.27706
3913 1 -7.63537 6.54368 -0.132251 1.32883 0.0376281 4.86735
3914 1 12.5113 -12.3199 -5.11043 4.69154 -2.68828 4.46687
3915 1 7.09717 -2.11624 8.11245 -4.21016 -4.03057 2.31691
3916 1 22.106 -12.5874 22.866 2.20142 -2.56751 3.66018
3917 1 1.67255 -6.48259 -8.23766 2.66006 -2.58369 1.20123
3918 1 12.0465 11.3542 -17.9683 2.80563 -3.46534 -1.45865
3919 1 7.66771 -14.3111 18.8854 3.19182 0.545371 -1.08153
3920 1 -10.7183 11.1915 17.6384 -0.202185 -2.00185 -5.77507
3921 1 17.0975 7.93346 -17.1034 1.4441 4.41672 2.40252
3922 1 -15.6898 -14.1284 -18.0848 -1.23456 1.58216 3.96406
3923 1 -22.1438 4.1081 -9.33674 1.29028 -4.79078 0.553601
3924 1 -9.69889 -6.04291 11.3525 -0.327323 -0.0329412 -1.52162
3925 1 -22.0608 5.15188 2.2771 1.35827 1.00798 -0.610509
3926 1 8.88164 -3.70573 23.8931 -1.29131 -3.68502 -1.9097
3927 1 13.5276 17.4227 -0.962412 5.04065 -1.67989 2.31975
3928 1 -17.9112 16.8114 23.4819 -0.168387 1.23305 -1.78821
3929 1 -1.74793 11.6176 -7.52009 6.8607 -3.07603 -1.89605
3930 1 13.8207 19.9678 0.365121 0.687675 -0.221861 5.45016
3931 1 -1.08143 10.4819 1.47081 -8.10885 4.22957 4.11389
3932 1 21.3714 5.0208 11.506 0.602738 0.813534 -2.38074
3933 1 -2.88414 -9.99906 20.4952 -3.2729 0.192451 -2.02213
3934 1 22.431 3.74668 -13.4792 -0.862105 -3.35379 1.57897
3935 1 11.7325 -13.5746 -19.7657 0.344387 -1.45043 1.48408
3936 1 -1.09951 -22.7971 21.9688 2.40845 2.11666 0.13691
3937 1 13.339 -16.219 -20.2461 -1.00854 -4.13257 0.84051
3938 1 19.1924 11.9869 18.074 -2.74435 1.53571 1.84944
3939 1 23.5931 -2.21535 13.9862 0.175204 -3.54393 0.835374
3940 1 -2.65198 23.5023 -8.25385 0.341029 -0.109415 -0.581339
3941 1 -18.521 2.09668 23.7464 2.45351 -3.47966 -0.00198579
3942 1 10.2984 -22.4207 16.5262 -0.0503043 -0.177823 5.1707
3943 1 -20.5849 -20.2869 2.29374 3.38709 0.421679 -3.97196
3944 1 -12.1754 -8.87293 -12.4942 1.69692 -0.337944 -4.56311
3945 1 -22.0234 -13.537 -15.3414 0.637086 2.33322 2.72955
3946 1 -5.35435 16.6553 8.53246 -2.23722 -0.382321 1.68904
3947 1 -22.1001 10.0007 -23.7918 4.50857 -3.98543 0.632616
3948 1 10.3847 16.6441 -18.4941 0.784771 -1.68772 -3.18795
3949 1 3.15061 -13.5211 -12.5772 -1.81382 0.050303 -0.614009
3950 1 -5.02507 -1.30744 -20.289 1.97047 2.84029 0.344357
3951 1 6.21466 3.46516 -13.2825 6.78994 1.59055 -5.07539
3952 1 -4.67853 -6.71493 -16.2796 1.31678 -4.6753 1.00676
3953 1 19.135 -18.9833 15.5104 3.68252 -0.660774 -3.7874
3954 1 3.57629 3.29131 -16.1583 0.805526 -3.66131 -2.85045
3955 1 -6.89165 19.5245 10.9675 5.50886 -0.619812 -1.27706
3956 1 -12.9261 12.9179 -4.56402 -2.44523 -0.846609 -2.35938
3957 1 18.4957 -22.4378 -18.2702 4.06213 0.626935 0.429626
3958 1 -3.97943 8.29851 -5.3886 4.13387 2.31476 -6.78802
3959 1 -20.5689 -6.52541 -20.3785 4.4758 -1.15457 3.00179
3960 1 18.8141 -12.6945 -10.07 -2.07182 -3.01674 1.38508
3961 1 -1.47407 -20.9414 -3.73129 -2.87766 0.210333 1.20763
3962 1 2.59037 -13.3873 4.86348 2.31362 -5.19041 0.386077
3963 1 -15.7778 -15.9762 -2.0742 -3.08173 -6.34292 -2.45431
3964 1 9.3335 10.3192 15.6312 -0.984934 -1.2083 -2.3775
3965 1 -4.79124 1.52462 3.10337 3.09263 -0.404821 3.23556
3966 1 -19.679 20.9957 9.67598 -0.221771 6.46661 -1.32521
3967 1 1.0102 -5.90308 -3.43437 -1.19013 0.922509 2.27319
3968 1 -1.78559 3.88732 -3.84979 1.44733 0.085804 -0.729818
3969 1 15.7256 -22.6172 21.8894 0.828306 2.37389 2.74807
3970 1 -8.20925 20.4679 22.8913 1.05633 3.08139 8.24375
3971 1 -2.4978 -0.948755 20.4035 1.83804 -0.755472 -0.180004
3972 1 -4.90724 -9.30308 -9.63906 2.87727 2.04027 -0.882872
3973 1 -11.9482 -20.6631 -7.1994 1.46505 5.26681 -0.947388
3974 1 6.63027 24.4511 14.274 0.315234 -2.53058 3.50658
3975 1 2.99199 0.417505 -17.1104 6.95856 0.176206 -0.698089
3976 1 -4.27152 16.628 2.35537 0.598504 1.26192 -2.87782
3977 1 -10.3786 -17.6181 -19.6153 -4.37144 1.78329 3.03253
3978 1 -0.97951 19.8579 -12.5045 0.585231 0.299007 0.374857
3979 1 -10.6881 -23.8757 4.10827 -1.81945 9.6222 3.28138
3980 1 -22.9048 -17.4609 -13.4759 3.55045 0.75621 -1.57084
3981 1 12.0264 -8.8668 4.98721 -0.782943 0.364765 2.95901
3982 1 8.46346 -3.05317 -3.84953 -5.52938 3.38769 6.4047
3983 1 -22.1306 9.52744 7.6017 0.765157 0.582335 -0.552911
3984 1 -5.5224 14.0186 -19.8633 1.30179 2.7483 -1.15529
3985 1 -12.8125 20.0776 7.71293 -1.52741 4.98687 1.77702
3986 1 15.7074 20.6894 -15.4351 -0.752883 2.37332 -1.16163
3987 1 12.6124 15.2704 17.0247 -1.97528 1.02768 -0.722724
3988 1 23.5577 20.5109 19.1916 0.654601 3.46665 -0.186396
3989 1 -16.6666 -9.47682 -11.7899 -1.33609 -0.601687 0.862049
3990 1 10.0473 3.79157 -22.6111 -0.873179 -4.02816 -1.86732
3991 1 -17.2028 7.42511 -23.4176 2.51959 -1.23613 -5.1791
3992 1 23.6423 9.60099 -3.40997 -2.94118 0.129027 -2.50052
3993 1 -7.5306 -10.1026 -5.74684 -0.191614 -1.57201 0.621837
3994 1 -16.7257 -20.9988 -20.8173 0.293122 7.64582 -3.96562
3995 1 6.15209 -22.9979 4.0758 5.44329 1.10365 0.991693
3996 1 4.12011 -14.0196 2.42418 -4.56046 -4.33467 -0.456577
3997 1 18.9005 -22.4399 -10.661 -2.5539 -1.23793 0.402037
3998 1 -12.454 -3.40093 1.9075 -1.3855 -1.10411 -5.92511
3999 1 -7.49522 16.6884 10.9162 -3.01628 -0.238566 -0.738791
4000 1 -18.3986 11.0883 21.8699 -2.097 0.636125 1.96834
4001 1 -10.9585 25.0792 -4.96463 2.13003 -5.34105 -1.62154
4002 1 -10.0729 27.6502 -5.44989 -0.493685 1.36523 6.31152
4003 1 -7.33893 27.7445 -4.65095 -4.70464 -3.56094 0.241501
4004 1 -6.08187 25.3258 -5.98257 -4.43607 -4.93671 -0.590977
4005 1 -9.89713 24.7028 -9.85032 3.45224 1.34257 6.1037
4006 1 -10.6605 27.7811 -8.23313 -1.5031 0.497579 3.82191
4007 1 -8.25992 27.401 -9.54234 3.22875 3.12149 1.39036
4008 1 -7.22296 24.9946 -8.59658 -0.94497 1.2007 1.77619
4009 1 -10.9561 25.4848 3.45791 -3.50581 -2.39251 1.16383
4010 1 -9.42884 27.4083 2.14121 8.20036 -0.723283 -1.63476
4011 1 -6.68317 27.5847 2.65858 -0.655269 -2.25013 -2.91361
4012 1 -5.65647 25.4018 1.64525 -1.95199 -5.25161 1.83581
4013 1 -10.349 24.6757 -2.13897 0.893391 -0.887734 -5.24147
4014 1 -9.57138 27.2478 -0.774656 1.77508 2.41119 4.21232
4015 1 -6.93473 27.5996 -1.88911 -3.99018 -2.81001 1.94476
4016 1 -4.75416 26.0988 -1.03243 7.43816 -1.01826 -0.395636
4017 1 -9.92693 24.8939 10.3621 0.105524 -0.833636 -2.26956
4018 1 -8.56268 27.2314 9.61606 1.97469 -0.0175881 1.38117
4019 1 -5.98843 27.3374 10.5875 0.384437 1.74766 -0.375451
4020 1 -5.11201 24.9084 9.81917 1.35521 -1.73646 -0.707121
4021 1 -10.6887 26.0121 6.37089 2.38008 0.0818405 3.87499
4022 1 -8.80316 27.758 6.85357 -2.27436 2.86501 2.12662
4023 1 -6.37919 27.332 5.51144 0.664248 0.302718 5.02287
4024 1 -5.24016 24.8044 5.43655 2.40408 2.29328 0.861755
4025 1 -11.4486 29.7889 -4.64626 2.98744 0.65832 -1.0482
4026 1 -9.8761 32.0525 -5.09491 -4.28756 -0.162825 2.01063
4027 1 -7.1397 31.9026 -4.49553 2.09884 1.20067 -3.0919
4028 1 -6.03159 29.7487 -5.84751 -0.224782 0.87939 0.0699811
4029 1 -11.9355 30.0909 -7.36155 0.377418 4.40588 0.77166
4030 1 -10.9378 32.6298 -7.97835 -5.43345 0.74666 1.31521
4031 1 -8.12211 32.0707 -8.60905 -1.50514 -0.455412 -1.36603
4032 1 -6.80806 29.6776 -8.42371 -2.737 -4.53856 -2.8861
4033 1 -10.199 29.7036 3.44297 -0.208018 0.664089 1.59486
4034 1 -9.41867 31.937 2.29903 1.1931 1.27433 3.91748
4035 1 -6.69742 32.0558 3.37752 -3.71839 -2.6933 -6.11017
4036 1 -5.47203 29.9945 1.83221 4.02172 -1.23236 -3.0164
4037 1 -10.8843 29.7764 -1.87567 -0.185761 0.0168274 5.62164
4038 1 -9.75451 32.072 -0.435745 1.64078 -0.620362 -2.67653
4039 1 -7.31547 32.2941 -1.80981 -2.34529 3.99225 -1.72642
4040 1 -5.82829 30.0457 -1.18821 -0.659584 -3.2434 -0.0372819
4041 1 -9.65311 29.6874 10.4466 2.60129 -0.988662 -1.82385
4042 1 -8.60655 32.3149 10.2597 -2.47977 -0.727778 6.69341
4043 1 -5.87251 31.9421 10.0618 -1.35268 -1.86457 2.40015
4044 1 -4.72026 29.4977 9.54616 8.54584 -0.506801 -2.6431
4045 1 -10.4518 29.8605 6.3042 -0.740609 -2.48715 4.61058
4046 1 -8.98142 32.1588 7.42696 -2.27782 -2.58486 0.437548
4047 1 -6.51242 31.7572 6.1925 4.48171 -0.577483 -0.269675
4048 1 -4.93391 29.6303 6.69543 -1.55524 0.705647 4.40166
4049 1 -10.9747 34.5076 -4.27097 -0.033627 -3.71316 -2.68485
4050 1 -10.1499 37.0085 -4.75985 0.0920802 3.80624 0.902748
4051 1 -7.45398 36.6037 -4.41331 -5.55791 -0.388082 0.979844
4052 1 -6.31533 34.5011 -5.50052 2.11688 -2.89811 -2.10467
4053 1 -12.5896 34.4583 -6.64263 5.85245 -1.73147 3.50346
4054 1 -10.9877 36.6451 -7.52586 -2.14619 0.250416 0.0576145
4055 1 -8.53532 36.5321 -8.78187 -2.11193 -2.48634 3.35769
4056 1 -6.56692 34.4553 -8.30793 2.19596 4.70376 -1.04719
4057 1 -10.3165 34.4339 3.68579 2.49024 -3.30188 0.291229
4058 1 -9.38648 36.6626 2.15583 -4.65883 -3.25449 -0.208863
4059 1 -6.87885 36.9089 3.12284 -2.76856 -2.75034 -0.622353
4060 1 -5.83291 34.4773 2.08489 1.56811 1.2863 4.81501
4061 1 -11.1435 34.4002 -1.66768 -1.55978 -5.72464 -3.18365
4062 1 -9.55394 36.4694 -0.536156 -0.877536 0.944716 0.484795
4063 1 -7.13586 36.547 -1.69771 0.930503 3.49699 -4.76282
4064 1 -5.62638 34.5391 -0.823282 -0.197745 5.81633 -4.71903
4065 1 -9.35758 34.5262 11.6302 -2.85038 3.20455 -2.5002
4066 1 -8.32636 36.6711 10.0077 2.8128 -1.47092 -0.219313
4067 1 -5.52419 36.4558 10.2053 5.90817 -4.58047 -0.29368
4068 1 -4.72542 34.0398 9.08121 0.727254 -1.98046 0.877082
4069 1 -9.81422 34.4875 6.43029 2.77013 -2.66705 0.0918028
4070 1 -8.95831 36.9026 7.28788 -2.61844 1.36808 2.53658
4071 1 -6.55553 36.8863 5.86939 -2.03136 9.53211 -1.29705
4072 1 -5.25686 34.4671 6.44484 0.6185 0.860797 -2.25224
4073 1 -10.9849 39.3246 -3.53857 0.884104 4.25136 -0.0255068
4074 1 -9.85511 41.5006 -4.83815 1.2054 -0.486785 -2.88062
4075 1 -7.05303 41.2641 -4.32563 3.35938 3.30204 -2.02883
4076 1 -6.14176 38.9207 -5.59536 -0.274371 3.69471 0.78616
4077 1 -11.8715 39.0487 -8.57358 -2.93711 -3.91252 -1.47086
4078 1 -10.4834 41.3243 -7.57016 -1.87408 3.98629 1.11342
4079 1 -8.13429 41.2489 -9.05834 -4.94808 -1.71304 -1.0222
4080 1 -6.85924 38.7909 -8.33601 6.65225 2.15626 -1.67919
4081 1 -10.0308 38.8541 3.62651 4.93083 1.03133 -3.30323
4082 1 -8.90443 41.2436 2.83686 4.75012 0.455651 1.35918
4083 1 -6.11395 41.2831 3.14713 -2.00464 -3.62574 -2.9785
4084 1 -5.34238 38.9822 1.76859 3.16237 -1.37636 -2.44648
4085 1 -11.1008 38.8376 -0.686363 -1.58053 -1.25857 0.997713
4086 1 -9.69627 41.1378 0.0310405 -2.03003 3.54601 -2.95361
4087 1 -7.40042 41.5108 -1.53211 -1.47801 2.84852 1.71156
4088 1 -5.78502 39.0908 -1.12214 -0.226363 -2.58197 0.465233
4089 1 -9.23038 38.7625 11.3138 -1.82415 1.97085 0.929734
4090 1 -8.38442 41.1297 10.158 2.88385 -0.742398 -2.21599
4091 1 -5.58461 41.0263 10.7812 1.27168 1.90055 0.437233
4092 1 -4.21326 38.8047 9.69998 2.58452 -0.753257 -2.91083
4093 1 -9.88386 39.3063 6.28697 5.48431 2.14719 3.2067
4094 1 -8.4108 41.4441 7.53973 -2.13989 1.97683 5.02822
4095 1 -6.08168 41.3102 6.01712 7.74816 -0.591081 -4.83252
4096 1 -5.07857 38.9853 6.77611 -0.411014 2.94491 6.24277
4097 1 -10.0993 43.9506 -3.69937 4.6226 -4.94854 -1.11654
4098 1 -11.2356 45.545 -5.96901 -2.44333 0.863687 -2.80624
4099 1 -7.91571 45.6184 -4.33853 -1.74126 -5.68378 -2.19914
4100 1 -6.4105 43.6775 -5.43369 3.1808 -4.10848 -1.50034
4101 1 -11.1712 43.9686 -8.28315 2.64644 1.59565 5.78847
4102 1 -8.82671 45.4321 -8.7025 -3.22296 0.614937 -0.238504
4103 1 -8.90671 -24.1068 -10.5069 -5.17439 5.22198 2.35003
4104 1 -6.77625 43.6662 -8.12334 -0.613672 -2.38028 2.0864
4105 1 -10.3292 43.4207 4.01313 0.511534 2.92487 0.19079
4106 1 -9.38731 45.8599 2.6957 -1.57033 -0.375861 2.5084
4107 1 -6.72201 45.778 3.42609 2.84584 -2.29072 5.97195
4108 1 -5.28073 43.5235 1.80092 0.7859 -2.26332 -0.83792
4109 1 -10.6982 43.6488 -1.01726 3.91809 -2.10485 2.20233
4110 1 -10.122 46.3605 -0.0514455 2.28447 -0.967775 -1.49769
4111 1 -7.86099 46.1257 -1.64756 2.02011 1.37863 -2.37211
4112 1 -6.30386 44.0171 -0.876557 -0.796964 5.22618 -1.08344
4113 1 -8.91836 43.633 11.6428 2.0656 3.75124 1.59212
4114 1 -8.69831 46.2811 10.3534 -0.656403 -2.14784 0.104726
4115 1 -4.41933 45.839 10.7805 2.79008 2.60972 3.13673
4116 1 -4.22232 43.2335 9.72592 -1.78226 -1.46341 -4.75672
4117 1 -10.0953 43.5771 6.92665 -2.54418 -3.42548 3.81057
4118 1 -8.85185 45.9034 7.71366 3.8745 -0.924104 0.0926853
4119 1 -6.42289 45.7261 6.30842 0.673686 -1.8439 1.78065
4120 1 -4.8069 43.5406 7.04916 4.17421 -5.47938 0.924805
4121 1 -3.28016 25.109 -5.56355 -4.50151 -1.60862 -1.02411
4122 1 -1.95154 27.7346 -6.19951 -2.53134 4.40252 2.79716
4123 1 0.761871 27.1818 -5.49577 -0.172023 0.603271 0.0198713
4124 1 -0.401006 24.4867 -6.71937 -0.427183 -1.42318 -2.63241
4125 1 -4.3417 25.4163 -9.10048 4.28639 0.320992 -0.073771
4126 1 -2.94954 27.7352 -8.92207 3.72137 -2.29335 0.373935
4127 1 -0.46337 27.7139 -10.4544 -1.31729 -0.0263779 -2.57763
4128 1 0.621005 25.1715 -11.034 -1.18241 -0.308002 2.36208
4129 1 -2.69789 25.3726 2.47958 -2.49161 -1.7839 4.91526
4130 1 -1.3231 27.4909 1.46054 -1.7259 -2.59678 2.29083
4131 1 1.2676 27.4022 1.99653 3.90438 0.600113 -0.787855
4132 1 2.55058 25.0982 0.901253 -3.84091 -5.94106 -2.68318
4133 1 -2.8631 24.8558 -2.64141 4.31771 0.632939 1.12619
4134 1 -2.08149 27.5528 -1.16768 0.678645 -4.59533 0.345211
4135 1 0.493033 27.936 -2.78521 0.0729472 2.05762 5.40236
4136 1 1.65344 25.7448 -1.71384 1.832 0.942929 0.225676
4137 1 -1.24253 24.7893 8.05367 -1.22137 4.51116 0.139004
4138 1 -0.603309 27.4659 8.61762 -4.64847 -1.03971 -3.50607
4139 1 2.25235 27.1125 9.88052 -6.15105 -3.32589 -2.19179
4140 1 4.65073 25.792 8.78758 3.99183 -1.97291 -5.77579
4141 1 -2.47804 25.2437 5.15339 -0.241127 -0.224274 -6.90629
4142 1 -1.10908 27.5415 5.82515 1.48408 -4.76781 1.06118
4143 1 1.65345 27.1037 4.87778 -2.80458 5.56965 -5.23721
4144 1 3.34052 25.5216 6.15815 -5.39259 2.98933 -2.06493
4145 1 -3.22829 29.9591 -4.96757 -1.99886 -1.64897 -0.437844
4146 1 -2.22272 32.3228 -6.20418 0.448065 2.68253 0.971205
4147 1 0.46817 32.0696 -5.29833 1.93886 2.12256 -3.09011
4148 1 1.75671 29.9533 -6.51112 -2.41122 0.0485 -6.7895
4149 1 -4.36244 30.009 -9.48661 -0.0139228 -1.49096 -3.1902
4150 1 -2.67872 32.119 -8.86921 -0.871828 1.13171 -1.13246
4151 1 0.0313025 32.1489 -10.0851 4.47497 -0.746773 6.32958
4152 1 1.11246 29.7213 -9.32247 -5.3795 -6.28503 0.795953
4153 1 -2.9063 29.7482 2.72434 -1.27937 1.17869 4.28859
4154 1 -1.67639 32.2323 1.84964 2.53537 1.59905 -3.75935
4155 1 1.34718 32.0715 2.23304 -0.195722 1.04357 -5.18185
4156 1 2.50808 29.8344 0.912141 -1.98665 -0.000231506 -0.368317
4157 1 -3.33495 29.7398 -2.24583 -1.92978 1.82405 -0.149922
4158 1 -1.95749 31.9628 -0.902775 2.97039 0.541863 0.229309
4159 1 0.302073 31.876 -2.57903 0.744829 0.22786 -2.35577
4160 1 2.1434 29.977 -1.83584 -1.32638 5.16241 -6.36823
4161 1 -2.00141 29.3389 10.191 1.54736 -3.86489 0.790267
4162 1 -0.66182 31.6098 9.14249 -1.6789 1.56022 -3.83954
4163 1 2.19837 31.7137 9.00561 -1.22883 -0.508601 2.76117
4164 1 3.53251 29.4425 8.49619 2.23595 -0.189734 3.76518
4165 1 -2.46517 30.008 5.46279 -5.2529 -0.238971 0.727426
4166 1 -1.00667 32.2806 6.24152 5.75629 -1.60984 -3.19568
4167 1 1.34997 31.667 5.00521 3.37474 4.50428 1.48897
4168 1 2.70084 29.3925 5.78297 0.860392 -0.895845 1.47858
4169 1 -3.69585 34.5199 -4.78128 -1.42492 -1.58615 -0.0913289
4170 1 -2.21155 37.0007 -5.61376 3.15731 5.30901 -0.578174
4171 1 0.453622 36.5076 -5.27093 2.21847 -0.823804 2.40738
4172 1 1.68948 34.265 -6.34532 2.4935 -3.30786 2.81804
4173 1 -3.99445 34.4202 -9.30202 -2.25621 -0.594384 -2.86202
4174 1 -2.6872 36.5082 -8.38916 1.73047 1.51171 0.0559817
4175 1 -0.0428795 36.6108 -9.54081 1.23675 -1.44522 0.408794
4176 1 1.33761 34.3627 -9.15589 2.43674 3.20457 2.2143
4177 1 -3.17801 34.434 2.57643 1.40697 0.32008 -0.517943
4178 1 -1.65633 37.0466 1.56818 -1.11199 2.28177 0.612139
4179 1 1.17879 36.6793 1.90997 -2.55747 -0.654265 -2.81915
4180 1 2.59317 34.2515 0.97907 -1.3508 3.35575 0.928739
4181 1 -3.20528 34.5168 -2.19999 -1.58742 -1.25961 -0.926172
4182 1 -1.92556 36.7991 -1.102 -2.18383 3.17113 -0.465875
4183 1 0.656031 36.6594 -2.34576 -0.225037 2.2364 2.50188
4184 1 1.87238 34.4112 -1.81037 -3.77678 -4.07622 4.80674
4185 1 -1.92435 34.0617 9.14562 0.384051 -0.685048 -3.77411
4186 1 -0.475197 36.3182 9.12786 -3.16217 1.41311 -1.69109
4187 1 2.33821 36.6254 9.46531 -1.57737 -1.05435 -1.40971
4188 1 3.47565 34.266 8.3712 2.43568 -3.48296 1.02233
4189 1 -2.60791 34.4278 5.36351 -0.365035 -3.52475 -0.815118
4190 1 -0.741218 36.3469 6.29579 0.198706 -1.73246 5.96924
4191 1 1.69262 36.4895 4.62902 0.362099 3.8378 2.64635
4192 1 2.97267 34.1501 5.41621 1.63054 -0.133762 -1.42372
4193 1 -3.44686 39.3086 -4.90854 1.31069 -0.247547 5.92621
4194 1 -2.28532 41.5293 -5.76083 3.97203 -0.411473 -6.11008
4195 1 0.535076 41.441 -5.06551 2.46187 2.19853 -2.48682
4196 1 1.68815 39.0358 -6.04405 0.181889 3.00757 2.06076
4197 1 -4.26204 38.6779 -9.28967 0.762748 1.09711 2.85887
4198 1 -3.00879 40.9918 -8.5647 -3.96423 -6.45302 3.342
4199 1 -0.24748 41.0885 -8.85566 -3.04571 -0.0059917 2.75918
4200 1 1.49641 38.835 -8.88137 1.97476 -0.318106 0.486734
4201 1 -2.8256 39.2025 2.88356 -0.832183 1.8896 -0.291061
4202 1 -1.28589 41.172 1.85868 3.91348 -2.79953 1.83019
4203 1 1.49357 41.1711 2.58258 1.26482 -2.45251 -0.900995
4204 1 2.68813 38.9756 1.43869 2.69186 -1.11921 -3.00722
4205 1 -3.10843 39.1818 -2.02678 0.669386 0.338843 -1.0578
4206 1 -1.50584 41.3106 -1.05916 1.60407 0.702863 -0.232986
4207 1 0.934166 41.0546 -2.19758 -1.32803 -1.50055 -5.95222
4208 1 2.37414 38.9228 -1.55019 2.27014 -0.878988 -2.19864
4209 1 -1.48521 38.7045 10.1997 0.584116 -2.92901 0.0290704
4210 1 -0.349599 40.8032 8.76613 2.17114 4.61892 0.139668
4211 1 2.26989 41.1665 9.66563 2.18229 1.87905 -0.143025
4212 1 3.70503 39.0642 8.59686 1.40093 1.8304 -0.592944
4213 1 -2.57358 38.6876 5.50311 2.38348 4.91377 5.38743
4214 1 -1.10318 40.9403 6.13229 -0.658263 -1.78655 -4.48324
4215 1 1.70762 40.9199 5.26558 -0.638573 0.739013 -4.81587
4216 1 3.07607 38.7334 6.0413 -1.8828 -5.07604 1.1925
4217 1 -3.7171 43.677 -4.83015 -4.46203 -1.09411 -1.73876
4218 1 -2.61798 45.9455 -5.81689 -2.32471 -3.3538 3.65106
4219 1 0.193516 45.8305 -4.87529 1.03971 2.38815 -5.24484
4220 1 1.7498 43.7417 -5.96564 -0.165377 6.82518 4.50571
4221 1 -4.18628 43.3683 -9.42702 0.540089 -0.684439 -2.3515
4222 1 -2.90964 45.739 -8.70848 -3.22965 4.93654 2.65244
4223 1 -0.146024 45.674 -9.81314 -3.5311 -2.56406 -1.52099
4224 1 1.48165 43.57 -8.92903 1.60088 -2.25133 -4.6162
4225 1 -2.74492 43.4418 2.82751 0.169618 1.43178 -3.05262
4226 1 -0.923976 45.2527 1.596 -6.74687 1.10358 -0.744829
4227 1 1.82162 45.3259 2.64259 -3.05121 -0.213527 0.644782
4228 1 3.27255 43.112 1.21229 -4.44492 -3.75361 4.75627
4229 1 -3.44271 43.5443 -2.09736 2.80605 0.642164 -1.92824
4230 1 -1.24044 45.2821 -1.2048 -4.34898 -0.820483 -6.07124
4231 1 1.17051 45.48 -2.35688 -6.86836 6.28255 1.79318
4232 1 2.29005 43.2384 -1.36957 -2.71623 0.797695 3.10326
4233 1 -1.53746 43.1424 10.0438 -1.25187 1.15102 0.234433
4234 1 -0.247927 45.2556 9.4119 0.0164196 0.704845 1.41271
4235 1 2.74293 46.0529 9.6715 5.5952 -0.070038 -0.133161
4236 1 3.70694 43.4404 9.13623 2.551 4.8268 2.08556
4237 1 -2.42785 43.5141 5.67437 0.680588 -2.2427 -1.48344
4238 1 -0.457856 45.6072 6.45254 1.01859 -0.600633 4.88641
4239 1 2.04327 45.3609 5.38273 -0.347607 5.94208 3.15228
4240 1 3.42121 43.1109 6.34957 -4.94917 2.11269 0.59312
4241 1 3.33187 25.8615 -5.59523 2.40965 0.990759 1.11204
4242 1 5.41922 27.5595 -6.60595 2.86548 0.992404 -0.0589068
4243 1 7.86426 27.5835 -5.73457 1.93549 -2.52425 3.15702
4244 1 9.32049 25.0973 -5.81573 -1.7326 3.7436 2.01918
4245 1 3.39015 25.2855 -10.5021 -0.377967 -2.48853 -4.50968
4246 1 5.08276 27.1763 -9.44174 -4.83625 -1.29295 -0.955481
4247 1 7.72437 26.8112 -10.3516 -2.86814 2.64988 1.11143
4248 1 8.91647 25.1994 -8.58164 2.35292 2.83 4.76898
4249 1 5.21335 25.2247 1.76498 -3.31187 0.342313 2.71885
4250 1 6.13225 27.7876 0.695115 4.37822 -0.0919487 -0.110158
4251 1 8.69943 27.6389 1.47615 -1.50199 0.590131 4.51552
4252 1 9.42124 25.389 0.393896 -0.799498 1.25315 -4.73523
4253 1 4.09458 25.4617 -2.89173 -0.959353 4.15077 -1.66255
4254 1 5.89622 27.3397 -2.08102 -2.3024 -2.69775 1.90624
4255 1 8.70677 27.3931 -3.03321 2.54734 6.322 1.61082
4256 1 9.84812 24.9566 -2.34184 6.43088 1.07496 -1.07596
4257 1 6.68447 24.3558 7.35312 5.31461 0.0700769 -2.58104
4258 1 7.88572 27.1641 8.07229 0.749864 1.01906 0.142558
4259 1 10.5293 27.0243 9.11636 0.850537 7.19804 2.32907
4260 1 12.9325 27.0048 7.46612 -3.41961 0.75183 0.1549
4261 1 5.86489 24.8833 4.65626 -1.38037 0.442485 -4.97973
4262 1 7.20137 27.4778 5.26675 -4.45005 2.85978 6.29029
4263 1 9.73402 27.767 4.12622 5.57101 -1.89119 3.84724
4264 1 11.6124 25.9877 5.28172 -3.78052 5.37165 -1.81842
4265 1 4.37217 30.0206 -5.58728 -1.94862 4.96118 -2.6316
4266 1 5.6307 32.1675 -6.7221 -3.64158 -0.443702 -0.550495
4267 1 8.28215 32.0945 -6.09177 -2.12931 -1.98785 0.439151
4268 1 8.75581 29.5094 -7.32461 -0.502484 1.60564 -1.95805
4269 1 3.9027 29.7579 -9.95473 1.42695 1.74055 1.03158
4270 1 5.37248 32.2505 -9.59099 -4.86911 4.52495 -0.76759
4271 1 7.7978 31.9373 -10.7817 -8.02849 1.05319 2.62568
4272 1 8.8015 29.4271 -10.3488 1.26527 1.9298 3.13076
4273 1 5.00879 29.8467 2.11903 0.734286 -1.0224 0.891074
4274 1 6.24612 32.0914 1.00117 -1.39364 1.10517 0.220371
4275 1 9.02954 32.0717 1.38339 0.540194 -1.52932 -2.19402
4276 1 10.1825 29.751 0.297668 2.86216 -0.362101 -2.78881
4277 1 4.73844 29.819 -2.87973 1.4812 -1.93024 -0.410208
4278 1 6.08494 32.1911 -1.92694 -1.82681 -5.08877 -1.15449
4279 1 8.58116 32.0322 -3.32615 0.385264 -2.77908 0.904079
4280 1 9.93089 29.6888 -2.30722 -3.9131 0.223915 -2.69118
4281 1 6.47673 29.4759 8.61618 3.36906 2.28748 -0.613844
4282 1 7.43409 31.9171 8.36805 -4.38563 -0.608972 -0.661872
4283 1 10.156 31.8044 8.66784 1.71796 3.80267 1.42455
4284 1 11.3259 29.4186 7.63044 5.82207 -5.75055 -4.84666
4285 1 5.33554 29.3829 4.66476 1.45345 0.572043 4.13684
4286 1 6.81334 31.8454 5.48885 1.79413 1.15502 -0.194971
4287 1 9.15698 31.8934 4.14828 -3.21378 -1.30917 2.61213
4288 1 11.0264 30.0916 4.88579 -2.09996 2.9155 3.81279
4289 1 4.47279 34.4973 -5.79844 0.588225 -0.791881 0.119768
4290 1 5.8625 36.8664 -7.00574 -0.965974 1.70005 -0.120407
4291 1 8.55424 36.7042 -6.11684 1.86811 1.89826 -2.4069
4292 1 9.32986 34.3136 -7.36 -6.8202 -4.4418 -0.402575
4293 1 3.77056 34.17 -10.4956 -2.53753 4.19053 5.63032
4294 1 5.42254 36.3491 -9.666 -0.944088 -1.60516 -0.269117
4295 1 8.22462 36.5996 -10.6461 -1.09934 0.423746 3.17463
4296 1 9.53345 34.255 -10.0861 2.08407 4.23095 5.61049
4297 1 5.30181 34.816 1.94912 -1.64195 3.95884 -1.5874
4298 1 6.39897 37.0462 0.611295 5.41248 3.26756 4.3108
4299 1 9.00378 36.8306 1.37412 0.00367041 3.98164 -1.10671
4300 1 9.95024 34.4141 0.262075 4.50324 -8.53001 2.09443
4301 1 4.48382 34.2804 -2.93576 -5.10212 -0.468208 0.0630655
4302 1 6.17005 36.355 -2.05523 1.50892 -1.42947 0.482123
4303 1 8.66628 36.9128 -3.36286 1.78977 0.745174 -0.472404
4304 1 9.70108 34.5003 -2.41346 1.36294 -2.59737 -3.58724
4305 1 6.2493 34.2148 9.14685 1.65374 2.22294 -0.112537
4306 1 7.72547 36.4582 8.24442 -4.80848 1.45339 3.22153
4307 1 10.6397 36.3139 9.09844 -2.20175 -2.07363 -5.59554
4308 1 11.2079 34.0573 7.70991 -0.660811 -3.98162 -0.83877
4309 1 5.77557 34.3167 4.75766 -3.48135 0.408308 2.49571
4310 1 7.06988 36.4199 5.57666 -0.808337 0.297101 -1.29241
4311 1 9.49427 36.9554 4.23303 2.28283 -1.55186 0.124863
4312 1 10.5029 34.2186 4.92284 4.9196 0.804572 -1.62684
4313 1 4.28803 38.6657 -5.40402 3.29406 -0.301983 -0.433296
4314 1 5.5487 41.0407 -6.57091 -4.28346 1.85786 5.29719
4315 1 8.20048 41.2898 -5.62851 -0.775514 1.59353 -5.09679
4316 1 9.44503 39.3665 -7.27238 -0.665751 -0.243536 0.0244153
4317 1 3.99251 38.5643 -10.2011 -3.59892 -1.66873 1.33217
4318 1 5.22248 40.9038 -9.19348 -0.672594 0.524743 1.28154
4319 1 7.57219 41.1894 -10.5854 2.41362 -1.11559 -2.72414
4320 1 9.19513 39.1364 -10.1297 -2.57002 2.87001 1.96232
4321 1 5.35403 39.008 2.01536 -5.74787 -0.568339 2.31973
4322 1 6.4801 41.2382 0.841371 -2.07965 -1.93015 -0.971916
4323 1 9.30579 41.5433 1.86598 1.95722 1.90173 -1.02426
4324 1 9.60714 39.2847 0.320533 3.55215 1.92992 -1.38206
4325 1 4.89651 38.8144 -2.65521 4.16374 -1.46409 2.67521
4326 1 6.04958 41.3298 -1.79455 -0.820507 0.453553 5.38655
4327 1 8.52488 41.5247 -2.82598 -0.0203659 -4.83549 -0.382779
4328 1 9.85382 39.1711 -2.54959 3.71069 0.710009 0.311855
4329 1 6.4315 38.6852 9.3939 -6.59547 2.64084 -1.83179
4330 1 7.66563 41.0204 8.88978 -0.817316 1.61479 -0.215498
4331 1 10.3746 40.787 9.12457 -0.134042 2.32822 3.27391e-06
4332 1 11.4392 38.8478 7.93016 -0.5046 0.363913 -3.43388
4333 1 5.62599 38.6721 4.87097 -1.46993 3.43452 1.00879
4334 1 7.2822 40.9027 5.95858 -3.48189 -2.80958 -1.32213
4335 1 9.6671 41.4889 4.69186 1.78256 -1.52618 -1.91301
4336 1 11.2262 39.2627 5.23872 -1.76959 -0.585165 1.86744
4337 1 4.38929 43.5244 -5.41293 1.73043 -1.98614 -0.206932
4338 1 6.09096 45.0536 -7.18975 -2.58797 -2.93331 -3.20729
4339 1 9.67688 45.5366 -5.17994 1.45822 -3.73926 2.33969
4340 1 8.60512 43.6425 -7.02647 5.65115 -1.92693 1.4073
4341 1 4.00935 43.3932 -9.64527 -1.95221 1.52405 3.34077
4342 1 5.50784 45.5876 -9.82172 -1.00266 -3.1847 3.85432
4343 1 7.98526 45.6322 -11.1403 -5.10636 1.34945 -1.14099
4344 1 9.17824 43.3143 -9.7913 2.90885 1.44801 1.64772
4345 1 5.77593 43.4889 2.51445 -3.16976 -2.60344 -5.29916
4346 1 6.76953 46.3803 3.07175 1.45603 -1.82079 1.86414
4347 1 9.25535 47.0038 2.02913 0.138804 -0.705428 -1.09826
4348 1 10.0713 44.1242 1.11406 -1.68287 1.64145 -1.75347
4349 1 4.67707 43.5453 -2.65666 0.588369 -4.98981 -3.56209
4350 1 5.66685 46.4302 -2.12591 -2.27319 -1.11298 5.72262
4351 1 8.33654 46.1533 -2.69859 0.914993 -0.648969 -0.548163
4352 1 9.748 43.9652 -1.89066 1.12244 0.541579 -2.23412
4353 1 6.35955 43.4404 9.49137 -0.966502 -1.7298 -0.255218
4354 1 7.37201 45.9078 8.62527 2.25653 -6.3527 2.00713
4355 1 9.80539 45.8711 9.58776 -0.556094 1.30034 -3.16665
4356 1 11.0006 43.5565 8.81212 4.71085 -0.406295 -4.34523
4357 1 6.04772 43.2743 5.16982 0.481867 -2.44005 -0.97086
4358 1 7.57166 45.7186 5.71261 -0.405227 1.0649 0.704331
4359 1 10.3049 46.4641 5.86031 -1.28423 1.63618 -2.26892
4360 1 10.8263 43.6953 6.01709 -1.70818 2.08234 0.394597
