ITEM: TIMESTEP
6700
ITEM: NUMBER OF ATOMS
4360
ITEM: BOX BOUNDS pp pp pp
-2.4298173977582742e+01 2.3489009877629570e+01
-2.4338357787701888e+01 4.6854793387701882e+01
-2.3897691795387146e+01 2.3889490195433510e+01
ITEM: ATOMS id type x y z vx vy vz
1 1 -23.545 -22.1474 11.1236 1.35399 -2.67739 -3.13685
2 1 -6.89033 14.7427 2.53898 3.15099 -0.241356 1.95048
3 1 4.47649 -6.38998 23.1802 -1.87436 -3.06652 -0.273116
4 1 5.14902 -0.48427 -7.42566 3.85745 -0.399662 1.33025
5 1 -16.5865 -21.4754 20.594 1.20042 2.88655 -1.23436
6 1 0.906124 18.6543 19.5005 -3.01696 5.96385 0.361318
7 1 6.73971 20.7612 6.22173 2.9699 -4.1018 -0.380399
8 1 -24.1619 -12.2821 -15.3995 0.443286 0.689295 3.72002
9 1 -10.7781 6.35882 4.57512 3.19348 -3.14639 2.66507
10 1 -0.783546 -7.93856 13.7823 -1.46266 -1.4888 0.0346722
11 1 9.9101 -11.7347 17.9852 -0.856723 2.84059 -6.36998
12 1 21.4891 -8.32454 -22.3474 5.2555 -3.3041 -0.782112
13 1 -21.0806 -13.99 12.6086 2.0888 3.85043 1.465
14 1 7.09377 2.92102 -9.64013 0.205138 3.46688 -1.65746
15 1 -4.73241 -0.338199 -13.9861 -0.61428 1.47016 4.10321
16 1 -18.5438 1.1072 5.81523 1.60524 -1.23569 0.280152
17 1 17.5556 -6.48268 16.2158 -0.845205 4.45725 1.07364
18 1 21.1689 23.8783 3.17606 1.28938 -2.74308 1.67944
19 1 -16.945 25.9724 18.7829 1.84096 0.673643 -1.67612
20 1 20.4009 3.14103 19.6986 2.94921 -4.16774 1.00798
21 1 -20.3912 2.1456 9.96984 0.0428048 -5.91742 0.0299239
22 1 -13.9692 -0.537939 -14.9757 3.40608 -0.54408 2.83441
23 1 -8.26088 46.0984 21.2258 2.9699 -1.08411 -0.599679
24 1 9.88472 19.5444 -5.49687 3.80871 -0.0276613 -3.09572
25 1 6.57188 25.4328 17.1614 3.2897 -1.01174 1.69554
26 1 0.298435 16.1901 10.0567 3.26887 2.16573 0.484711
27 1 -16.3263 10.7621 -2.21516 -0.635553 1.13891 -4.50481
28 1 -19.667 10.001 2.75456 -1.0179 -4.04656 2.97267
29 1 -9.48878 -9.62461 -9.39307 -3.44687 -5.69042 5.29592
30 1 21.4582 -3.41198 -22.7955 5.66122 -3.5181 0.926651
31 1 2.0209 -17.0983 -22.1933 -3.01595 3.36675 1.49803
32 1 -8.39574 14.4248 -17.7977 0.0961414 -4.05806 -0.51659
33 1 4.05847 1.74763 -14.1924 2.62063 5.18752 -3.33603
34 1 -18.7398 -23.7773 14.8768 -1.44201 -1.90278 -1.23087
35 1 18.2254 4.49223 12.2192 1.78846 -0.404245 2.91209
36 1 -13.4704 17.6174 -14.4702 -6.4667 2.15262 3.9771
37 1 -10.6028 -5.44919 -1.51265 -3.04184 -0.251307 7.57561
38 1 18.7608 11.0396 8.25464 -5.50317 -1.38166 -3.309
39 1 -1.81002 10.0683 -22.6926 1.9733 5.82825 -2.7388
40 1 -2.47733 1.82581 -17.3107 0.695426 2.66753 0.363307
41 1 5.66987 -4.80203 -10.3481 -4.85792 0.442836 -0.550568
42 1 -18.465 -17.1147 1.40729 4.45625 -0.134596 -0.0992577
43 1 -13.3568 -6.20226 4.13269 2.79012 2.21854 -0.738187
44 1 -3.03973 -17.9417 -9.69787 2.91962 -1.93135 -0.146201
45 1 -9.87351 15.8962 -3.54171 -3.74252 1.04558 3.09492
46 1 -19.9785 -20.4928 17.9773 2.67752 -3.38246 4.34468
47 1 -8.15226 6.98118 19.7469 -1.287 1.01103 3.24279
48 1 8.08052 3.47387 -6.95109 1.50131 -0.583754 0.66632
49 1 22.5689 12.2272 6.36481 1.35649 -0.8625 2.1846
50 1 16.5809 -22.3797 12.0483 -2.46887 1.3518 2.45003
51 1 -10.5749 -0.549567 21.0407 -1.12349 2.56817 4.50467
52 1 16.3655 1.53785 -14.4435 0.472539 1.58591 3.36861
53 1 -5.31093 22.5791 8.95972 -0.494642 -1.92593 4.15283
54 1 -19.7519 -7.76793 -9.60058 0.813024 4.05598 -1.92002
55 1 -6.60883 -3.06945 -16.388 -4.12906 1.45615 -6.05063
56 1 -13.574 5.97025 2.88581 5.52394 1.91194 0.576663
57 1 -14.4437 -9.48414 -4.06661 3.96581 0.851472 2.93303
58 1 3.82524 -21.7013 -4.61164 -2.73666 1.33044 4.59639
59 1 -23.6315 12.6647 18.1667 -0.663503 -1.87066 -1.20139
60 1 1.16774 16.2358 -20.3431 2.12382 -0.158619 -0.515852
61 1 -13.9664 1.1092 1.6429 -1.12369 7.0384 1.43205
62 1 -1.98554 -10.2985 17.5597 -2.47233 -0.398601 -2.37969
63 1 0.320006 12.5569 -18.0602 1.01146 -1.27003 1.75669
64 1 -11.0856 1.11534 1.76908 1.11802 2.77989 2.76678
65 1 17.2054 -2.49237 8.19418 -1.4656 -0.124018 -4.51033
66 1 -10.311 -15.0468 -11.1445 3.23598 -0.409416 1.32216
67 1 -15.0234 22.7103 -10.3508 -0.825338 0.616718 2.23995
68 1 -2.47437 15.0339 -20.6793 1.94478 -3.43727 0.0769301
69 1 -5.88973 13.4001 9.53148 2.88385 1.00119 2.08512
70 1 -17.6755 16.4465 -14.8177 0.286015 -0.350537 -2.14924
71 1 -9.43086 6.19174 0.334648 -0.432033 -1.88624 -0.836333
72 1 22.8165 15.1113 18.576 -1.96482 -0.0180252 -3.73332
73 1 -12.5821 -19.9837 14.0925 1.75749 0.643768 -0.887129
74 1 -0.930181 11.6345 -15.7689 4.68034 -0.736372 1.77154
75 1 -19.0455 2.59606 -12.5799 -1.31129 -0.57561 4.32122
76 1 23.4993 -6.32571 1.56267 3.89187 -0.653075 -0.427066
77 1 13.7352 -23.1179 -3.22626 -1.58147 -1.21738 3.42541
78 1 -17.0529 12.8858 -7.59548 -1.25493 -2.11178 -1.41309
79 1 23.037 -2.59722 -15.0334 -1.68861 0.690884 -0.0359409
80 1 -14.7727 16.5789 -10.1442 1.79165 -1.35439 -4.06233
81 1 1.46186 -13.0288 -15.6112 -5.1506 0.676281 -3.00139
82 1 4.21329 -22.8883 5.27449 -1.82866 2.15546 4.11417
83 1 -20.624 13.5821 -0.21992 -2.45883 1.56415 -3.7434
84 1 18.4956 21.9699 20.0967 1.60671 -5.64295 0.162948
85 1 6.07889 12.728 -4.69025 1.67546 -4.27346 -3.19029
86 1 12.7542 7.72355 14.5308 -2.04413 -3.34423 -1.35384
87 1 -4.62701 18.6319 -3.39289 4.04836 -5.18729 2.24528
88 1 -11.3565 22.6501 -16.9014 5.69787 4.64814 -0.14202
89 1 -10.1298 -4.00764 -23.4929 2.75479 1.73638 1.67329
90 1 9.36839 -5.48908 5.99421 -6.60563 -4.96175 -0.0444325
91 1 16.7855 21.394 -20.0819 -2.13117 2.00091 2.88298
92 1 17.6381 45.4342 -0.39372 -1.30948 1.56427 1.38289
93 1 -17.4645 -23.8064 17.4594 2.7232 -0.625828 0.631184
94 1 23.3894 3.01861 -11.2517 -4.14099 -1.06987 -2.44848
95 1 -0.0527022 -3.55553 -12.7896 3.03682 0.503034 -0.70697
96 1 -21.3545 -16.9648 19.9809 2.96102 0.180037 10.1561
97 1 -7.09664 -16.8983 22.2238 -1.52063 -4.24091 2.62007
98 1 -2.35595 17.1428 10.7183 -1.84527 1.07854 5.01562
99 1 16.7758 -21.9026 -5.80852 -2.94119 0.249145 1.28357
100 1 22.9609 -15.8955 22.6508 -0.338463 -2.29969 3.51125
101 1 1.80876 -23.3734 -12.3078 6.49389 0.402597 -1.86548
102 1 1.23722 3.38133 6.1744 -0.489979 -3.04439 -1.17385
103 1 17.0768 22.3173 17.5682 -4.66563 4.91751 -3.98097
104 1 -15.7178 44.8436 -11.3695 -1.62807 3.87591 6.38672
105 1 5.62214 17.6553 -18.7897 4.09562 -2.21206 -0.767936
106 1 14.1949 2.85128 8.37757 -0.310643 4.0286 -2.68209
107 1 19.6092 -4.87998 14.4372 -1.7295 2.13448 2.41147
108 1 -11.4445 2.6224 23.2516 7.97106 -0.105421 -6.09284
109 1 -15.1168 15.0525 -13.7171 0.35033 -3.09759 0.0245635
110 1 10.7562 -12.5118 -8.37079 0.259292 3.36185 3.62144
111 1 19.9744 -4.8804 -13.7218 1.33535 -0.803408 4.46464
112 1 -19.0421 2.43076 -22.0215 1.95756 -3.1987 -0.764392
113 1 -5.6244 -5.74186 19.5934 -5.76166 -0.892224 2.49513
114 1 -23.7388 -20.0964 17.2309 -0.931037 3.86156 1.87025
115 1 8.31584 10.1166 4.71174 -6.15962 1.09034 4.38964
116 1 2.86786 -13.6188 -18.4089 -0.280984 5.73075 1.45174
117 1 19.7793 17.3525 -18.4288 7.24732 1.43456 2.82556
118 1 5.78715 -16.7054 -7.40494 3.15099 -2.71478 2.75483
119 1 14.1811 9.67512 -8.81562 -1.28161 1.33821 -2.81328
120 1 2.01981 -4.75566 16.8723 -0.701697 -0.526613 -1.77163
121 1 -6.51219 -20.6959 22.8625 -0.419989 -0.284336 -4.94624
122 1 -10.94 6.96099 21.2343 3.35662 -0.553903 -1.32443
123 1 8.55451 18.4424 5.56196 -2.75365 0.439588 0.354417
124 1 -24.2503 -22.6835 -16.3262 1.1888 3.80885 -0.0185614
125 1 14.34 10.0098 1.35121 -1.49119 3.7652 1.88239
126 1 -9.86112 2.20505 -8.24533 2.65136 -3.87774 6.77541
127 1 11.3523 -1.97498 14.3598 -7.04173 4.83333 -0.168877
128 1 -20.7312 -1.71695 -9.13884 -0.420622 -7.0427 -3.23053
129 1 15.3472 -10.9622 5.71172 -5.9331 6.43567 -0.388592
130 1 -12.9461 15.8008 -19.5139 -1.80601 6.6562 2.28996
131 1 3.09171 -9.73099 -21.9461 1.04009 -3.54156 -0.837666
132 1 -8.17765 -1.62383 -21.6898 -5.47213 -1.8199 1.98928
133 1 -14.0713 2.20707 16.296 -5.40537 0.248506 -2.8464
134 1 20.2343 -9.06435 22.7901 -0.613912 -0.94706 6.18923
135 1 -15.9773 -6.24883 -17.7746 -2.82403 3.80268 2.19661
136 1 -0.537871 5.78966 -4.41537 4.37482 0.140546 -2.74908
137 1 -12.6746 4.82965 -13.7666 -0.664486 -2.88844 -1.31882
138 1 12.0113 17.8654 6.86191 -1.54026 1.13263 -1.03062
139 1 -18.9952 -20.4934 -15.5675 -1.2485 1.79151 -1.64617
140 1 4.56865 -6.99966 18.661 0.463533 6.39377 -1.30072
141 1 12.5333 -18.8043 2.67058 -2.55833 -3.46196 1.28232
142 1 13.8528 1.1718 -24.0001 2.73166 0.315723 -4.25165
143 1 -5.83417 -2.74843 -3.86335 -0.503208 -1.43859 2.85982
144 1 -23.2878 -9.69119 -15.8569 3.2968 -0.788281 -3.54728
145 1 17.4195 7.74605 18.465 -4.76407 0.240205 -4.11619
146 1 -10.5947 -8.68185 13.7474 2.64311 -2.22535 -2.44372
147 1 11.0859 20.2468 5.36043 -4.70227 0.407637 1.14789
148 1 -18.3656 14.311 11.9193 -0.495219 -0.945494 -2.9372
149 1 -16.5898 46.4148 -20.1631 -2.69209 1.69996 -2.28708
150 1 20.0988 9.65813 20.9783 -2.00661 -0.0531407 -3.46811
151 1 18.2076 1.14165 22.8359 -4.58204 -1.58376 2.82599
152 1 -6.83566 -2.54628 17.6547 2.35747 0.407141 5.09581
153 1 10.2051 -14.6232 -3.93442 -4.5945 3.94861 -1.12257
154 1 -7.56419 22.2407 -8.33793 -1.65249 -0.760992 2.31023
155 1 -22.9617 -22.2613 -20.4079 1.87475 -0.609386 2.42185
156 1 15.1353 11.2919 16.226 2.71046 2.66021 -5.30883
157 1 13.0073 -13.1699 -15.3164 -1.77787 -1.26132 -3.81408
158 1 9.16309 6.1304 3.48906 -1.00811 -1.51832 0.935475
159 1 -22.2756 -11.6297 11.2518 -0.949032 -2.26501 3.46501
160 1 -5.05334 -14.6312 -3.89301 -0.790313 -1.34825 -0.831574
161 1 20.2856 3.99091 -15.9842 -1.06745 0.099348 0.668105
162 1 -16.2565 -9.83118 19.5531 -5.07256 -0.503954 5.10708
163 1 1.17002 0.90592 17.4824 -0.127898 0.926352 -3.41749
164 1 16.9944 7.90494 12.9296 1.6386 -2.01144 -1.16274
165 1 -19.3099 11.8786 17.9542 3.44938 -3.98197 -3.90819
166 1 8.24985 22.378 -22.6227 -1.81443 -0.0368513 -1.89136
167 1 -11.5007 0.663335 -3.54359 2.29028 0.0623625 -0.221791
168 1 19.7926 25.943 -3.02528 0.933936 1.47582 0.244578
169 1 3.67122 24.8114 -13.5799 4.02204 -1.04573 3.81856
170 1 -3.18541 -20.0961 -12.7384 1.54214 -3.30383 6.0877
171 1 -15.6221 4.39239 15.1544 -0.279004 -0.195093 -4.71526
172 1 -18.7978 22.0643 -19.2205 -2.19617 0.744051 -3.33495
173 1 -21.7704 0.979448 22.446 -3.04131 -1.72383 -0.616179
174 1 -20.2241 6.37427 -22.3473 4.24072 0.640079 -0.664167
175 1 9.51787 16.6715 7.73438 -6.05623 1.52646 0.71359
176 1 -5.72005 22.832 -2.54332 -1.78496 0.993768 6.37336
177 1 -4.56084 -21.9338 10.8443 1.95714 3.63821 5.16207
178 1 -17.0429 11.3271 6.32711 -2.5968 -2.10542 0.370489
179 1 -4.39341 -6.61016 -11.4624 -1.80586 10.3314 1.39139
180 1 21.4865 20.4127 11.3123 1.62385 -5.8436 1.1524
181 1 -5.86114 -5.81696 -19.8082 -2.92007 -1.8095 1.72342
182 1 -21.929 -0.691432 16.7468 2.66297 2.53209 0.0211095
183 1 21.4699 11.8591 -4.23248 -0.622627 1.95387 -1.65737
184 1 7.43352 -23.855 23.6203 2.2514 -1.51148 -3.0051
185 1 21.6288 24.1487 15.271 3.5315 -3.90372 -0.174947
186 1 13.8583 24.7304 -9.80905 -1.16814 0.756472 2.44134
187 1 -11.3673 10.1138 -6.3774 1.6466 -0.565728 3.33539
188 1 7.6797 -21.6082 -5.64302 -2.52619 -0.92937 -1.77862
189 1 -5.14923 -4.57564 2.43884 0.878248 -2.00025 4.36738
190 1 -15.0129 11.1262 -13.3821 -0.467532 3.03183 1.36396
191 1 6.081 -3.90533 23.1315 -1.7086 1.03087 -1.59358
192 1 9.83214 5.39963 -3.12208 -2.35144 -3.43791 2.38955
193 1 11.8156 -1.35443 3.61196 -3.46312 2.16125 1.65032
194 1 0.0578746 26.2224 -20.388 0.378601 -1.19518 1.56193
195 1 6.01965 0.417804 -10.0807 2.31649 2.59956 1.12702
196 1 -18.4078 23.575 7.39547 -1.19233 -0.516039 -5.44636
197 1 22.3905 -4.00217 22.3861 -0.20055 -2.57559 4.02516
198 1 -8.40071 -22.2206 -17.2005 -0.551682 3.92282 -2.50232
199 1 -24.1414 -5.06338 -13.5619 2.42147 3.33442 3.41211
200 1 14.368 7.31359 -16.8963 -2.33094 5.12239 -2.91872
201 1 7.25924 3.1878 23.793 -2.47144 4.72833 0.140676
202 1 10.1271 14.3814 11.8307 -1.50018 -1.08836 0.934827
203 1 23.0596 20.3418 8.73791 3.27543 -5.07848 -0.368203
204 1 -6.38073 -14.9706 -8.78032 0.913349 -2.91647 5.29621
205 1 18.0601 -7.01647 9.33204 2.67176 0.291836 0.0676466
206 1 -3.95126 -12.2609 -15.3447 -0.160591 -3.53383 0.0588618
207 1 -8.07759 9.03988 22.1072 -1.59154 -0.351203 -0.0953104
208 1 2.91089 -7.4305 16.41 0.940696 0.312418 -0.624937
209 1 -4.55798 17.1898 -16.7217 -3.81216 -3.51989 3.88037
210 1 -18.2658 12.8606 -1.74222 -0.105712 -0.983071 6.11154
211 1 15.9451 1.10282 6.74101 -2.4579 1.14002 -2.62131
212 1 -15.9891 23.6367 -3.73561 0.694375 4.1446 -3.47981
213 1 -21.4392 -20.5901 -2.95403 0.24849 -1.30393 -3.55643
214 1 17.0712 -5.00694 -22.028 -2.92772 -3.32722 -2.46844
215 1 7.23809 22.8147 16.6358 -2.957 5.0527 -0.453169
216 1 -16.345 -24.2317 9.82657 -1.32232 -3.36932 1.57259
217 1 3.2468 21.1417 5.59654 -0.544188 -3.98096 1.40651
218 1 13.8782 2.93809 -2.36079 4.55903 0.857418 0.558921
219 1 -6.85221 24.8028 22.5098 5.43408 -1.10394 -6.2547
220 1 2.91852 21.9244 15.1914 3.66003 4.88641 -3.90808
221 1 -15.6929 2.9705 -2.91924 -0.0260111 -0.067784 4.12923
222 1 -10.6522 -7.21485 1.11273 -0.930061 -0.111917 -3.7316
223 1 -22.0904 -6.78184 -0.168696 6.82849 2.35787 -3.03213
224 1 -14.036 -4.04374 -23.7554 1.71507 -1.40893 -0.652896
225 1 0.879976 -13.4289 -4.89363 -0.451397 0.779493 5.25618
226 1 22.5732 18.4347 -12.7684 -4.05973 0.801513 -2.87286
227 1 16.5157 16.5319 3.68996 -0.757164 -0.566778 1.47178
228 1 -10.5962 19.7747 1.26458 -4.25226 -0.431865 -4.30247
229 1 11.2673 9.99816 -11.6466 1.54469 1.01054 7.19084
230 1 -9.00283 15.0722 19.5341 1.73648 -0.456188 1.87734
231 1 -23.9516 -5.08365 -21.9289 1.40981 -0.819588 1.25104
232 1 -1.34901 -14.9 10.812 -1.6854 -2.52863 1.79414
233 1 -9.91047 16.2964 12.447 0.239356 0.0841881 0.164971
234 1 -6.58114 18.0528 9.32545 -0.850097 -0.739718 2.72663
235 1 -24.3405 -2.59458 -9.75878 -0.930277 -3.90965 -3.32096
236 1 16.0403 -7.97866 11.226 2.10633 -3.2997 -1.67028
237 1 -17.4297 19.6113 0.873832 -5.85196 2.86693 -3.50679
238 1 16.5397 -2.67781 -23.3165 4.54745 0.0252834 2.5811
239 1 -20.7602 19.4327 16.8286 3.26894 1.16191 1.81509
240 1 11.0828 1.88915 15.4319 1.61918 1.35512 6.10268
241 1 -23.1826 -14.8443 9.3452 1.05026 -1.84921 3.52649
242 1 -8.90621 -4.81357 -12.9752 1.34033 -2.02551 -0.379903
243 1 -7.02516 -9.05307 12.2562 -4.09852 -1.56893 -2.37806
244 1 -20.138 13.8785 -23.3332 2.33737 -1.36675 -1.3107
245 1 -11.6553 24.961 -12.1465 -1.51267 1.38232 -0.303186
246 1 11.5439 3.33742 21.2588 2.98536 1.6511 1.66429
247 1 -23.3841 -7.16167 12.5104 1.524 0.723015 0.37339
248 1 -16.9718 9.73425 -11.776 3.64512 -1.7084 0.714807
249 1 -1.21995 -18.8335 10.9322 2.56634 0.883033 -3.03164
250 1 0.3977 -2.3346 7.002 3.16835 5.55808 -1.5673
251 1 -22.8332 -2.48672 -21.3766 -2.69172 -1.71055 1.942
252 1 17.6285 17.6356 -11.0741 0.43751 0.153256 0.596176
253 1 0.230155 -3.22853 22.1926 -6.69724 -2.48681 -7.55674
254 1 5.56068 -11.4181 -8.82131 1.64358 -0.351702 -2.04791
255 1 -22.9824 46.7452 9.44432 -0.306668 -4.25081 2.8303
256 1 -11.8565 -4.53291 -12.7923 2.29437 -1.45587 -3.26969
257 1 -2.94978 4.3693 -20.2412 2.25307 3.84626 3.21363
258 1 -6.42273 0.168315 -5.01286 -3.64037 0.733336 -1.88081
259 1 16.3991 -18.651 -22.4156 6.64582 -2.34381 0.402695
260 1 13.5179 7.34271 -7.2796 -3.35507 -2.79576 -0.893068
261 1 -2.41077 -23.0675 12.2302 3.86929 -0.014459 -1.46437
262 1 16.9328 20.8768 11.9141 1.57246 -2.31838 1.86641
263 1 -20.1071 9.9995 -11.9396 -2.18647 1.21672 0.0724739
264 1 18.4189 0.899117 17.58 -3.00331 -2.10331 4.33858
265 1 15.6515 -18.1597 -9.19562 0.68907 -2.97916 -0.35708
266 1 -23.3235 4.90581 -14.4662 5.21331 2.32083 1.76677
267 1 -11.1218 19.7873 -10.9595 -3.82475 -1.35696 0.086518
268 1 -22.1501 22.1555 -11.7916 7.3019 1.29877 0.986681
269 1 -19.5604 -8.43863 -13.2895 -5.67977 -4.79397 0.169639
270 1 -21.6088 -16.8712 13.7284 1.34581 -4.40114 1.99408
271 1 1.33649 23.2765 -13.7786 1.76035 0.997928 0.980784
272 1 12.0071 -18.3338 10.8165 -0.236097 -0.683999 -2.36918
273 1 -18.4983 -8.76428 12.8564 3.3464 1.09379 4.78083
274 1 10.0979 -15.3122 8.4387 0.174701 1.26046 -0.670143
275 1 11.7416 26.1735 -21.6573 -3.89113 3.06052 2.09817
276 1 22.5307 7.73496 -7.01796 -3.94242 -0.658276 2.09967
277 1 11.8781 -12.765 -17.7637 -0.375351 1.50985 1.1153
278 1 19.7371 10.9547 16.6268 -1.62433 -8.20464 1.38286
279 1 -23.2243 -2.38782 0.386203 0.859001 2.7196 4.66291
280 1 1.24101 -20.8597 -13.6788 -2.93399 4.63231 1.18875
281 1 12.7096 22.6197 11.3462 -2.56339 -2.95398 0.942264
282 1 11.0733 11.4325 11.2045 6.90281 5.37314 0.563405
283 1 -2.90333 46.2981 -22.125 -0.0909831 -0.0129269 -2.82748
284 1 1.45746 12.3777 1.9841 -0.429905 -0.522835 2.32362
285 1 -14.0628 19.7912 13.3309 -2.03794 0.326522 0.879582
286 1 -5.82555 17.0066 1.6457 -0.408664 -2.8163 3.37748
287 1 3.61734 -8.04673 -8.675 4.41655 0.794059 -0.943466
288 1 16.0508 24.3716 5.24812 -1.50741 3.22813 3.44392
289 1 -8.2795 -21.3998 11.829 2.88182 -2.74214 -1.38218
290 1 -6.97709 -10.6707 -15.8065 -1.17559 -0.186568 -2.76824
291 1 -15.3509 -18.2421 12.02 1.61317 -7.14063 -0.836053
292 1 14.7663 7.30634 1.12697 -4.02651 -3.43318 0.614305
293 1 14.9434 2.4356 13.1463 1.99132 3.85299 -0.528552
294 1 -6.73363 1.68895 0.712363 0.916101 -1.11739 1.7993
295 1 0.337065 9.34092 8.52107 0.464981 -1.24966 -2.11875
296 1 1.83154 14.9062 -2.40963 1.06375 0.312872 0.603595
297 1 13.9658 -3.816 -5.17864 1.77114 0.206387 -1.05963
298 1 18.37 -19.0788 23.3892 0.113055 3.07206 -1.37744
299 1 5.36659 -24.2926 -15.4172 2.15947 -3.17181 -0.234504
300 1 20.0361 -5.10667 20.8449 -2.84801 4.28854 -3.96574
301 1 -6.90744 22.4242 -19.3287 -1.59663 3.8978 -4.77242
302 1 -1.46194 11.4742 -1.81704 -5.18287 -6.10225 -3.80462
303 1 -19.0294 -17.5979 -10.459 -0.457681 -1.6518 2.47627
304 1 -19.0877 -16.2936 11.9543 -0.0243966 1.63319 1.02818
305 1 3.52476 -20.8069 19.4432 1.08353 -2.05382 2.3964
306 1 14.9031 22.0454 -10.7301 2.51125 -0.683016 -2.34746
307 1 13.1534 13.9948 -21.4655 -2.36107 1.74028 2.49173
308 1 -16.7673 -21.5021 4.26994 -1.30449 4.02436 -2.84246
309 1 6.91646 -20.5845 17.6487 1.48147 3.56352 -0.2463
310 1 0.704608 13.3683 14.1709 0.669992 3.76703 -0.370939
311 1 12.8645 -10.7012 0.0207432 0.246184 -4.3326 -4.23594
312 1 -5.47383 1.7422 -9.8758 -0.633772 2.15347 0.23339
313 1 -14.1077 -16.2492 -9.25215 -3.91094 0.034916 0.196189
314 1 -16.4647 5.69161 -8.19115 -4.7061 0.915724 1.53351
315 1 -14.5684 -22.5628 2.43953 -1.0261 1.28225 -5.02685
316 1 -23.504 -6.03833 4.14601 -2.17765 -3.27374 -1.14841
317 1 -11.2172 -9.90284 22.9235 0.877855 2.82402 0.799601
318 1 19.4537 -19.6916 18.2856 3.30558 1.18651 1.82216
319 1 -13.7509 2.52201 12.3662 -5.29933 -1.99285 3.6386
320 1 -2.23067 0.217124 9.30581 5.29669 -3.06046 -3.25271
321 1 -17.7765 -11.4227 -12.7762 2.22066 -1.93172 -3.1444
322 1 -12.3526 13.9027 -0.810277 -2.26256 -3.54284 -2.23632
323 1 -12.8486 4.62087 5.70139 3.06547 1.35294 4.38217
324 1 22.4699 0.516738 2.4425 -1.68823 -1.36942 -0.278409
325 1 -0.237298 -20.567 16.9628 1.9095 -2.57498 2.53186
326 1 -18.6624 7.06803 2.40969 2.10548 -3.48962 -1.25199
327 1 -7.36111 -7.95062 21.2091 -1.88179 3.41642 -4.5237
328 1 9.63509 20.4072 13.8554 -1.24975 1.27588 2.66472
329 1 0.0527901 3.95954 -10.6287 -0.0974433 0.344418 -0.553352
330 1 -11.0476 -24.0497 21.9932 5.92326 1.84886 -1.19568
331 1 13.7668 7.40051 4.13764 -0.14172 1.79397 2.14307
332 1 8.58857 -2.27301 -7.7495 3.92644 0.902238 -3.25965
333 1 7.66023 -11.5957 -14.696 1.84815 -6.0163 1.42308
334 1 4.86574 -23.5241 -2.51673 4.63539 0.188307 -1.03887
335 1 -24.4114 46.8167 4.47406 0.513723 1.81861 -2.94822
336 1 18.5388 17.5547 -22.1347 3.45571 2.05998 0.530737
337 1 -19.9911 21.1329 1.60604 1.48188 4.73035 -1.84191
338 1 7.31944 -7.97868 15.9118 3.0383 -4.23255 1.6061
339 1 -4.40517 -19.5933 -23.2881 0.720211 5.254 1.15583
340 1 -15.5264 2.5172 -18.0346 1.2713 -0.989487 0.00367525
341 1 -11.0721 2.70859 -12.5213 0.587747 3.33925 -3.31093
342 1 -0.408409 -17.3842 -14.8671 4.47098 -0.73965 -1.7725
343 1 -2.00962 -14.2201 -7.11251 6.09616 -4.91645 -2.26712
344 1 8.6507 -17.1084 -12.9432 -4.11222 -4.52571 -8.09591
345 1 -10.2698 -2.80007 19.0778 -0.433649 -1.1623 2.13318
346 1 16.3281 3.45596 5.08034 3.43548 -0.655521 -0.247306
347 1 20.7164 -8.51859 7.35224 -4.48274 -0.0543731 -0.500085
348 1 -12.484 -2.10381 10.7022 -2.53716 -2.0157 -0.222761
349 1 -5.40969 13.4346 23.5737 -4.60443 1.23611 -0.233988
350 1 -24.2686 20.7555 21.1584 0.136877 1.20065 -2.06491
351 1 -15.6069 4.47846 8.71042 -5.20571 3.56735 2.55689
352 1 13.2079 4.73698 1.18581 0.640512 -0.601565 -0.729109
353 1 19.1225 46.7833 -16.1249 -3.14422 4.41355 -0.431285
354 1 7.33447 23.046 -10.925 -1.00691 -3.85243 2.11357
355 1 -4.87358 -0.99378 8.8944 1.67459 4.17463 -1.829
356 1 -2.1056 -17.9772 -23.7731 -4.15841 -1.63251 0.498822
357 1 -5.25403 -14.9078 1.93422 0.0629752 3.6484 0.724525
358 1 17.3505 -13.8509 10.5553 1.099 -5.02839 -1.69842
359 1 -16.5493 -18.7598 -10.5454 -1.66875 1.3858 -2.41283
360 1 4.23334 15.4075 -0.4305 0.324505 -2.11188 1.33948
361 1 -21.9769 -21.8977 -6.57189 0.354948 1.71467 0.311571
362 1 -19.5035 12.8644 7.40679 -1.08599 3.61156 -3.46744
363 1 -17.7892 -19.7518 7.76308 -2.61392 -5.05483 -1.30799
364 1 -9.85628 7.52159 -6.42835 6.06231 1.78654 -2.94709
365 1 0.571449 -17.4525 17.4908 1.67771 -1.8837 -2.26606
366 1 -21.3137 1.1156 -10.3432 -2.58498 -6.88054 0.185273
367 1 5.95014 17.2188 -15.9473 -3.09994 -0.896178 1.33117
368 1 4.6685 -6.31364 12.6225 5.70549 -1.53197 -2.27516
369 1 14.5695 5.01153 -13.6095 3.00131 -2.55443 0.90043
370 1 1.7661 -14.6628 -23.6312 2.5452 0.38295 1.70155
371 1 -10.9621 46.2434 17.6874 -3.31188 -3.02312 1.5745
372 1 -9.06225 24.1085 9.4716 -1.96281 -4.12761 3.38271
373 1 -15.6287 6.00019 22.947 -3.12041 1.15059 -2.09289
374 1 -5.43979 19.4038 -12.9631 -1.47498 -0.625121 1.94073
375 1 -23.1129 -5.56059 23.2164 1.56052 -6.51155 -3.50518
376 1 -5.44169 -10.6378 -13.1484 0.695349 -2.47862 2.59681
377 1 14.3732 0.729115 10.4799 0.60482 -0.513175 0.248062
378 1 17.2573 -14.1043 -4.31309 -2.21266 2.91035 -6.26397
379 1 21.8594 24.7387 0.692686 -1.271 -1.81361 0.498451
380 1 9.80703 19.4445 -18.2799 -1.33883 2.35971 -2.69054
381 1 -21.619 -14.2597 15.5814 3.00697 -8.90422 -1.39581
382 1 11.9486 15.3929 -4.04858 0.0064298 -1.30008 2.50537
383 1 12.1658 46.3196 7.30069 1.84125 1.88846 -1.3566
384 1 -10.0287 11.2574 -8.83705 -3.90823 -0.1441 -3.79232
385 1 -8.38427 4.26195 20.3392 0.0703705 1.57237 -0.76009
386 1 18.2136 -3.34053 -17.9985 2.00715 -0.909913 1.62424
387 1 4.85076 -20.3393 -0.749413 -5.66988 1.28597 -1.49103
388 1 -18.5855 -23.6634 23.6653 -0.621352 -0.908391 1.34389
389 1 -14.2202 8.31682 10.5819 4.69445 2.37044 0.407773
390 1 12.0715 7.36889 7.32503 -0.925757 -3.54554 -0.550564
391 1 15.7675 0.0835848 19.85 4.71796 -1.7832 -2.20454
392 1 20.7065 -11.4051 14.887 -0.571854 1.97577 -1.99157
393 1 -11.8229 -16.6278 -13.1506 -7.43036 -0.676784 -2.83522
394 1 -12.4507 12.6366 -5.40237 -4.08879 3.19374 -0.435778
395 1 -8.37471 45.7264 18.4478 -1.69377 0.569777 -2.48836
396 1 10.2191 -20.7895 -1.08316 -0.325906 -0.0501097 -0.570267
397 1 4.38743 -21.9428 16.9754 -3.56722 1.23236 -1.18482
398 1 -22.4675 -23.422 -8.9491 3.28501 -3.71693 1.4967
399 1 12.7919 14.7198 1.48634 4.46352 -1.26949 4.46052
400 1 -21.1971 -17.057 -5.34104 1.98688 0.315421 -3.93724
401 1 -23.9323 -16.818 -5.53571 -0.587199 1.05148 -0.388091
402 1 0.0595534 8.24499 23.4835 -1.83684 2.19017 1.11194
403 1 13.8674 -1.62604 -23.8113 3.20547 -2.15419 1.11089
404 1 -14.1843 -0.758917 3.94797 -0.255397 -3.29716 -4.88737
405 1 6.40554 -23.3762 -7.28624 0.229245 0.960876 4.19687
406 1 -9.70796 -21.6533 -21.5528 4.11096 -3.58683 3.11444
407 1 3.46412 -10.5732 18.662 -3.17138 4.16384 1.25829
408 1 -1.8031 -0.90036 -18.3426 4.16202 0.28054 5.01158
409 1 0.394886 2.57737 -6.15535 -0.898485 1.06739 -8.45658
410 1 -12.7043 10.7491 2.07009 -1.6177 0.662485 -5.00665
411 1 -2.39354 -0.305198 -6.61821 1.04673 3.82887 2.04501
412 1 -18.0958 -5.85151 7.85039 -0.0343172 1.17755 -0.901702
413 1 -23.6652 23.5361 -0.754857 4.41679 0.955457 1.57252
414 1 5.38209 18.9502 -12.0538 -1.17992 6.64822 1.0213
415 1 -19.1559 7.84817 -10.0953 6.92436 -0.407753 -1.65098
416 1 23.1392 0.851338 11.412 -1.23618 3.06831 -2.06068
417 1 -13.3742 2.68631 9.50205 0.5833 4.57317 -1.24833
418 1 21.9067 21.2432 6.52899 10.2931 -1.68251 1.60308
419 1 -23.5794 2.93567 23.5401 -3.37604 2.10712 4.50375
420 1 -2.11853 -3.80283 12.904 -1.13848 0.426503 -1.28827
421 1 -13.888 46.4014 -16.0304 2.96164 2.38875 2.23708
422 1 -2.3547 18.8189 -20.5692 0.888436 -2.77914 4.85713
423 1 -8.74642 2.30647 2.86258 -3.71883 -2.2185 -0.341355
424 1 6.48618 -6.70817 -0.102463 -1.90405 -5.52315 -5.30285
425 1 -22.6538 14.3254 16.0163 -0.55801 1.42774 -0.66324
426 1 -16.5609 -1.41632 -10.0297 2.02035 -2.82328 1.23959
427 1 -13.5882 46.3619 21.1853 -0.0286226 -3.31348 0.74418
428 1 8.98503 12.5332 -9.0889 0.998833 0.926767 -4.41869
429 1 -7.35164 9.4255 -14.6985 -0.721032 -3.48848 -8.92601
430 1 -22.6596 -1.47899 23.1181 0.0944062 -0.221819 -3.48624
431 1 8.67754 -6.97098 -14.6114 -0.837097 2.80111 1.61332
432 1 6.50852 -4.31199 13.5141 -5.11031 -1.44602 3.59044
433 1 -21.0343 2.17306 -16.9669 0.445155 2.38305 -0.746907
434 1 -13.2635 -2.56994 -11.2448 0.271683 -0.301817 -0.418678
435 1 0.923921 23.0565 6.94677 0.179543 4.39277 4.53767
436 1 -14.3511 -10.3524 -7.92105 1.43053 1.14921 1.55643
437 1 19.2087 18.1802 -6.37308 -4.45569 -5.98159 -3.09423
438 1 -17.006 6.51891 -4.64105 4.13669 -1.83581 0.222898
439 1 -4.07401 21.0829 -6.44577 -1.04191 -8.13409 3.7457
440 1 -9.14524 13.238 -14.5696 -0.264939 -3.13427 -0.0654874
441 1 17.5279 0.395323 -5.87138 4.48406 -1.84314 2.50163
442 1 4.90622 3.06745 14.2694 -1.78216 1.60373 1.29883
443 1 19.6878 24.811 13.3747 -1.17819 -7.21108 0.272641
444 1 -22.3368 7.50058 -18.0254 -6.26898 -1.34839 -0.144164
445 1 15.5325 -10.3254 -12.2915 6.24168 -1.18189 1.58562
446 1 22.0367 -14.6676 -6.56897 0.953643 -2.41416 -3.48186
447 1 5.65675 22.132 14.5313 2.94017 -0.299986 -0.388958
448 1 -13.3473 0.326684 14.1598 0.68293 0.371062 7.75803
449 1 13.397 -7.89752 0.385428 -1.87936 0.381277 0.756083
450 1 15.363 -22.2199 6.77449 -2.8346 -2.0531 -3.09184
451 1 -23.6484 -12.4718 -19.9706 -3.99131 1.84925 -2.39657
452 1 23.4843 15.4603 2.41014 1.97367 -1.7605 -1.13896
453 1 -16.4125 15.395 10.333 -0.79296 -2.35005 1.48971
454 1 -6.2327 -0.0965079 -16.4452 -2.55473 1.45953 0.564628
455 1 14.5664 -11.2655 18.3717 0.613944 1.84407 1.59856
456 1 -4.62337 18.7736 24.2183 0.250515 -0.953612 8.65806
457 1 5.62472 21.8561 18.8977 2.8122 4.53904 -4.57664
458 1 20.3076 21.4951 15.4275 1.613 6.25903 -1.43746
459 1 -0.420103 8.96644 -14.3202 4.10843 2.2336 -0.923938
460 1 3.12412 8.34336 -23.4976 0.247108 1.17819 -2.85317
461 1 2.33797 -0.407238 -17.9826 0.134756 -0.215439 3.99286
462 1 -5.36622 -18.793 21.0441 -1.28296 -0.0521595 1.72092
463 1 7.90817 12.6933 12.7459 1.39821 6.94954 2.04225
464 1 -14.5282 -23.332 5.32557 -0.791611 -1.65864 -2.18633
465 1 -0.948069 -13.0563 6.26904 -0.875046 -0.621261 -4.34115
466 1 14.5398 16.6658 -19.6989 0.120262 -3.20086 3.5327
467 1 -7.31618 -11.8298 11.8834 -0.417397 -0.0179366 5.98868
468 1 20.8988 16.4504 -8.17633 -1.69772 0.120324 3.62745
469 1 -23.9761 -14.6274 12.3369 -0.602242 -0.305883 -4.7708
470 1 -20.265 7.23166 -12.7952 -1.92543 -1.51995 -0.933842
471 1 18.723 -9.46899 -9.76561 0.528164 2.99195 1.2714
472 1 -15.4723 -3.9591 17.4772 1.72318 -1.91068 -3.1132
473 1 4.47408 12.3823 11.525 0.807225 -0.645714 -1.81975
474 1 2.97833 -5.71601 -9.8529 3.83172 5.94564 -3.59988
475 1 20.8924 13.3554 -19.6948 -2.6806 1.50219 -2.00733
476 1 -12.573 -3.12582 -2.23958 4.61311 0.538116 -1.2053
477 1 -11.3506 -8.87171 -13.6335 -4.98763 1.61921 -5.01926
478 1 2.88791 -0.385534 -23.1946 -3.41107 -0.0661404 -1.46581
479 1 14.5283 -19.8545 15.8637 -3.62739 -1.80421 -0.958328
480 1 1.7188 -10.9656 11.6384 -0.598408 5.31721 0.39356
481 1 -4.21073 6.74139 -19.328 -3.16582 -0.766337 -3.19285
482 1 -23.165 -2.41505 20.6769 0.974404 -5.09844 1.76104
483 1 5.98031 -17.5239 -1.05197 -0.56202 0.363454 -0.0522493
484 1 22.7106 -13.1821 -12.9972 2.07296 0.560117 4.31306
485 1 22.4361 -22.0199 -18.7733 -2.76242 -4.5492 -0.287601
486 1 14.865 4.19037 -4.69546 -6.20392 -0.681935 -3.43769
487 1 2.48347 26.3437 17.9132 -2.4922 -0.849936 -1.13705
488 1 -2.3522 -14.464 21.1424 6.15992 -0.0289874 -2.09449
489 1 -12.7016 22.1332 -12.1524 0.980666 -2.15287 -1.52426
490 1 16.8128 -17.038 -13.6669 2.70638 1.88034 -2.69645
491 1 -20.6616 -12.0507 8.99108 2.48935 -0.92463 1.93614
492 1 -17.058 -17.127 -12.9986 0.422569 2.35308 2.8512
493 1 13.9959 0.0217103 -14.7053 0.94884 3.1729 0.795172
494 1 7.64257 1.30636 4.88891 -5.66403 2.56918 -3.60238
495 1 -3.74155 -7.63604 -3.86291 -3.52843 -0.331036 3.53801
496 1 4.02195 8.84435 -12.2631 -2.09291 -0.907688 -0.728416
497 1 10.7657 16.5268 21.8049 2.85562 -1.1668 1.62476
498 1 20.1844 -1.10098 23.6986 2.23379 -1.03549 0.350509
499 1 22.3826 1.35405 -8.96675 -1.90693 -0.60774 -5.82214
500 1 -5.06884 -17.3156 9.04184 -3.58057 2.47101 -3.18422
501 1 -11.9155 -12.0321 -7.38021 -0.237927 -4.63541 -1.41559
502 1 12.1742 -16.2869 17.5824 0.419967 -1.65536 -1.20397
503 1 8.68723 1.48991 -13.7445 -7.31872 -2.08191 2.58387
504 1 -0.46211 7.44809 5.43075 0.617395 0.757883 1.8516
505 1 -4.4774 9.48767 -23.1266 1.79148 3.74255 -0.0357008
506 1 0.662981 -23.7137 -16.5925 3.90561 -1.98246 -1.37136
507 1 12.524 21.6992 -15.1537 -5.56776 -0.445239 -6.64418
508 1 -2.07512 22.2398 -12.0731 -0.597452 -2.74521 0.35172
509 1 21.9054 12.3659 -17.1353 -0.267235 0.566186 0.605294
510 1 9.43922 -16.3916 16.3761 -4.01096 -1.9999 -5.46392
511 1 8.03425 -15.3491 3.02521 3.14568 -2.02991 0.163419
512 1 3.31201 -2.19853 19.6411 -1.44671 -3.55517 -1.79823
513 1 -16.7724 -15.2728 20.7036 1.79848 -2.30433 -2.24737
514 1 -15.1703 22.6298 19.3993 -1.68547 -2.86095 -0.218706
515 1 -1.48828 6.02133 17.8335 -6.43237 0.255228 -0.0899444
516 1 9.53099 -23.7256 -4.5176 -1.08246 -0.645175 -1.18962
517 1 -17.1053 -1.96051 -21.5161 0.418846 -1.2988 -0.793179
518 1 22.6403 -24.0784 1.80659 -5.02828 2.29616 -0.542382
519 1 -19.17 -12.4445 -8.48523 0.126579 1.71733 -0.179093
520 1 -4.57023 46.429 -13.3573 -2.43829 2.19783 -1.25097
521 1 -10.2262 23.4566 -8.25959 -1.29515 -4.52661 2.70371
522 1 3.692 -15.3667 6.6231 4.18708 -0.473395 3.25947
523 1 -9.29909 -16.2783 -5.01958 4.65981 0.74324 -2.75309
524 1 -0.418721 -3.57358 17.8771 -3.51612 -1.88059 -3.19733
525 1 -7.73832 2.37863 -3.5156 -0.341657 2.26027 0.495001
526 1 -19.8862 16.2857 -3.13587 4.42093 3.36265 -0.619027
527 1 -3.86093 14.9814 -7.93685 -0.110693 0.6261 -2.38169
528 1 -18.9224 16.1687 -10.7583 -1.51724 -3.54192 2.58469
529 1 -8.03587 -12.7482 6.44928 -4.95986 2.07141 -3.15166
530 1 -10.2325 1.63052 12.3689 -1.97242 -1.67429 6.81123
531 1 22.2616 -8.86276 11.9056 2.75677 0.0937925 2.312
532 1 -11.0538 -1.58554 1.39903 2.43468 2.9609 -0.0258833
533 1 -9.2279 -19.7069 15.4817 1.47925 5.56195 1.25735
534 1 18.9587 9.76385 -11.7085 5.14975 -6.46155 -4.86158
535 1 6.63672 8.49108 8.15371 -6.80231 4.62851 0.523433
536 1 -2.2795 -8.23131 3.70879 -3.48149 -2.29921 1.22856
537 1 9.91788 -7.44878 3.6564 -4.19399 3.25262 -2.0992
538 1 -21.5559 -3.19155 12.8546 3.46056 2.33889 -1.6598
539 1 18.6826 9.71254 -7.65605 -1.39576 -0.763035 1.88185
540 1 -13.6294 -10.1803 1.53851 -5.67819 0.549454 -0.283615
541 1 -12.2188 3.10513 18.4045 -2.19107 -8.02761 -0.190816
542 1 -22.9787 6.16601 -7.01979 1.69229 -2.04185 -0.312078
543 1 21.8658 -17.9101 -15.2658 0.107749 -0.264309 2.84922
544 1 -3.49586 -21.1449 -21.153 1.35157 3.62836 -1.72064
545 1 21.4091 -19.7338 13.344 2.71687 1.51063 3.02355
546 1 -5.80887 -16.706 -14.2226 0.74724 1.04411 1.77923
547 1 16.4591 -16.9528 -20.042 1.55869 0.966937 -2.70993
548 1 9.45588 2.37863 17.5299 0.707613 -0.938283 -2.00685
549 1 -20.7632 -5.60796 7.70584 2.32074 -2.32778 1.87353
550 1 3.09134 -22.5203 -14.979 1.37178 0.748301 -2.05635
551 1 7.70052 6.88475 -18.6572 -1.27607 0.244853 -6.16037
552 1 0.671974 -15.5539 -2.89589 -4.59758 1.70584 -0.163722
553 1 -11.8733 7.34683 1.13114 4.66564 -3.54717 -0.505193
554 1 4.23359 21.6282 -17.3718 -2.03277 5.20035 -0.972433
555 1 -14.0085 -15.3492 -0.844178 -1.20271 1.37403 -4.32087
556 1 -11.6016 18.4522 -0.969586 1.36492 -1.08014 0.0450367
557 1 11.7521 -23.4614 -11.2043 0.284953 -0.647765 -0.566927
558 1 -5.5584 -9.76995 14.7049 1.44998 3.10076 6.91668
559 1 -7.87955 -19.8265 7.23071 1.05268 6.92697 5.55711
560 1 23.2115 -21.8945 -5.60055 -2.96716 2.32967 3.62188
561 1 8.20018 46.399 19.6344 1.5118 -1.00789 -4.34476
562 1 6.02011 8.63882 -22.7247 1.11137 1.76221 -0.679119
563 1 4.72525 -20.4007 6.07709 0.87528 0.834801 3.95505
564 1 -12.3401 -18.1988 11.9655 0.477935 1.31869 1.24822
565 1 12.7742 -18.4293 21.3792 -0.0878853 -2.4152 -1.58799
566 1 19.494 14.4379 13.2277 -0.436974 0.742865 -2.85986
567 1 -20.0696 25.5655 -5.06726 -2.47838 -2.02057 -1.97179
568 1 4.02706 -9.04307 7.66744 3.04744 -4.28871 1.80469
569 1 -4.66675 23.9178 -14.426 4.90618 1.24879 2.11041
570 1 21.2023 12.7101 14.7459 -0.241561 0.468839 2.2752
571 1 -2.57217 -12.9472 18.9646 -4.7752 2.85024 4.38043
572 1 10.616 46.2292 3.00041 -1.00516 -2.07963 -0.732797
573 1 19.5634 -6.90967 5.24398 2.52228 -3.17191 1.47503
574 1 14.1254 -21.1505 -6.68648 1.16812 -2.03983 -3.6976
575 1 -14.5392 5.19903 -4.22311 0.652917 -0.752914 3.4346
576 1 20.4562 -1.50275 16.7106 4.51607 2.58903 -3.7405
577 1 -8.13205 19.2211 -0.322091 0.524567 3.76641 2.36457
578 1 22.8705 20.4261 -19.6109 4.63177 -3.73583 1.05294
579 1 2.56152 -22.0172 -9.87813 -1.98706 5.13821 -8.59191
580 1 -5.89666 1.30921 -19.0103 1.28591 0.189131 -0.501603
581 1 -16.6046 -9.07977 15.3032 -2.21371 -3.40538 1.92218
582 1 -2.51539 -12.6245 -18.1269 -1.80234 -0.410784 2.76543
583 1 -22.6507 25.1275 11.8293 4.26805 3.71218 -0.27819
584 1 15.8621 1.08069 -10.5201 -0.0154305 -3.42678 -1.5583
585 1 -7.60669 12.8392 16.1575 5.42023 1.36745 2.61608
586 1 15.4811 23.8314 -20.2115 2.09582 -2.05429 -1.11436
587 1 -20.6821 -24.1099 -12.6935 2.22502 0.30056 -3.32875
588 1 -21.4031 23.8463 7.22465 4.13001 -3.83946 2.15772
589 1 -0.480447 3.88364 -1.18557 -3.23346 -0.952328 0.697474
590 1 -6.18091 18.1107 20.5025 3.19453 1.39503 0.670217
591 1 19.673 -21.3773 10.3951 -1.69757 -0.609709 -3.25863
592 1 -16.7974 -13.6775 9.38991 -3.19327 1.95327 6.28689
593 1 -13.3468 -20.6721 18.3301 0.40282 -5.19373 0.652833
594 1 -17.9064 0.53739 2.96589 -2.30293 3.28236 0.760666
595 1 9.84397 -17.5566 -22.8818 0.473984 2.53016 3.42702
596 1 -11.8498 -19.376 4.93465 -0.947664 -3.76552 6.80308
597 1 -23.5951 45.8203 -13.1431 -3.08043 0.900408 -1.26347
598 1 14.3498 -16.0631 5.51497 -3.33993 7.18551 -2.75529
599 1 12.2968 -13.9038 12.4152 -2.67425 -2.86687 0.844814
600 1 -23.3182 22.8817 17.8445 -6.54001 -1.9281 -0.564285
601 1 0.539662 -1.61775 20.0608 2.47788 -1.71084 0.149662
602 1 -10.5178 7.64306 18.4246 -0.255945 -0.455503 1.44568
603 1 -4.85577 6.17203 -3.54444 3.41136 3.86394 -6.09039
604 1 0.148788 26.1382 -23.1718 -1.2524 1.05896 -0.456168
605 1 -17.9474 -1.39526 17.1308 1.6222 4.41744 -4.67432
606 1 2.14151 -1.60123 -20.897 -0.835182 4.99058 2.42837
607 1 0.0305101 -1.23275 15.3586 3.01251 2.28522 -2.09282
608 1 3.84293 9.55822 -9.43199 4.94478 -0.138562 1.00718
609 1 11.1449 -20.9664 22.2533 -1.7905 -5.66833 -0.680471
610 1 14.8361 -5.06851 16.117 -0.229497 2.71959 0.0968285
611 1 -2.41038 -4.0647 -3.88233 -4.75251 1.50143 0.987072
612 1 -5.50001 13.0447 -17.5266 3.62467 -2.87428 -0.391631
613 1 12.4019 8.34866 -21.8378 4.538 1.21319 -0.213754
614 1 -16.3455 -10.3877 -6.07665 -1.79716 2.05348 -5.67571
615 1 9.98463 -4.60977 20.9699 -0.00875931 -1.80942 -3.62809
616 1 15.6945 -3.21888 19.694 -2.69046 -3.12741 1.03209
617 1 -13.9749 22.0328 -16.0176 4.37094 -2.30962 -0.31424
618 1 14.2372 6.81231 9.20686 2.23636 4.30691 3.8549
619 1 16.9157 0.863393 11.8987 -1.4355 -1.66598 -1.6611
620 1 20.1236 -13.951 -8.93401 -1.62383 3.41649 -1.37527
621 1 -9.18297 16.7832 -13.1378 -2.46702 -2.24509 -2.32985
622 1 -21.6504 -10.182 2.01531 5.84187 0.00882412 -2.85994
623 1 21.5348 -15.4785 4.42399 -2.31418 0.161331 5.49697
624 1 -7.35154 3.17246 -20.8498 -2.48969 0.443701 2.35248
625 1 -1.26929 -8.1626 -2.28297 -0.209352 -3.49737 0.106737
626 1 -4.74136 3.49104 -17.9526 -0.607372 -0.338189 2.09626
627 1 20.4373 12.9646 10.6547 -0.156521 -1.21046 -0.101916
628 1 -20.9393 -16.1414 -1.65167 2.34197 1.96817 -6.11117
629 1 -7.19336 12.4564 -3.80219 0.00535394 -0.109308 -4.10379
630 1 -23.9767 23.7053 9.84544 0.853768 1.41637 -1.81924
631 1 -5.93478 -16.5456 17.7513 2.29049 0.871136 -0.863197
632 1 -14.635 -19.5992 1.50971 -4.47204 -0.876076 0.597112
633 1 9.75771 6.83652 22.8681 1.14522 6.20476 -1.68933
634 1 -7.86831 0.0270403 18.0824 -2.61537 2.26649 5.45141
635 1 9.73807 14.5203 -6.06175 -3.53406 -3.3325 4.96611
636 1 -23.324 1.85862 -15.1217 0.629123 -2.91087 -1.07827
637 1 -8.0032 -24.0319 -21.812 -0.388415 -1.17652 -0.0893694
638 1 13.5924 20.6303 -6.5696 0.676781 4.78474 3.43893
639 1 -10.4226 -18.5806 -21.7986 4.38059 0.513014 1.17901
640 1 1.55361 0.378609 5.68661 -4.59402 3.37441 -0.177935
641 1 -15.2707 20.3184 6.19299 -2.61918 -4.15626 2.31963
642 1 -7.41467 -1.91651 5.80126 2.18923 -0.0135602 -1.2347
643 1 8.766 -20.0061 6.56579 4.0119 -0.0490919 -1.49338
644 1 -6.709 12.0217 -1.01319 -4.14066 -3.16815 3.64833
645 1 -11.2183 -12.1409 -17.7253 -0.588727 3.08329 -4.45531
646 1 13.7511 23.664 13.8939 -0.56953 1.21656 -4.77734
647 1 7.98446 1.74635 -3.29555 -1.33772 3.70845 4.14742
648 1 21.9255 -14.9099 20.2528 4.04101 1.04078 3.75341
649 1 11.7327 -18.8683 18.547 0.930963 1.31705 -1.85493
650 1 -11.2694 4.21248 20.9126 -2.97748 -0.226695 -0.359017
651 1 -20.9118 5.15287 -10.7029 1.92073 -4.02431 3.82499
652 1 -8.74017 -5.43926 -18.5831 -1.33313 1.22707 -4.26824
653 1 -21.792 -20.6031 -16.3997 -0.835801 -2.21574 -2.53722
654 1 -12.1536 -1.07945 -19.8611 0.916557 5.1682 -2.40998
655 1 -1.95423 -10.4771 -10.4687 -3.82054 -2.41436 2.07012
656 1 0.299379 23.2248 -9.40286 -0.0246067 -4.07656 -5.3379
657 1 -1.39233 -3.78225 -10.2719 -0.743841 3.36954 -0.117684
658 1 17.4975 10.629 11.8732 5.9612 -0.533358 -1.03457
659 1 9.23288 1.78827 22.1437 7.52214 -0.891033 1.77083
660 1 7.96703 2.86481 7.16399 -2.36046 2.61491 -5.226
661 1 -18.534 -7.70739 -18.0434 1.57855 -1.51 -2.40419
662 1 2.18185 -7.84809 9.58056 -0.0683642 -3.31557 2.30765
663 1 -10.5266 -18.0527 -11.0817 1.15853 -0.0253368 -4.44883
664 1 -16.8699 -20.3843 10.7226 0.87953 0.219389 2.35796
665 1 -2.00443 -5.82081 16.8538 3.50192 -3.85959 -1.33317
666 1 -8.2113 -6.51323 -10.6914 0.702025 4.4925 -0.0162469
667 1 -20.8057 -20.8627 23.3762 2.37422 -0.70908 0.145607
668 1 -11.6153 14.9514 18.1293 0.945433 0.413753 -4.13065
669 1 10.1637 -15.0712 14.0423 -0.408508 -3.07722 7.23734
670 1 1.0417 -11.1545 -2.99341 0.450274 0.880684 0.993046
671 1 20.6081 15.0737 3.69163 2.80887 -3.15456 1.56351
672 1 23.3577 8.14779 -10.9301 -0.861777 -0.86756 -4.60587
673 1 -2.52769 22.9551 -23.2027 -0.654019 2.14318 -1.26687
674 1 -9.37171 1.05153 -21.3266 -3.53065 0.446129 0.167536
675 1 -21.8277 -11.8824 -7.83779 -4.61129 -3.1435 -4.24952
676 1 5.90563 1.39807 17.7297 -4.41996 -0.275596 -3.86516
677 1 -22.6628 -11.4727 -12.0157 -0.66619 1.28209 0.832986
678 1 -19.3577 -5.7264 0.510158 -2.84923 0.155252 1.8364
679 1 -19.5926 3.11639 -8.85338 2.58841 -3.3507 4.09169
680 1 7.87553 21.1036 -8.88202 3.25266 1.68909 5.66226
681 1 -2.65115 1.45104 -8.86288 3.25959 0.707313 -4.92675
682 1 -2.00776 20.3551 -8.58113 -1.10302 -2.21529 -1.12157
683 1 1.60547 10.0522 -17.0691 -3.98685 1.10956 -1.69615
684 1 11.0046 -20.7787 -11.9691 -0.263033 -2.81609 -1.38599
685 1 22.5934 -0.549036 6.58931 -5.80323 -5.72763 2.90683
686 1 -12.6408 0.279475 19.2775 2.38045 3.63778 0.0263418
687 1 -16.3382 6.31652 10.7604 1.09251 1.23326 -0.781572
688 1 -11.4716 -13.045 -13.2556 1.19135 3.67502 2.88693
689 1 -0.136935 -1.09581 -3.23002 7.18337 0.867978 -0.337572
690 1 -3.14308 18.4753 -5.57877 1.77168 3.69738 3.83639
691 1 -0.682479 7.53 15.2975 4.0655 -3.0443 -0.930455
692 1 -9.48649 -3.50724 4.7662 -0.624117 -2.05977 -2.18431
693 1 -9.56029 23.2624 2.97778 -1.23495 2.76793 -0.701255
694 1 9.94594 -19.319 1.27099 -4.88572 -3.81131 0.426588
695 1 6.83279 -9.30646 -7.6076 2.48154 1.05655 -2.52591
696 1 -8.2245 -22.1057 8.87024 -1.56484 1.27682 4.98199
697 1 -20.2577 16.76 -18.477 -0.5955 3.97256 4.51186
698 1 23.597 -12.8669 -5.12445 0.984413 -3.46717 -3.52422
699 1 -15.1279 -11.6055 15.8178 -0.169576 -1.49136 2.58938
700 1 3.20161 4.55838 -21.0495 -1.4449 -3.68264 -2.0218
701 1 14.9435 -1.20112 8.36043 -1.68713 -3.27745 -0.301301
702 1 -14.998 -2.7827 12.5655 1.65597 -1.91229 -1.44907
703 1 7.42354 24.6689 -20.631 3.7396 1.90886 -2.00629
704 1 -11.3973 -10.1305 9.22943 -6.46155 1.93708 -1.27539
705 1 5.47063 19.9619 -14.7115 -1.11371 1.92999 4.62753
706 1 4.38021 2.52528 19.9337 1.67743 -3.86957 1.4858
707 1 -18.622 -0.729753 21.247 3.37443 3.22271 -2.67497
708 1 8.88907 -5.30228 -16.867 1.79736 3.56847 2.31833
709 1 -10.299 -1.59352 -6.21651 -0.161956 0.0868345 2.97708
710 1 -3.24922 -9.67433 13.1384 -4.49579 -0.0493948 0.748136
711 1 -15.0675 -6.04731 -13.3053 0.661358 -1.15841 -1.23075
712 1 4.63657 -14.0248 15.924 -3.59027 -0.747847 0.828995
713 1 2.84958 3.76093 3.80036 -0.872605 5.03303 3.88264
714 1 17.5545 -8.01521 -14.6757 -1.20164 -1.44395 -0.921171
715 1 1.75695 15.4919 12.4393 3.8728 -3.65885 3.71783
716 1 0.9695 -22.073 10.3821 -3.352 -0.667531 -1.02833
717 1 -13.2762 -5.00594 -15.2831 1.31262 -2.60811 -0.969713
718 1 -10.9668 -7.29437 5.55304 -0.0326368 4.56471 3.09072
719 1 13.3869 -9.39139 11.7082 -0.89925 1.45548 -1.51592
720 1 2.96448 -6.04159 -20.2113 -0.114924 2.51776 3.15823
721 1 -10.0108 -11.1768 -15.0081 -0.815962 2.69145 1.2371
722 1 8.1145 -23.8659 -14.5008 0.503458 0.073861 4.0282
723 1 -21.8357 15.6863 -6.16541 1.70714 -0.19555 2.08301
724 1 -7.27143 21.101 -11.9707 2.53028 -5.46122 5.53471
725 1 4.41153 18.3952 -22.6531 -5.48361 -4.44221 0.706537
726 1 -4.3741 -6.94254 22.0312 2.21354 -0.316837 -0.162545
727 1 7.32874 -2.53824 -13.2394 -4.0445 1.79292 4.80367
728 1 -9.54529 15.4397 -7.84305 -2.07082 1.01414 -4.00992
729 1 -15.0961 13.3924 15.1431 -0.483691 -1.518 -0.355281
730 1 17.8947 -20.4056 -20.2723 6.1488 -0.441694 -4.08405
731 1 -13.1016 11.8455 -22.8008 1.22976 1.62429 1.93677
732 1 13.8591 -22.5508 -9.10797 -0.273233 -5.31619 -3.0653
733 1 -15.3656 -17.104 4.91659 1.38568 -0.0290895 1.30723
734 1 -19.3639 21.8551 16.4276 -5.8567 4.2909 0.513897
735 1 16.4028 10.1812 6.97945 0.910911 -0.999074 -4.15661
736 1 4.02104 23.2476 -6.34917 -0.172622 2.56087 -3.11896
737 1 21.5127 -17.9602 5.89504 2.9921 0.109819 -4.78021
738 1 -12.4467 7.52749 16.0681 -1.03633 -3.36971 -4.31172
739 1 -16.5997 -20.6824 -0.315702 -2.9936 -2.6925 -1.88785
740 1 16.6646 12.5086 20.4277 -2.24623 -0.573336 0.115655
741 1 -14.1452 -19.9567 -14.5817 -2.36915 -3.28031 3.59134
742 1 -4.70013 -23.9905 19.7371 1.6657 -2.47063 3.50038
743 1 23.1154 20.5116 2.31307 -2.07178 -2.72172 2.8822
744 1 9.32135 -13.3852 -13.0006 -2.54575 -2.44765 6.21892
745 1 -23.1337 3.11125 19.1221 1.20231 0.49084 -1.79059
746 1 -16.1567 -5.69901 -22.5388 0.668188 1.71469 4.65597
747 1 11.2506 -11.4481 2.36461 3.0018 1.07079 4.54606
748 1 -9.66836 -21.7007 21.0124 0.55318 0.811797 -2.13835
749 1 0.290853 14.7007 7.81374 -2.38091 6.84296 -7.54478
750 1 14.6852 -6.02909 -12.3803 -2.828 -1.88727 -3.58177
751 1 -18.4794 9.78141 -15.9921 -1.19814 -0.637405 -0.984655
752 1 -23.8895 -21.7122 5.42333 -2.4777 -1.10641 -6.99838
753 1 -13.9988 -17.7295 22.5845 7.66693 1.65961 -1.40868
754 1 -14.3354 26.3168 15.5551 1.63426 2.87845 0.72908
755 1 10.7332 10.4627 -23.3326 1.27199 -0.270686 -0.175513
756 1 -6.31705 -1.70397 -1.30024 0.685454 0.162844 0.534509
757 1 -17.7765 14.6599 -3.86718 -0.992653 2.21828 -3.31061
758 1 -13.6519 -15.1076 20.6457 -1.53703 1.81861 -1.57119
759 1 1.31057 15.7071 -10.9351 2.75733 4.18021 0.678082
760 1 1.42693 9.1837 12.4112 0.533056 -0.00179535 -2.72949
761 1 -8.91102 -11.4312 -7.22697 5.91368 2.72886 -0.575752
762 1 3.53039 20.3465 22.9621 -3.3416 -4.76289 3.99006
763 1 15.6651 5.15264 7.39062 0.811437 -0.173599 -1.82023
764 1 21.0879 1.79419 7.06038 2.51566 4.27167 -5.08046
765 1 20.5922 9.23366 8.92275 0.894146 -7.95646 -3.47719
766 1 -11.7217 18.1052 -16.7333 0.508757 3.78473 2.78875
767 1 -2.76504 -12.9641 -1.65577 2.84806 3.46945 4.40329
768 1 -8.62645 10.002 9.66188 0.297318 4.22577 -2.55155
769 1 13.4964 25.3186 18.1392 -1.24075 3.79924 0.921841
770 1 -5.22995 22.513 23.4122 -5.83849 -5.77753 6.36004
771 1 10.7401 -17.8571 13.357 0.0893659 -2.83985 -0.821624
772 1 7.58949 7.58176 5.85063 6.58725 -0.973897 -1.36846
773 1 12.4487 -21.1485 11.4495 0.74658 -2.05435 6.16256
774 1 15.9094 18.554 13.5256 5.40198 -3.14346 -2.5908
775 1 21.5572 -16.77 -12.6167 -1.40502 -0.424907 3.44933
776 1 8.37593 0.389482 -20.43 -2.93606 3.93314 -1.29046
777 1 22.2098 -9.69041 -8.63004 6.09502 -4.14707 2.94666
778 1 3.30229 -18.5642 -16.9518 -0.719907 -2.82051 3.1345
779 1 8.07786 0.554852 -7.10671 0.741445 -4.98985 4.89971
780 1 -7.53113 -9.71121 -18.5209 -0.632737 -1.30409 0.605596
781 1 -19.7567 4.2527 5.01258 2.28131 0.914647 1.91815
782 1 20.0074 -9.27526 -14.1042 -1.86473 0.119314 3.38694
783 1 2.07663 -16.4556 21.856 -1.47905 -1.72465 6.00257
784 1 12.2261 17.5824 -2.10702 -2.89769 0.830104 6.09602
785 1 -3.98307 22.7754 20.8384 2.43007 -3.33684 -4.3913
786 1 -21.9799 23.4688 22.3039 0.0937491 -4.37558 -2.67001
787 1 10.0858 12.3742 -14.3279 1.93067 -0.580636 0.217569
788 1 -20.9684 8.98529 5.10427 -2.1177 2.08048 2.26427
789 1 -14.5846 19.4308 0.969878 4.7562 5.12612 5.20026
790 1 2.3755 -1.83919 16.824 1.562 -4.64385 3.75839
791 1 -3.56635 24.5769 15.4576 0.998524 0.033828 3.04747
792 1 -22.5708 14.3771 -8.91492 0.240837 -2.02411 0.31323
793 1 23.3732 -9.96337 1.47267 -0.489094 2.82157 -1.25566
794 1 6.7187 16.6518 -23.2757 -0.0830003 2.89442 -2.85061
795 1 21.2768 -7.2927 19.3054 5.08618 4.13266 2.82875
796 1 -8.07561 -15.4751 -12.8315 2.53293 0.697351 0.676166
797 1 -19.173 -11.7662 13.3002 0.0931815 1.36487 -2.79531
798 1 -15.8197 1.35413 -6.5432 4.45881 -2.62851 0.725631
799 1 -10.6329 17.9461 -8.12578 -0.552806 5.938 0.163937
800 1 -18.8747 -10.1053 16.6625 5.24799 3.03863 0.174189
801 1 19.7044 13.5874 -0.870513 2.01632 3.0749 6.03364
802 1 -18.6185 -21.063 13.8809 3.25654 5.23633 -0.363169
803 1 17.4304 -12.9857 -8.41749 -3.43166 3.99827 4.4146
804 1 9.67949 -18.8061 -10.5585 -3.59744 -4.50982 0.592979
805 1 9.24825 24.32 23.2945 1.65417 4.04371 2.50194
806 1 -1.09886 -12.3724 12.2842 -3.20962 3.61645 -0.579436
807 1 15.3174 23.0722 -23.1702 2.45225 -6.36681 1.71561
808 1 0.514768 -20.0391 -11.0173 0.473064 3.53244 1.27027
809 1 -6.0749 23.9381 -16.83 -0.219797 4.35149 -3.81848
810 1 -20.0512 -14.5228 -4.27355 -1.87528 -1.50913 3.03517
811 1 -13.324 -5.11546 -6.25627 -3.27603 1.02709 2.7914
812 1 2.9934 -12.2269 -8.42743 1.88752 -2.09771 2.62136
813 1 -16.0507 23.8327 -16.2922 -1.21277 -3.19405 -3.95074
814 1 -21.0884 -0.700998 -2.63332 0.721807 2.67449 0.436315
815 1 -19.3073 7.43536 -17.4325 3.83808 -1.37883 -5.79292
816 1 22.5877 -17.4429 16.9013 6.33275 1.01337 -1.42789
817 1 9.68668 -8.90435 17.4861 -0.0822774 -3.0912 -0.774335
818 1 -10.3808 10.3891 21.6063 -4.52762 0.967815 -1.33255
819 1 9.42637 13.0976 20.9368 -4.38818 3.41128 2.67732
820 1 2.97026 14.1404 7.40626 0.0118428 -3.81398 -1.50497
821 1 -22.8743 46.0941 -23.4465 4.2729 -1.56376 2.86889
822 1 19.6709 -15.3158 14.4403 -1.86437 -3.38495 0.371009
823 1 5.99029 -9.96884 4.81537 -2.42142 1.75934 -2.16512
824 1 5.01918 -19.7477 -7.84958 -3.61016 1.15154 1.68521
825 1 -23.9348 2.83397 3.69801 -1.08631 -4.03809 -2.52338
826 1 -12.7011 6.92368 -3.44789 -6.57269 2.24477 2.93489
827 1 -1.64744 -0.427153 5.78613 3.22077 -0.622791 2.50941
828 1 -7.32657 -19.073 13.1152 2.05115 0.305821 4.59497
829 1 20.3826 17.4874 21.685 -3.91318 1.61691 1.71674
830 1 -10.024 -8.83973 20.3224 -2.77567 -1.70455 1.31788
831 1 -0.397867 -13.0567 -22.5527 4.34943 2.17475 -1.33808
832 1 -7.28811 -4.14173 13.1441 -3.39774 -1.19043 -1.11909
833 1 -10.6597 -4.72155 -7.80628 2.57789 3.58055 0.161771
834 1 2.02907 10.3553 -1.28737 -3.72477 -1.17437 2.9188
835 1 2.51089 9.61801 -20.8134 1.04279 -3.46297 2.07579
836 1 4.10878 -12.4235 20.8587 1.89172 1.41595 0.729691
837 1 -18.6813 -14.6267 -6.86193 -4.59013 -2.55934 1.29489
838 1 22.5894 -21.3479 1.2773 4.15724 -1.98478 5.14741
839 1 21.5526 21.5775 -6.07207 -1.68312 -4.00592 -2.5301
840 1 4.5515 -17.1539 12.5136 -0.0671937 2.89636 2.91441
841 1 18.6253 0.730956 7.96434 0.841205 -0.931764 4.52098
842 1 -6.66865 -23.7564 -3.57516 3.08618 0.891269 3.75631
843 1 19.3331 -4.28166 17.2838 -3.30281 -3.13589 1.56766
844 1 20.9979 -19.5158 -23.3324 0.486932 -0.962823 -1.59357
845 1 18.4577 7.62626 -0.847046 -7.65361 1.05125 -0.857541
846 1 7.27103 4.85351 -12.1973 -0.25337 0.42632 -0.187142
847 1 -14.4763 46.3115 -13.3392 5.13736 -1.40963 3.92005
848 1 -3.75411 17.4701 -14.0117 0.95508 3.33449 0.336888
849 1 -23.5471 -13.8278 -8.6899 0.0281177 0.389229 3.33932
850 1 14.9632 -20.2603 -20.4343 5.59982 -1.09924 4.02577
851 1 -22.711 19.563 -13.2391 2.57344 -0.330175 8.72526
852 1 13.808 -4.96033 0.113932 -4.9118 0.744345 1.60576
853 1 12.8424 11.002 -17.0048 5.5319 0.370127 -2.52612
854 1 -20.9279 -13.0416 1.86124 1.14669 3.8749 -5.89448
855 1 -16.809 24.0961 -19.002 3.92476 -0.229156 3.10878
856 1 -22.1358 -4.4108 -9.34686 -1.68527 2.24673 0.314051
857 1 23.1035 -5.10197 11.1718 -0.133409 1.74436 -7.06335
858 1 17.386 -13.962 13.3995 -4.6903 5.23256 3.28728
859 1 -13.1367 -7.2087 -1.38768 3.93705 4.89192 -3.91953
860 1 9.58434 -9.67114 -14.8522 0.00469473 -4.16774 0.802978
861 1 22.5795 22.098 -11.4007 -0.858624 2.63251 1.5393
862 1 -1.12213 13.7158 -7.07458 -1.94887 2.35588 2.03404
863 1 17.599 -18.7256 5.74106 1.50468 -1.2455 1.17697
864 1 -17.1307 4.70731 19.6819 3.50441 -3.08211 1.21028
865 1 -0.338555 -21.0737 12.7604 1.99283 -0.541062 1.75603
866 1 13.6784 -2.96562 17.5144 0.199513 -1.76953 1.61329
867 1 -1.11188 13.8971 18.1239 2.8231 3.81369 -0.826694
868 1 2.85816 18.0409 -4.79335 0.557323 -1.26955 -1.15075
869 1 1.43669 16.2833 2.19508 0.680298 0.67783 -0.263591
870 1 12.973 19.3786 17.1347 2.73294 -3.62879 2.13277
871 1 6.78057 9.51165 -20.0242 -1.55466 0.215584 -0.475539
872 1 -3.71082 -4.34957 -21.6934 1.69197 0.27225 -1.92367
873 1 -6.07089 1.12442 -23.9971 -1.83204 1.37226 -0.98254
874 1 10.7244 -0.472369 1.16715 0.833039 4.33161 -1.28477
875 1 17.7874 12.8601 10.039 1.44919 -1.4739 -2.34918
876 1 13.5291 -15.7898 -9.04961 0.056974 0.573687 1.46931
877 1 2.95262 -19.077 16.9652 -2.80867 -2.25457 3.51326
878 1 8.53302 12.328 23.6881 -1.30481 -1.62872 2.22565
879 1 17.0855 6.44549 -17.3825 -0.070985 1.79104 -1.78645
880 1 5.20938 14.5085 20.0014 -0.464644 0.384014 -2.12277
881 1 -3.09412 -7.15148 19.3404 -2.69407 -1.80536 -1.03181
882 1 -13.5035 -3.14013 0.486897 0.757837 -0.771679 -1.48419
883 1 16.7721 16.3003 -6.87142 7.18466 -0.166293 -3.22945
884 1 18.6979 -20.1868 -17.4436 -2.20716 -0.18623 2.27433
885 1 -5.35944 -20.0176 -1.27 -4.32842 -1.88869 1.4712
886 1 -7.15098 23.6678 4.55179 2.96599 3.09882 0.688354
887 1 10.8453 -24.1756 18.8666 -4.32746 -1.68817 1.89523
888 1 -7.37164 16.9688 -17.2746 1.76941 -0.560975 6.04847
889 1 -15.4145 -0.46581 17.168 1.94896 -1.36408 -4.14508
890 1 14.3154 -21.9028 13.5627 -2.24865 -6.412 -2.91731
891 1 -23.1989 -1.76787 5.05852 5.28974 0.309585 -1.48322
892 1 3.67426 -9.74205 -4.94524 -3.29099 -1.33395 -1.34144
893 1 20.5426 -6.52699 1.76793 2.84753 -1.15672 5.14393
894 1 1.795 15.8511 22.3964 6.09624 1.29673 -2.05017
895 1 2.64868 -23.867 7.63587 -0.0520577 -1.44701 -2.34641
896 1 11.1259 -0.231801 20.8802 -2.44943 -0.452929 -0.552345
897 1 -12.2877 -21.8405 10.2206 0.156384 -3.91629 -3.86626
898 1 15.8022 2.01372 -21.5634 -1.62119 -3.87176 3.63594
899 1 16.1473 -22.3541 17.0808 -0.541479 2.38879 0.616152
900 1 -14.8257 -14.2591 -10.797 -6.43739 -0.137263 3.76345
901 1 4.54696 -22.6556 9.29508 -7.37529 0.276885 1.67933
902 1 -9.67679 15.6795 2.21504 5.9119 -0.607735 1.45092
903 1 -8.16877 25.8772 -17.3119 -1.59358 0.330751 1.22053
904 1 -9.05545 -4.98492 -5.33078 1.81787 1.38784 -2.24549
905 1 -23.8213 -8.48587 24.0284 -0.239345 -2.20384 0.670444
906 1 -7.05436 -21.766 18.111 0.105185 6.17096 3.83439
907 1 -16.668 2.09242 -10.9735 3.22224 1.22304 6.32744
908 1 -7.80542 -16.2653 12.577 0.664092 1.43757 -2.72736
909 1 16.3406 46.5039 10.3903 2.46673 -0.465856 0.297231
910 1 -10.1877 5.68851 -4.2595 -0.123269 2.7294 3.64618
911 1 -1.38834 16.2619 -22.8992 1.32849 5.25455 0.574273
912 1 -14.8615 24.4689 -8.14066 5.41622 0.888971 -4.67993
913 1 -4.61137 22.2683 17.0099 1.90055 0.340479 0.523941
914 1 -23.2481 16.2595 10.8929 0.637685 2.38116 -2.12785
915 1 13.3359 -8.1574 -16.7076 0.674853 -0.430764 -5.116
916 1 -14.9187 -16.7384 18.5062 -0.535881 0.0807633 1.76599
917 1 23.4322 4.40913 -21.7349 -0.836564 0.589638 1.48647
918 1 -3.85158 7.83712 1.93076 3.90947 -2.64547 -0.565508
919 1 -9.92217 17.2272 15.1464 2.74229 -0.375833 0.0435684
920 1 3.09482 16.083 -22.5884 -2.82507 -1.55707 3.7356
921 1 10.2001 -8.41656 -19.6185 -4.61025 -1.06634 2.08674
922 1 -11.778 2.04717 -16.8525 -2.98385 -2.92123 -1.46156
923 1 0.995137 -11.1107 1.63348 1.16985 1.99888 0.866293
924 1 -6.79535 18.4227 5.33501 5.90241 0.120526 -5.09682
925 1 2.20703 10.065 -3.89623 2.88287 3.02277 -0.523493
926 1 1.81084 -14.3678 8.5263 1.09641 3.85127 -1.3478
927 1 8.0761 15.0237 19.219 2.35226 2.47688 -0.320706
928 1 9.69688 -18.8522 9.33424 -5.03321 2.82559 0.683101
929 1 -4.91823 -13.5949 -6.63653 4.01945 3.40305 -1.89262
930 1 -19.1483 -17.4516 -14.8907 -3.49643 -0.364639 -1.08731
931 1 18.3199 -3.9255 -7.93354 0.905861 1.34141 9.7026
932 1 -18.5594 17.4163 16.1762 0.763499 -0.404146 -2.50437
933 1 -15.5209 -21.0673 -22.9411 5.53244 -0.795799 -0.374159
934 1 0.293241 18.555 -21.9954 -2.39962 -3.33561 -1.93904
935 1 -23.6618 -11.608 -0.891284 1.36467 -0.0196743 -2.90985
936 1 8.35326 12.2137 15.9321 0.844727 -1.64379 1.26809
937 1 4.15199 17.3496 20.8506 2.98739 0.812808 5.02489
938 1 17.8302 10.7352 4.3708 3.97065 0.398225 0.403075
939 1 -5.85117 -12.8172 -17.2741 -0.953483 0.43548 -0.114235
940 1 19.3952 3.96579 -9.17045 0.479579 2.09078 3.97856
941 1 -22.3506 21.6902 9.03099 0.847558 -3.1272 -3.70228
942 1 -5.1179 -15.5438 -16.845 0.383472 -1.76355 0.888908
943 1 15.9325 -7.50146 3.09534 -2.108 1.59382 -1.82818
944 1 -16.913 -3.10109 23.4515 0.316023 0.810996 1.43319
945 1 6.40322 45.8634 17.3492 3.55391 5.70273 -4.80982
946 1 -14.5741 -8.6957 5.10891 3.40606 0.897455 0.31038
947 1 -12.9318 19.1 19.9331 -0.609932 1.51575 0.152657
948 1 -20.736 6.386 -5.12148 -3.11122 -4.42921 6.09271
949 1 -1.61156 14.894 20.9178 1.84924 0.983096 -2.91151
950 1 -20.2629 6.65041 10.6313 2.38745 -1.88769 -2.80823
951 1 -9.29225 45.876 -14.8018 0.775227 -3.8653 -1.08257
952 1 12.021 -15.6755 -11.6242 -0.540145 -0.643013 -1.51666
953 1 17.0591 -2.85876 2.68359 -7.36208 -2.67714 -2.42889
954 1 16.5619 3.39121 -12.1441 -1.86406 -0.14289 -2.89448
955 1 -12.7787 18.9115 -19.3994 1.51404 1.17217 2.86581
956 1 -10.617 -7.01269 -9.47233 -1.23716 0.121739 -1.30988
957 1 -2.49404 -3.05667 15.7834 -1.92846 -1.68421 -3.07079
958 1 2.72734 13.7493 18.4842 0.838112 1.77214 -6.30267
959 1 -13.0955 -15.1996 23.7447 -2.15844 3.74118 0.843241
960 1 0.302133 -20.7232 4.83514 3.04361 2.46706 -3.56695
961 1 -7.39012 11.8828 2.57613 -1.50023 -6.66673 -4.1853
962 1 -3.33919 7.56186 -8.0181 2.90577 1.63286 1.52756
963 1 -15.9678 25.3662 -11.9062 -2.0433 -5.92659 -2.27629
964 1 12.1753 -15.9913 -22.4649 -2.66529 1.39263 3.53334
965 1 -13.8739 13.2407 7.96835 -0.0485774 -1.98495 0.973864
966 1 -17.3894 -4.78363 14.4207 -2.14912 -4.41096 5.78256
967 1 17.8956 -5.37651 -15.5672 -4.02661 -0.1617 -0.304711
968 1 -2.04308 25.3625 -15.2517 -1.58339 -1.87563 2.76555
969 1 15.0662 45.3589 1.14176 0.126435 6.71091 1.11538
970 1 -2.99768 -23.3121 -10.4295 -0.833701 2.35978 -2.16914
971 1 14.305 -6.49195 21.8851 -0.13062 -3.48191 -2.96628
972 1 -8.28747 -17.9458 0.477752 -0.306282 1.62505 1.696
973 1 -11.9425 -1.70343 16.9238 -0.328889 1.82355 2.12423
974 1 -0.89571 24.6243 -12.7171 1.51496 1.847 -2.92481
975 1 -8.62497 -10.3952 8.13771 -5.56758 -4.28117 -4.5999
976 1 -19.6307 -5.08036 11.4908 1.27719 -0.706877 2.90436
977 1 4.99437 46.6944 13.1587 4.7106 0.141212 0.723351
978 1 4.66197 15.1403 22.8281 2.24248 -3.31803 -3.99326
979 1 8.85893 23.6531 -18.5725 -3.73186 -0.296206 8.68627
980 1 2.82133 23.6834 11.1017 0.18294 3.24459 -2.9275
981 1 5.91517 -5.70189 -2.57754 -0.788079 0.178641 1.52488
982 1 -5.53938 -6.47902 5.98516 0.206151 -1.22121 3.18187
983 1 -21.3105 8.49795 15.5732 2.89894 1.69912 2.85832
984 1 -14.3614 19.4837 -4.37265 0.423235 -1.44728 -1.17241
985 1 -17.8038 19.7027 12.6115 0.225976 3.71053 -1.14063
986 1 -2.00546 6.46251 12.9191 -1.35284 -1.96673 3.42835
987 1 -21.1769 -19.4979 9.52737 -1.78106 -3.20596 -3.92133
988 1 -10.7295 -22.9522 8.13221 -3.36568 -2.86045 3.77189
989 1 9.58473 -0.270359 -4.79358 3.44856 -2.33759 5.5143
990 1 11.8824 -7.44386 13.2836 -0.491752 0.926075 2.45259
991 1 -6.41599 -6.1955 8.67936 0.969443 -2.09825 0.271563
992 1 -21.546 11.6673 5.60799 -1.00294 -2.11269 -3.57651
993 1 22.9478 0.219696 -23.6158 -1.68158 -4.5494 -2.70296
994 1 22.5759 -15.579 14.7223 -1.14056 1.41214 -0.980768
995 1 6.59205 2.20733 1.31608 -1.63745 -0.104088 1.68823
996 1 20.7693 9.92781 -17.8262 0.824388 -2.44917 7.00163
997 1 -23.8444 24.2536 -23.6234 4.85737 3.93127 -2.19361
998 1 -1.47833 12.117 12.3202 -1.17974 1.91283 0.143943
999 1 23.1169 9.43325 7.08441 3.68463 1.33305 1.9369
1000 1 16.6958 18.6432 -8.73302 1.70642 -1.32915 0.442165
1001 1 -19.3095 -0.832119 -6.749 -0.510851 -4.65163 -0.673044
1002 1 -12.2713 -15.7043 1.42573 -1.15417 2.95306 -1.00829
1003 1 12.4801 -15.4748 10.0945 -0.423668 -0.497604 0.297201
1004 1 -23.948 25.3994 7.35589 -0.267509 -0.0623777 -3.21826
1005 1 -14.7384 16.7262 2.39547 -1.22244 3.08487 -6.80794
1006 1 23.3885 10.8576 15.9009 5.24509 0.783884 -3.07964
1007 1 14.7453 -0.327037 17.2429 -3.70563 2.05708 -1.03083
1008 1 5.00071 -4.42978 17.1402 -2.71698 1.25323 4.0452
1009 1 8.3828 -20.2715 3.53397 -1.41832 -6.77543 -0.263019
1010 1 -13.0608 4.67101 -9.21535 -0.123237 4.78208 0.677577
1011 1 -18.6413 3.00913 -1.97542 0.909402 0.447449 -1.77637
1012 1 2.09315 2.78691 0.310345 -1.60559 1.66828 5.01353
1013 1 5.76061 -16.9652 1.60873 2.18289 -4.85111 -4.16913
1014 1 -19.6124 -24.2605 3.54991 3.41212 -0.352713 1.53941
1015 1 1.29871 6.35886 -22.4351 -3.31226 1.02506 -3.66532
1016 1 22.688 5.25747 9.16867 -0.766043 -4.37008 4.35834
1017 1 -7.37464 4.173 17.4988 1.50729 -0.405228 1.65955
1018 1 -21.9901 -22.8176 7.58778 0.410121 0.280245 -3.96433
1019 1 7.06744 17.2776 3.29887 0.408586 0.995195 -2.8307
1020 1 -18.5609 46.7672 7.79491 -5.73387 -1.45757 0.535624
1021 1 22.1886 -19.365 -5.35304 -3.76248 -4.35829 -5.37906
1022 1 -10.1513 -20.9601 -12.526 2.45021 -3.69874 -1.15827
1023 1 10.9848 -0.367117 6.16051 -3.38149 5.65683 1.54999
1024 1 -3.83507 6.88604 21.4509 -1.66672 -2.71386 -5.02553
1025 1 10.0348 5.49109 -20.0836 4.93938 1.96445 -1.11339
1026 1 1.66471 11.988 -11.095 -1.01642 0.929874 -0.549489
1027 1 -22.5704 -1.50148 10.6651 -3.00847 -3.64647 -5.12814
1028 1 -7.43198 -12.7051 -12.0576 3.4094 3.00282 1.26021
1029 1 12.8079 9.96739 -2.08743 0.536006 3.05787 4.09243
1030 1 -17.2259 -15.6121 23.8003 4.49416 -1.00011 -3.45264
1031 1 -6.07477 -11.1062 -5.90571 0.856089 -6.64699 5.15317
1032 1 14.5981 6.86791 19.4092 3.72472 2.30866 -2.4952
1033 1 -3.14505 -17.0459 1.71515 -0.655541 -1.61018 2.07412
1034 1 -12.5532 12.0037 -11.5402 -0.75145 0.542995 -0.234512
1035 1 9.41829 18.5726 -2.55939 1.21723 -2.55356 -4.29013
1036 1 1.85083 -14.922 18.3565 2.65869 1.28868 0.297298
1037 1 -12.4802 -18.4196 16.6521 3.48508 5.11269 1.0328
1038 1 -0.943534 8.44878 11.0099 -0.949229 -0.551566 -0.564966
1039 1 19.3809 22.4752 -9.42601 -2.07068 2.48581 -2.44185
1040 1 10.3086 -4.01839 -22.8727 -5.3312 -2.87511 -1.46174
1041 1 -2.89689 8.57248 -13.2338 0.823285 -1.25601 2.18895
1042 1 10.9 -8.14774 -23.943 3.47267 0.0569174 2.53466
1043 1 15.0865 8.95503 -4.52671 -0.890218 -2.62115 1.55156
1044 1 -3.88163 21.3957 -14.1357 -2.42023 -1.0429 0.366061
1045 1 -3.78101 -2.07498 22.639 2.00821 0.528046 -3.00128
1046 1 16.6212 16.5552 -15.8902 -0.542891 3.22715 2.09806
1047 1 -19.1831 0.70259 18.7404 2.51172 2.43929 0.761814
1048 1 -0.155298 1.36388 20.2284 -4.37725 -3.45141 4.44063
1049 1 22.8726 -1.28524 -12.4437 3.50058 -2.63326 -5.79785
1050 1 14.8388 21.2202 15.7832 3.34018 3.07332 -0.870302
1051 1 0.00366899 2.13428 10.0858 0.821509 -0.25101 1.12123
1052 1 -19.6634 -4.38688 -20.0639 7.98072 0.147692 1.05887
1053 1 5.87183 5.78339 -21.9018 -0.834814 2.16236 -2.15863
1054 1 -16.8234 22.4279 0.647896 -2.05016 1.30552 0.918178
1055 1 -7.43372 18.4222 14.0463 1.72607 3.26674 0.85102
1056 1 -10.7574 20.7952 6.6935 -5.62741 -4.39277 -3.89882
1057 1 -7.1149 -18.7345 -15.6643 0.777876 -1.67626 1.30498
1058 1 1.18034 -0.758533 -10.3057 4.45235 3.45598 4.02083
1059 1 6.32832 -22.4664 -17.5739 -1.50861 3.91921 0.934415
1060 1 -19.568 -10.1459 5.30876 -0.620755 -0.442113 0.702971
1061 1 8.22954 7.86214 -14.3835 3.92906 -0.14147 5.10991
1062 1 -7.34957 -1.65102 11.7299 -3.20539 1.46028 -6.0724
1063 1 0.219416 19.562 10.3089 0.14149 -1.12579 -1.39366
1064 1 14.6936 -18.6582 6.42336 2.11312 0.683077 -4.4296
1065 1 12.4843 20.6655 -17.9988 1.57374 -0.306373 0.23296
1066 1 12.4954 -4.29581 22.6984 -3.83148 2.56616 -0.624375
1067 1 -22.3122 6.01882 8.35098 -0.454167 -1.87823 -2.27801
1068 1 -2.4477 14.2248 2.56275 4.17541 0.572065 1.8965
1069 1 -22.376 18.8814 -18.2345 3.74394 0.85112 0.600974
1070 1 -8.22038 7.56202 10.9028 2.37194 -1.91967 -0.80731
1071 1 -18.6182 24.35 -12.0455 -0.00267394 4.56263 4.04813
1072 1 13.8877 8.9898 -19.0574 2.7404 -6.49956 3.09336
1073 1 -0.520838 46.5436 -11.4692 -2.5381 4.00204 3.17716
1074 1 -9.76574 11.9098 -17.1817 -2.73394 2.15384 2.5764
1075 1 0.806532 11.9638 17.1053 2.87097 0.419804 3.10223
1076 1 21.1534 5.9599 22.7356 1.53664 0.0881821 -3.34325
1077 1 15.8126 -7.24878 -9.05231 0.707487 6.04439 -1.31196
1078 1 7.59633 -9.30298 11.5736 1.47077 1.3388 1.80446
1079 1 -14.7162 -0.119692 11.3662 -2.85911 -0.558002 0.368537
1080 1 -19.7451 -5.43603 -8.01845 -4.89508 -3.18529 0.136495
1081 1 7.6498 -5.06013 16.3561 -1.10776 4.41012 -1.03
1082 1 -16.1542 -18.0215 -7.85589 1.78045 0.126079 0.405328
1083 1 -0.407916 22.3648 -18.8097 -1.49899 -0.802417 2.89409
1084 1 -3.20368 -17.5479 -4.15815 0.787976 2.90084 1.77573
1085 1 -9.60964 -14.2562 -2.05427 -0.450258 3.04215 0.380322
1086 1 -13.6825 9.2863 -4.67571 -0.542378 -0.685225 2.29782
1087 1 7.90079 -1.99943 -18.9687 -0.241251 -3.67008 0.75301
1088 1 -21.7038 23.0293 4.63321 2.51359 1.66506 -1.85218
1089 1 -15.6856 6.81486 17.0651 0.0512868 -5.01846 1.71111
1090 1 -21.6287 -18.3974 -11.6085 3.49635 5.31676 1.77703
1091 1 -14.8402 9.72983 7.23354 1.12218 -0.482672 4.38984
1092 1 -18.9799 -17.4477 -7.44937 -0.785668 1.5224 -0.997271
1093 1 23.2628 9.27537 4.00997 4.21819 -4.36029 -3.67044
1094 1 -24.1396 19.9359 -23.4943 0.694455 -4.35086 2.58042
1095 1 -6.50754 23.8865 -12.093 -2.62149 -0.541468 -1.84239
1096 1 9.06336 17.4736 -13.6653 0.413013 -2.26107 1.93109
1097 1 15.5466 25.5354 12.7834 -3.34091 2.47033 0.120728
1098 1 -12.6281 -3.86992 20.3265 -3.31573 -2.77377 2.69889
1099 1 17.575 12.6097 17.5747 -0.52323 -0.236964 -0.935882
1100 1 9.06386 -9.01582 20.4098 4.14172 0.357332 -1.81577
1101 1 7.95478 -16.0322 12.6145 0.100682 1.96587 -2.34466
1102 1 14.682 -14.8804 16.2705 -2.28666 2.43468 5.76176
1103 1 20.8104 6.83389 16.4313 1.98587 0.202187 -0.0499853
1104 1 -21.9141 -2.91922 7.36492 1.7012 -2.80493 0.602252
1105 1 21.6394 0.259438 -0.207364 0.293732 -1.62365 3.24456
1106 1 -16.8562 -18.7504 3.30027 0.0710795 4.33222 1.73447
1107 1 1.55762 -12.7189 -0.520871 1.09058 1.51326 0.145251
1108 1 14.5998 15.7227 22.2458 -2.88266 -2.48049 4.709
1109 1 -18.3383 -6.49689 4.14429 -2.01262 4.14962 -1.00787
1110 1 -14.3275 25.6646 9.85048 1.46022 1.13141 -0.834141
1111 1 12.7976 -8.88798 9.06832 3.70053 3.19051 -1.37706
1112 1 -1.68192 -19.3038 20.4742 5.15465 3.89675 -5.86671
1113 1 -19.4981 23.0854 23.7516 1.54073 -0.978041 0.72293
1114 1 -18.4839 -0.808126 10.5802 3.04648 -3.32827 5.17154
1115 1 22.2072 22.3017 23.2403 2.28356 -3.51328 0.516415
1116 1 -15.6262 0.426642 6.00232 1.95406 3.68432 -1.24319
1117 1 -3.37955 14.4348 10.3142 -3.50051 0.365887 1.11168
1118 1 20.176 -2.69438 -15.5229 3.60922 -0.0195137 1.51483
1119 1 9.37769 -12.5814 5.33537 -6.5392 7.83065 1.59755
1120 1 -5.82108 -11.8643 -1.2937 -4.09767 3.68788 -3.12029
1121 1 11.9813 -5.04429 -20.7408 0.322296 -0.58296 -0.428812
1122 1 -9.84828 23.1697 -1.56652 -2.12127 -2.7412 10.5101
1123 1 15.3836 -7.91637 -1.75991 -1.92907 -2.77645 3.47238
1124 1 -2.85224 11.8346 -18.0632 -0.709681 -1.17439 0.0567847
1125 1 -23.2234 7.42937 5.85472 4.47529 -0.147713 0.784646
1126 1 -0.861315 -14.6607 -11.4327 3.48935 0.799649 -0.246504
1127 1 12.5765 17.2884 -8.55778 -3.01118 -0.983893 0.300988
1128 1 0.880205 12.7857 -0.786493 -6.49431 -2.48881 -0.968984
1129 1 2.40339 -8.62398 22.3372 0.562009 0.927818 -0.50257
1130 1 -2.9989 14.6215 -16.9538 0.0587339 4.69445 -6.9808
1131 1 17.6713 -7.73546 -4.73363 -4.62672 1.82367 1.39633
1132 1 22.3609 -5.06641 17.7819 0.0847501 8.08562 -0.810177
1133 1 10.1934 12.1733 18.275 2.13205 -1.52226 -1.16237
1134 1 14.9078 -22.1406 19.5739 -1.91 7.0962 4.5196
1135 1 5.18441 -1.14034 23.0776 0.11624 0.146553 4.83224
1136 1 -17.9873 -20.7248 23.0533 -2.90923 0.912766 2.57932
1137 1 5.77499 3.50569 3.86255 6.3735 0.895873 0.53372
1138 1 -21.6124 46.3526 5.60104 -2.67625 -2.23529 3.10321
1139 1 -7.37302 9.55711 4.19736 -1.09097 -2.01094 0.688367
1140 1 15.9762 -9.81373 -20.2068 3.76607 -4.10799 5.2566
1141 1 -21.0271 9.29141 11.5953 -3.07424 0.991295 -2.92203
1142 1 8.32975 14.6296 9.72049 1.01206 -3.10789 -1.55611
1143 1 2.41366 -9.38998 -12.6121 1.99075 -3.57079 -4.48292
1144 1 19.9399 0.324764 -10.666 5.25984 2.07213 2.66753
1145 1 2.29107 23.128 23.0856 0.113138 -1.21156 0.896321
1146 1 9.70097 19.4391 18.6762 0.620387 -5.19109 -3.70338
1147 1 -4.41731 10.2226 -2.06836 0.412798 1.1037 2.8589
1148 1 -10.6021 10.7762 13.3444 0.349129 5.903 7.25818
1149 1 2.25379 -15.7108 10.9467 1.49925 3.12723 -1.47804
1150 1 -13.6412 15.3062 9.69779 -0.860756 -0.206433 3.24126
1151 1 -20.2607 -23.3784 17.6931 -0.361335 -2.20789 -1.42129
1152 1 -15.9361 14.4739 17.7917 -1.75195 -2.75292 -0.618846
1153 1 -3.37581 -21.3101 0.803347 -4.94137 -0.367807 2.67815
1154 1 3.82185 12.2845 -20.6676 1.11478 1.65151 2.11611
1155 1 8.14895 -22.2485 15.6711 2.89772 0.823319 0.206183
1156 1 -15.1611 -11.2047 23.5767 -6.36388 -2.08719 2.25415
1157 1 3.4756 0.726261 -11.6778 2.75244 -0.966255 -3.10318
1158 1 -16.5107 2.25863 17.9868 -0.333004 3.12442 8.57219
1159 1 19.7681 -7.68306 12.9087 -4.963 -2.3144 -1.3331
1160 1 -9.91752 6.59027 -10.195 0.106433 3.30635 -2.59913
1161 1 -8.08902 46.8599 -19.0289 4.77853 1.31927 2.68434
1162 1 9.79953 8.78133 2.49105 0.0571687 2.94725 -2.99571
1163 1 -19.0549 44.8457 13.1296 -1.66657 4.01952 4.07237
1164 1 -20.4335 -15.1571 9.64711 -3.03968 -0.423472 -6.30763
1165 1 15.3912 23.5383 0.0621675 -3.85665 -1.17583 0.334555
1166 1 -17.0086 25.8302 15.8959 -3.16925 1.75322 -3.98392
1167 1 0.961685 15.8042 19.5787 1.41541 2.9156 1.12521
1168 1 11.6018 -9.65744 -2.29905 -0.162308 -3.85084 -3.2301
1169 1 13.1455 -9.32051 20.1603 2.20853 -2.51309 0.199507
1170 1 3.56001 14.8221 10.3393 0.888267 0.586878 -1.31035
1171 1 21.2964 -1.36831 -8.43212 0.322623 1.24063 -2.84124
1172 1 -22.3387 -16.7343 -17.3807 1.12134 4.68568 6.80629
1173 1 6.64687 -20.458 20.4382 1.01192 -5.00115 0.383319
1174 1 -21.1241 -20.5334 -19.06 -0.490507 -3.62663 1.11798
1175 1 -11.0244 15.2997 22.0855 1.01958 -1.83195 0.606524
1176 1 -2.221 -11.6551 14.7962 1.06208 -2.71596 2.19432
1177 1 10.6674 2.16516 -17.1266 0.527372 1.30095 4.84589
1178 1 -4.39281 6.81266 9.6436 -3.47368 -2.14517 -0.724428
1179 1 8.12358 -8.64357 -10.0879 2.1823 -7.93528 2.03964
1180 1 -9.77417 45.5947 -11.9028 -1.64034 -3.14697 4.79172
1181 1 9.76224 17.9857 -9.68912 -5.03478 0.591954 -1.44689
1182 1 20.7804 7.71172 0.69567 -0.864672 1.58256 4.66309
1183 1 3.73709 -6.33849 -14.0583 -1.68456 -0.726877 -0.413722
1184 1 6.52032 20.8862 23.3992 -1.32107 -1.64908 3.36628
1185 1 15.3415 11.1113 23.7848 1.62317 0.380051 4.45638
1186 1 5.36641 -9.36827 -0.32181 0.284034 -1.20397 -4.61597
1187 1 -13.4234 16.7051 -7.49372 0.194304 3.53479 -5.55546
1188 1 4.5054 -1.83807 -0.145961 1.45355 4.42675 -1.07898
1189 1 14.5456 14.4474 3.76065 -1.79281 -0.479938 1.42744
1190 1 14.715 -2.12925 -17.2422 -1.16798 -1.23874 1.40356
1191 1 -2.69742 -1.64151 -21.232 2.93191 0.0876369 -2.34144
1192 1 -14.1846 0.37733 -11.0175 -0.0794984 2.93924 -3.61919
1193 1 9.61662 -0.273842 18.5599 -2.46437 2.83385 -4.37486
1194 1 8.61336 17.4822 -6.93469 0.65342 0.7323 0.326033
1195 1 13.6659 -10.1434 -14.3528 -0.443729 3.99165 -1.14737
1196 1 6.16607 14.2946 -11.847 1.10797 1.1725 -0.903976
1197 1 -18.7138 18.425 20.7976 3.25858 2.32872 -3.52628
1198 1 20.0636 -24.0399 9.51582 3.2383 -0.698338 -2.59367
1199 1 -12.6443 7.62669 -13.2234 -4.21468 1.79496 0.0801433
1200 1 11.2718 -11.2994 12.4245 -0.0163424 1.35747 1.27926
1201 1 -24.0155 -20.3948 19.8996 -4.30335 -3.89739 -3.10258
1202 1 -15.0333 -1.00667 -5.17079 -2.59923 4.47357 -1.33767
1203 1 -14.723 -12.1563 -15.4317 2.74321 3.83694 -4.36767
1204 1 -2.34682 23.2331 1.01507 -0.389965 -1.53704 1.7681
1205 1 -4.67831 -18.1076 12.9354 2.77953 -2.49927 0.950442
1206 1 -23.4363 -21.5306 -23.2274 -3.68762 -0.810998 -0.0850712
1207 1 14.2346 -5.36223 -17.5311 3.8825 3.56417 5.79195
1208 1 22.3998 -6.39104 8.84338 -3.52192 -3.73139 -4.01183
1209 1 1.64524 -5.76439 23.0029 0.756411 0.282227 -0.719691
1210 1 -3.80346 20.831 -2.20975 1.10893 2.02763 3.16115
1211 1 -18.0597 -11.335 10.4525 -2.31201 3.80582 2.48327
1212 1 19.9609 6.24791 -10.8878 -1.60704 -0.584116 -3.13034
1213 1 -22.5553 -16.2367 17.5558 7.11826 0.232691 -2.48138
1214 1 14.9894 -1.40961 -0.581342 -0.920435 -4.22182 0.518554
1215 1 6.80278 10.4115 -8.52844 -4.27978 4.35749 0.751728
1216 1 12.9505 -3.7527 -9.22498 -3.86285 0.147619 -2.27607
1217 1 15.9707 -15.4513 1.9324 0.708781 0.47997 1.33763
1218 1 16.1799 -3.85722 -10.6108 2.43596 -2.84307 2.11416
1219 1 12.2968 13.6245 9.56485 -3.33391 0.370711 -0.114904
1220 1 -21.7473 23.3297 15.5509 -1.41674 2.04492 -3.88611
1221 1 2.241 22.3891 -20.3794 1.04288 -0.582306 -0.783188
1222 1 19.4641 22.0561 12.4341 -1.99619 2.37585 1.72467
1223 1 -23.1794 8.41561 9.49842 3.22533 2.60847 -2.58003
1224 1 13.7211 -7.77653 15.8417 -3.3053 1.51967 3.56596
1225 1 0.498644 -20.9767 19.7347 4.30584 0.323358 -2.81167
1226 1 -21.7621 14.1511 2.48943 0.988385 0.232241 -6.28465
1227 1 -2.83161 -7.64633 0.115534 -3.69741 -1.4249 -0.990874
1228 1 -24.205 -20.905 -12.2849 -0.0639972 -0.396644 0.871838
1229 1 19.8169 -18.9464 -1.59999 2.61134 2.40885 -2.43806
1230 1 -13.4392 -18.8679 -10.4154 -3.07355 0.00191421 -0.635915
1231 1 -20.0226 -9.44299 -4.97212 0.663883 0.330919 0.0238785
1232 1 -20.1126 18.4366 23.3285 -7.21412 0.964493 0.750541
1233 1 -5.15544 -0.332139 -21.577 -1.40626 -1.55123 -2.41051
1234 1 14.4054 13.999 6.67684 3.28716 0.852138 1.47298
1235 1 10.5795 16.672 1.86791 5.44836 -1.82962 3.20694
1236 1 -6.29403 -20.2976 15.5983 2.64619 -0.326893 5.65693
1237 1 -18.0348 23.5646 14.4509 0.810683 -0.986029 5.63595
1238 1 10.1075 -2.00094 -12.9697 -3.06267 0.51731 -4.03849
1239 1 -1.84299 -23.5832 6.31905 -0.27137 -3.69406 0.0622716
1240 1 -5.77132 -23.3158 3.11903 -0.479686 -1.56295 -2.68425
1241 1 12.4231 14.7573 -18.7719 6.05705 -2.90058 3.17151
1242 1 6.82553 -18.8462 -14.5755 -1.68048 3.79632 -0.268054
1243 1 9.73074 18.939 -21.1679 0.372764 -4.65124 1.68994
1244 1 -17.9067 2.37409 8.36978 -2.25279 1.3792 -3.26806
1245 1 -18.6492 11.7224 -21.9476 2.7204 -1.597 -3.7232
1246 1 -4.97857 -15.3542 5.04278 2.9125 1.68164 3.80291
1247 1 -3.95165 -2.23962 -9.8332 5.3488 1.80789 -0.107698
1248 1 11.24 4.32336 18.4109 5.18581 -0.720813 -5.27521
1249 1 8.20761 14.1422 -21.7587 1.08047 -8.27799 -0.75682
1250 1 6.67488 4.05001 20.964 -1.57352 3.22796 5.59093
1251 1 21.0562 1.16203 21.7675 -7.19903 3.17988 -0.0371158
1252 1 21.9052 -20.8102 -1.41395 -0.799303 -3.65804 5.96252
1253 1 12.647 21.4092 -2.52388 1.73394 0.210981 0.603851
1254 1 -22.0937 -20.3425 3.81528 0.813534 1.28956 2.96514
1255 1 -5.65543 -11.1026 8.74926 -1.79955 -5.23311 -0.475146
1256 1 6.29712 -19.6241 -20.9416 -1.284 -0.264181 3.97308
1257 1 -5.77085 -23.3619 -11.1344 1.01831 2.85484 2.63893
1258 1 -17.2557 10.0239 21.2912 -2.25446 -2.54037 3.2034
1259 1 19.4539 -11.6908 6.29886 -1.13607 -1.87413 -0.339009
1260 1 3.74875 -11.0706 -16.4286 -0.273433 2.18589 -2.23814
1261 1 11.0404 -8.62863 -9.33631 1.97544 3.5906 2.39811
1262 1 13.7099 -15.5198 -6.05821 0.401251 0.442781 -2.23599
1263 1 -13.8742 -5.52113 -3.45865 5.85512 1.16313 -2.30637
1264 1 -21.3935 -10.7182 -2.49755 2.72368 3.5516 -0.164655
1265 1 -6.4963 14.8309 -11.1098 -0.595468 -0.660491 3.08988
1266 1 17.3086 -8.84406 5.37175 -4.22252 -3.02522 -0.224923
1267 1 -23.9243 -14.705 2.68214 -3.91241 -2.49325 -1.00705
1268 1 -21.5861 -13.953 -18.3778 -0.495739 -3.44512 1.33097
1269 1 11.5234 -7.33886 21.2505 1.1263 -0.999623 -0.349206
1270 1 21.8203 15.3061 11.9097 -2.33666 1.60429 -2.56632
1271 1 -0.700199 3.34064 16.8404 -0.339031 -5.24543 -2.13778
1272 1 23.4185 10.0663 13.2431 -4.63397 -1.87729 -2.18835
1273 1 17.289 5.72918 20.5905 -2.41307 -4.08432 -5.11183
1274 1 22.7768 19.2835 -16.6288 3.68672 -0.0238309 -3.25002
1275 1 2.84745 4.77384 10.6295 -4.63952 -2.27874 0.601398
1276 1 -0.228426 -7.82436 -20.2047 1.91158 -1.71628 -3.10085
1277 1 -9.45696 24.0965 -5.66278 2.53102 1.75904 -1.33135
1278 1 14.7867 -6.26863 -20.996 -0.453154 3.26473 1.89354
1279 1 -21.5271 17.4885 -11.5998 -1.79122 2.78246 -0.921471
1280 1 2.50921 -2.26938 -3.59343 -0.391063 3.20438 -3.39581
1281 1 16.6812 -10.2722 20.3474 1.36159 1.76214 -1.64185
1282 1 11.7679 -19.5627 -3.31173 0.828712 3.11351 -0.838158
1283 1 4.94957 -21.4677 -11.7391 3.00539 0.654019 4.93521
1284 1 6.62767 -11.5333 0.898616 0.892871 -1.99927 -1.64448
1285 1 -12.369 24.9542 17.2666 3.32644 -4.68577 4.55138
1286 1 -4.38986 4.96706 -15.4297 -0.665713 -3.71062 -0.161148
1287 1 9.43156 -19.4268 20.3072 4.32199 1.97261 1.19464
1288 1 0.179626 -5.03759 -15.2865 -3.35816 -3.03956 -0.738275
1289 1 20.7143 -9.16212 -6.36358 -4.62682 4.35761 -4.0116
1290 1 1.73517 7.0394 7.58548 -3.25999 0.176803 -0.707957
1291 1 -19.6708 15.9478 1.20854 -4.40828 0.654945 3.22166
1292 1 -6.61332 16.7765 -1.10676 -2.56181 2.59513 -0.990328
1293 1 -8.0491 0.559952 -1.35515 -2.65144 -1.63524 -0.910846
1294 1 14.6566 -11.5908 -7.79113 -2.88638 0.674101 -6.22148
1295 1 14.5241 5.69454 -1.40288 -1.78591 -4.62373 -0.766269
1296 1 -8.05241 -11.7816 3.7016 2.07252 -1.51894 3.06684
1297 1 14.7453 15.6145 15.6521 -2.78327 0.0519774 1.47047
1298 1 1.29587 -7.00522 -2.35601 4.42548 0.744265 -3.45799
1299 1 -10.2421 -9.71249 -5.18305 -2.1894 -1.25437 -7.65013
1300 1 5.15832 -1.37108 -3.15715 0.755426 1.76213 1.84591
1301 1 9.92254 15.7874 -11.4909 1.96485 0.704843 -3.88703
1302 1 -1.88875 -4.06376 23.8763 -4.67452 1.08799 4.34178
1303 1 -6.5083 -7.68113 -15.3844 -3.53794 2.21717 0.726638
1304 1 5.5928 0.809785 -4.98169 -3.76541 -0.966509 -0.671021
1305 1 -6.09499 3.93415 12.0669 -2.71822 2.81679 2.54019
1306 1 6.71523 -21.3444 -2.5342 -0.908673 1.33502 2.15356
1307 1 -14.6987 45.3506 -3.79877 1.48452 -4.48865 4.79314
1308 1 -19.499 -1.61864 6.49547 -2.53077 5.75285 -3.31102
1309 1 -2.38414 -8.50499 -6.31075 -2.14456 5.4934 -0.439391
1310 1 -0.267152 -18.119 -3.16242 -1.02164 3.92723 1.83427
1311 1 -0.34376 19.5263 -13.5796 3.60504 -2.68956 -8.12943
1312 1 -17.2931 -8.2132 6.13342 -0.182426 -1.33326 3.06917
1313 1 16.4993 19.1012 21.5851 -3.80553 -3.55037 -0.164657
1314 1 -16.9005 10.8102 -18.1899 -1.12273 2.91978 -3.21039
1315 1 -19.4076 -12.3506 -20.5538 -1.04508 -1.21812 3.61158
1316 1 19.2796 -11.73 -15.8322 0.688077 4.75197 -5.64481
1317 1 -10.4376 9.02625 -14.3216 0.975665 -1.41281 -3.78435
1318 1 22.7388 19.19 -0.104969 -1.73324 -1.57079 1.47254
1319 1 12.8837 21.3601 0.496389 -1.96064 1.51 -0.198724
1320 1 17.083 -7.97597 -11.7592 -0.69343 -1.20732 -0.507188
1321 1 9.58159 -20.3072 -7.29275 0.744981 2.72559 2.99259
1322 1 0.465581 -15.3791 -7.18669 -1.70185 1.97125 -4.62199
1323 1 14.668 -13.0249 13.7099 -5.94206 3.35894 0.162524
1324 1 -9.78343 -20.215 -19.0124 0.94662 3.99537 3.90738
1325 1 -4.72959 16.5957 5.60876 -2.0796 -1.74529 1.78356
1326 1 -16.9487 -18.0667 21.9588 -0.756992 1.32117 1.27419
1327 1 -9.51235 21.6421 -22.8273 1.58388 3.04796 1.81957
1328 1 11.8337 14.3651 5.3053 4.19544 -1.20255 2.19053
1329 1 23.1148 -13.8933 -2.46211 1.78254 -1.70311 1.88157
1330 1 -9.62664 13.538 -5.48755 0.202447 0.214335 -2.36521
1331 1 -17.8534 5.68106 -2.05854 0.375212 0.4327 -3.41262
1332 1 12.594 -20.6593 -23.106 2.23707 -0.60485 0.134012
1333 1 -1.87079 9.86209 6.69238 -1.12555 -3.1808 -2.81467
1334 1 13.7737 -9.42977 -9.77051 -1.5999 -2.95892 0.39936
1335 1 -15.0971 26.0641 -14.5905 3.99409 2.6582 -0.705623
1336 1 1.92432 19.1382 -7.37317 0.821241 -2.22129 0.433035
1337 1 6.46326 -20.4851 8.43056 5.5211 -0.756992 -1.1673
1338 1 1.73895 7.34459 -0.744077 0.66562 2.09865 -1.70304
1339 1 2.12552 -19.2026 21.8988 -0.929917 -0.938867 0.126759
1340 1 -20.3755 18.7298 11.8751 2.23058 2.14904 -1.90472
1341 1 4.14618 9.29983 11.2672 -2.74602 -1.0241 -1.03994
1342 1 3.3808 -23.1054 -17.9084 -1.96984 -6.59003 4.54463
1343 1 -12.5279 -7.57271 -4.90667 2.22962 3.9801 2.71506
1344 1 21.2006 -8.69495 3.30655 -4.20416 -1.11921 -2.04437
1345 1 21.791 1.45896 -15.8605 4.7913 2.38764 -3.08329
1346 1 15.11 -4.37827 -14.9477 -0.719405 0.242172 -1.54181
1347 1 -16.631 -12.07 -20.6376 0.768775 -0.286885 -0.0866892
1348 1 3.13428 11.8938 -15.5321 1.52922 -2.28621 -0.748358
1349 1 2.46392 -11.5892 8.76219 2.41104 4.51524 -1.73889
1350 1 -14.1798 0.597238 -2.68535 2.19313 1.88554 -6.11596
1351 1 19.573 -15.473 17.3433 -2.92325 -3.56761 2.91959
1352 1 4.64712 25.1633 21.7677 -3.29245 -0.961239 -0.534373
1353 1 7.95978 22.6172 -0.550204 -1.6582 -3.20724 2.0372
1354 1 -1.34885 -7.70942 -13.6629 0.474377 -2.06288 -2.21934
1355 1 -6.14736 24.9663 17.5372 0.532832 2.71396 -0.74973
1356 1 -18.9529 -12.8488 -2.24626 -0.533299 2.18989 6.61909
1357 1 -20.0218 -10.2756 -11.0971 0.0920902 -5.21653 2.83345
1358 1 -12.1202 25.1012 -23.7278 1.55143 -4.41221 5.18821
1359 1 -21.1639 -23.6852 22.7537 0.99071 -1.59541 1.99257
1360 1 17.9305 -14.1285 5.84648 0.27645 3.10788 2.2378
1361 1 -7.39576 -21.7971 5.00742 -0.643685 -1.42381 -0.89341
1362 1 19.7101 22.6094 7.74154 -0.712593 2.41985 0.242805
1363 1 -14.4424 -10.3941 -19.9342 0.0800212 1.54003 4.90486
1364 1 12.1603 -12.7968 -12.4968 2.1344 1.98939 -1.90113
1365 1 6.37473 -4.40532 -20.1652 0.510039 0.0923765 4.93095
1366 1 20.424 -16.4077 -0.392121 4.76889 4.21231 5.15236
1367 1 -10.3031 -11.8506 11.0545 -0.584813 -1.13741 -1.03715
1368 1 -18.4091 17.3661 -0.976272 -1.81343 -2.55065 3.7082
1369 1 22.4918 3.16251 -4.68149 -1.87031 -1.5925 0.468299
1370 1 -1.48258 -11.9393 22.2947 1.12626 2.09764 2.72144
1371 1 -20.1868 10.98 -3.20571 -2.73333 6.58405 -6.06182
1372 1 -9.37345 11.8374 6.67073 0.286104 -1.42037 0.396742
1373 1 -15.254 -6.71295 14.0938 -0.918098 -2.34392 3.76386
1374 1 -19.4924 24.8375 17.4319 2.91899 -2.10478 -0.662915
1375 1 18.9358 -10.385 3.89362 -0.993529 2.40565 -0.732184
1376 1 5.21073 8.37109 -7.38873 0.247087 1.09948 -1.61455
1377 1 -14.5684 23.9897 -22.9449 -2.8228 -4.87428 1.39215
1378 1 9.16814 -10.4027 0.933248 -0.610964 -5.14028 2.29322
1379 1 -19.415 -19.101 5.1554 -3.0939 -1.45702 3.36112
1380 1 15.767 22.2309 -6.3543 4.28463 -0.147817 -1.57734
1381 1 18.1502 18.8748 10.2786 -0.640906 -1.79782 0.784851
1382 1 16.2489 -13.2182 8.07394 -5.37146 -2.39688 -3.30231
1383 1 -6.53321 45.1908 -14.978 -6.75661 1.13905 -3.43349
1384 1 0.709425 21.3921 -11.641 -2.87274 3.04922 -2.2766
1385 1 -18.2955 22.2023 11.199 0.391497 0.0555006 1.43791
1386 1 -9.41719 8.61289 2.12048 0.490503 2.24948 0.478802
1387 1 -19.0823 0.451558 -1.04222 1.20698 -4.3467 -3.38597
1388 1 11.2658 -3.93757 18.5397 -0.659017 -0.0574022 1.31105
1389 1 18.9474 -7.34375 -0.603606 -0.591252 -1.906 -1.80538
1390 1 5.46561 -2.70985 11.4163 0.653614 -5.10594 -0.535664
1391 1 -13.302 21.5639 21.2597 2.55653 -0.464133 -5.25216
1392 1 20.6722 2.75947 2.66224 2.17267 -0.957581 3.45066
1393 1 -1.18194 -6.01316 1.65369 -1.43566 -2.98889 -0.172442
1394 1 4.38654 6.81682 0.589695 -4.28278 -2.11237 -1.91749
1395 1 0.609235 9.82407 -6.9542 0.613044 1.80334 -0.0480053
1396 1 -18.8065 -9.66807 8.14718 -0.109043 -1.73165 0.81752
1397 1 2.5306 21.8095 -8.32884 -0.784747 -2.30551 -3.74771
1398 1 3.06599 21.0119 -4.45443 -0.705749 -9.15996 -3.3779
1399 1 -2.28178 -23.0041 -1.66139 2.35125 6.53833 -2.00748
1400 1 -13.5277 15.9472 -22.475 -6.32913 1.53659 2.63347
1401 1 22.6678 -22.7875 20.6265 3.03513 -0.53291 -2.87203
1402 1 -19.2723 -5.40537 -16.375 3.217 4.33272 2.88528
1403 1 16.8857 45.6841 14.6387 1.55187 2.55448 -2.3204
1404 1 19.5444 -10.9697 10.2356 -3.5521 7.23031 -0.49902
1405 1 19.7886 21.5105 -23.5074 -0.334595 6.39614 -4.3964
1406 1 -8.39633 2.55578 -11.6174 4.22914 -0.73269 1.40028
1407 1 -20.7507 9.09914 -1.13411 1.81791 8.33185 2.69072
1408 1 -5.93561 -4.26574 -10.7793 -3.54028 3.54767 -0.81208
1409 1 -1.27101 5.23893 -22.1469 1.29695 -1.96346 4.03807
1410 1 2.03086 -20.7677 -18.5163 -0.312548 0.589244 -3.85751
1411 1 18.2372 -0.94259 -21.9353 1.73222 7.16518 -0.610162
1412 1 -20.4926 13.9734 -11.7703 -1.41608 2.81373 1.32061
1413 1 -15.3161 4.15618 -20.3317 1.63367 1.73081 -2.02872
1414 1 5.38339 21.6675 3.78212 0.511677 2.8695 -4.912
1415 1 -6.37179 -22.1217 0.518536 -2.99902 0.368146 1.04083
1416 1 -23.6538 -8.38437 8.24367 1.31647 2.94172 -0.901197
1417 1 10.6474 4.68455 11.2049 -4.49175 1.89032 2.33106
1418 1 15.5453 -10.0495 1.21953 1.59937 -0.69351 1.46111
1419 1 8.32163 21.7605 -4.46876 4.25086 1.38396 -1.8812
1420 1 -10.6774 20.4332 -20.5493 1.17033 -2.61985 0.522868
1421 1 22.47 -11.0608 5.58039 0.143207 1.76807 3.3466
1422 1 -11.3617 -19.1893 -14.2026 -5.44019 -1.28391 -1.56234
1423 1 7.45168 21.4299 -17.4948 5.40094 -0.223992 1.53603
1424 1 21.3316 12.9981 -7.06008 0.119661 -1.29709 0.046698
1425 1 1.91258 5.55143 -13.3722 4.71155 0.048879 4.9002
1426 1 3.44911 -19.1139 1.90987 -1.689 2.98426 0.315681
1427 1 20.3439 -14.3767 -2.37236 0.130214 5.87785 0.335849
1428 1 -4.90544 -14.8966 22.6563 0.15455 -4.71351 -1.03018
1429 1 -21.9589 -17.5768 5.3072 -0.33056 3.86118 -2.15106
1430 1 2.71429 15.2952 4.94929 1.78218 -0.729849 5.93703
1431 1 -8.23611 0.469814 -9.72265 2.60453 -2.85861 -3.10961
1432 1 -12.6916 8.92585 22.3271 -0.449427 -5.35008 -0.799297
1433 1 -17.5467 -11.9538 -15.4816 -0.252211 -4.36655 -1.30125
1434 1 -23.5787 6.08203 20.2066 -0.724826 0.476368 1.93796
1435 1 16.8487 22.1324 -3.48146 0.420828 1.88084 2.47516
1436 1 -17.0386 -4.37728 -14.3874 -3.3342 -1.49472 -1.20172
1437 1 5.53224 15.4508 -20.8171 -5.63304 2.7809 1.5299
1438 1 -2.67371 -2.05641 -12.5761 -1.01925 2.20567 -0.984049
1439 1 -18.3161 12.3315 -12.2516 -2.76326 4.79138 -0.586637
1440 1 -22.1325 14.7317 -2.31853 0.795603 0.847089 -4.11395
1441 1 -18.5964 -17.3077 16.0446 0.562599 -3.07938 -3.39898
1442 1 -20.1409 -3.32432 -5.95209 -2.49913 0.264834 4.31672
1443 1 16.5767 -13.4484 17.9034 3.70622 2.16497 2.67988
1444 1 12.994 21.2784 23.9123 -2.41605 1.41473 -1.31643
1445 1 13.3738 -21.6965 8.83734 0.416305 1.36327 -1.44959
1446 1 4.75443 -9.52779 -10.8391 -3.07692 3.28309 3.08997
1447 1 22.8336 -8.33119 -19.9819 -0.422118 1.60345 -4.62837
1448 1 -15.3384 3.17628 5.45492 -4.56085 6.03142 -6.04599
1449 1 10.5291 -4.25937 3.61153 -0.935997 -3.13397 -1.73325
1450 1 -6.18173 -3.31698 -8.18687 -2.81288 -1.02269 1.08742
1451 1 12.1109 19.5956 -11.225 -0.548292 -0.623595 -4.18225
1452 1 -5.81802 45.9767 -17.6818 -2.9109 -3.65214 -0.517589
1453 1 -1.25662 -21.2174 -7.5844 1.93296 4.58941 1.33503
1454 1 8.60506 -12.6655 -1.19712 1.96055 1.7789 3.80782
1455 1 -12.1715 -19.0886 -5.19967 -1.44954 -4.27302 -4.55591
1456 1 -15.7956 17.3641 12.4026 -0.223094 0.892084 -0.939422
1457 1 -22.5306 0.784151 -19.0896 -2.93157 3.03927 -1.9859
1458 1 -20.0378 14.7502 9.53154 6.13035 -3.23612 3.5985
1459 1 -12.3044 -13.9559 -2.84683 -2.70069 4.40237 -3.21863
1460 1 -14.2836 9.07529 -15.1205 2.05229 4.52867 1.77096
1461 1 -15.0279 17.2807 23.0062 0.362809 0.130526 5.65577
1462 1 -9.54941 -17.9152 8.58713 -1.76576 -3.70712 0.595811
1463 1 8.59518 -0.899281 13.7287 -2.37441 -0.53265 -3.12779
1464 1 2.11403 -19.3354 6.5304 2.17417 1.04254 1.4131
1465 1 -21.3672 24.7803 -11.8091 1.33407 -0.557189 2.64527
1466 1 -16.8726 -5.77037 -3.64551 -3.92082 5.31304 -3.75533
1467 1 21.4653 -14.9312 -14.9657 -1.40041 -0.615005 0.769402
1468 1 17.303 25.4542 14.8403 1.59699 -4.26087 1.43941
1469 1 19.7625 12.4195 6.02836 0.55303 -3.2341 -2.83865
1470 1 -3.12765 -11.9391 4.7302 -2.23886 -3.76456 4.43853
1471 1 -1.47903 -6.63722 -8.04225 0.432608 -3.58932 1.66293
1472 1 22.2797 2.5595 15.0797 1.61202 -1.59732 -0.72694
1473 1 16.1704 -21.5658 -14.2309 0.925498 -1.37394 0.76993
1474 1 0.367771 23.3153 -22.7538 -2.36081 0.443971 1.98194
1475 1 -21.09 -23.0364 -4.09611 -1.30856 -0.651993 -7.15681
1476 1 -19.6081 14.0185 -18.1674 2.79919 -3.85166 -2.52549
1477 1 19.4911 -1.69547 -0.246863 -1.34064 0.493991 -4.186
1478 1 1.18271 1.47837 2.97027 -0.186755 -1.36516 3.63221
1479 1 10.3931 -10.9087 9.74149 -0.941528 -1.16493 -1.41965
1480 1 1.22202 12.3999 -5.47849 2.39369 4.47759 0.700893
1481 1 -7.99101 14.4729 -0.200448 -1.59693 2.67758 -0.611947
1482 1 4.88284 23.2078 -20.5359 0.329454 1.78173 3.12991
1483 1 11.7428 -23.6126 -18.5576 -0.0588542 -0.850993 0.796939
1484 1 -5.38143 10.9523 8.26973 3.97765 -0.7783 2.71782
1485 1 7.11365 -10.2386 -23.6644 -5.62374 -1.57899 1.65138
1486 1 -18.2887 -4.23907 16.9886 -2.37867 3.37621 -1.38451
1487 1 -1.63217 5.37235 -16.1218 3.11076 -0.362136 0.90683
1488 1 -18.1072 -15.0826 14.4142 2.43159 4.84076 2.22039
1489 1 22.5136 14.9357 -0.432447 3.33825 0.683589 1.40863
1490 1 -20.6419 6.02889 -2.16319 -6.28238 2.10685 -1.37479
1491 1 14.729 4.71907 -8.9862 -1.83549 0.283397 -5.24242
1492 1 -12.3791 14.9198 11.9429 -1.42445 -3.24325 0.0467535
1493 1 -1.69714 -6.71927 -10.9159 -3.70747 -0.580919 -1.76077
1494 1 -10.1827 3.13684 -19.4229 -2.30298 -0.0616061 -3.22843
1495 1 -18.0176 -7.93297 21.0472 1.23984 1.25676 0.00111818
1496 1 -3.1843 9.76204 -10.0536 4.54811 -0.81378 0.442741
1497 1 14.593 -11.9911 -18.6918 -0.486873 -2.03568 -3.58861
1498 1 -13.5084 8.23312 13.5047 -1.5784 -2.21231 -4.0674
1499 1 18.3636 6.22263 22.9719 0.795551 -0.452917 4.54099
1500 1 -17.5417 19.9624 15.4087 1.33325 7.30695 5.03481
1501 1 9.73409 15.1039 -15.3482 -0.563019 3.65353 -5.62162
1502 1 -22.3555 -5.11589 -6.41717 -1.65889 0.221008 1.32566
1503 1 9.12751 26.0017 -22.2665 -1.55446 -0.654668 -2.47422
1504 1 -3.83031 -21.8901 -6.39952 5.4901 -2.547 5.06459
1505 1 19.0392 -22.8762 -21.113 -1.9241 3.07534 -2.21116
1506 1 14.1823 13.5193 -3.35721 2.80209 -0.0428324 -1.76309
1507 1 -20.2618 21.5477 -5.48756 1.72183 -0.109486 -2.62513
1508 1 22.2895 -10.4662 -4.43346 5.02643 -5.46059 -2.01451
1509 1 10.4554 21.8543 -10.2844 -3.39375 1.06515 -0.548634
1510 1 -16.186 -11.1397 0.0680053 -4.24328 0.450675 -6.06638
1511 1 -22.3522 -5.43608 14.6293 3.85682 0.386366 -0.663512
1512 1 -11.3668 -11.2675 -1.88804 1.96456 3.16394 -2.00454
1513 1 -19.5838 0.925858 15.7464 0.184362 -0.893145 5.95557
1514 1 -14.2904 -3.12554 -8.41936 -0.593984 1.42682 -2.20993
1515 1 -5.09099 -19.3428 18.1655 1.18994 -3.42809 -0.226313
1516 1 -10.3486 24.1698 -21.5912 7.01729 0.482778 -1.00146
1517 1 -22.0624 -15.9885 -9.45113 1.47506 2.23916 2.42391
1518 1 -0.251312 13.8677 23.2284 6.3465 -0.206461 -2.61676
1519 1 -12.1302 -18.4322 2.1891 -1.60049 -2.03093 -2.28653
1520 1 13.1336 3.6442 -17.1645 1.00565 1.44804 0.323097
1521 1 -9.04062 -8.66895 17.6584 1.71858 1.65349 -2.52244
1522 1 -15.5728 1.07595 -13.4696 -2.13703 -4.35573 1.95249
1523 1 -6.44881 7.26041 17.2735 2.12153 2.48262 -0.867488
1524 1 -0.144467 -19.3244 8.35337 2.45387 0.448411 -3.12812
1525 1 -9.20805 -6.0781 3.28692 3.26492 -6.30676 -3.86519
1526 1 17.9794 24.3774 1.19525 1.01959 -2.33184 0.176448
1527 1 2.43685 0.756181 -7.84497 0.0729718 -6.87766 -1.97932
1528 1 10.633 14.7849 16.8965 2.58568 3.25725 2.45657
1529 1 -7.90714 2.79768 13.7405 -0.716622 -1.44311 -1.93666
1530 1 17.8356 17.5973 6.05547 -5.14722 1.92132 3.64259
1531 1 8.90936 -8.12091 9.29865 -3.94201 0.374449 -4.93302
1532 1 18.5936 -6.96803 -17.8455 -1.69069 0.214918 -1.09581
1533 1 9.99819 22.3521 11.7454 4.69558 0.621513 -0.597274
1534 1 -17.1278 -6.04016 10.447 -2.43531 4.34372 0.682475
1535 1 1.53453 -10.0061 14.7262 -3.1082 -4.03694 -2.37655
1536 1 -8.78202 1.61747 -23.868 2.69834 3.70952 -6.50081
1537 1 -3.55799 25.3282 -17.5761 -2.36682 3.34189 -0.773807
1538 1 5.02341 18.4349 18.1476 0.392871 -4.74733 -2.63147
1539 1 0.224776 8.69181 -19.3536 2.54131 -0.499533 -0.803242
1540 1 -21.5034 4.66325 23.2777 -1.17009 -4.09328 -2.03139
1541 1 7.43559 -19.9512 -9.1538 0.753152 -4.79818 -3.50208
1542 1 -20.9419 -3.3243 16.4109 2.05543 -1.82909 1.3011
1543 1 3.89295 0.561178 15.7379 3.04716 -0.956989 1.90459
1544 1 -4.43925 20.826 -20.0467 -0.590834 1.83544 -1.10252
1545 1 -6.20805 -13.8939 13.5352 1.85891 -1.40437 0.387807
1546 1 -14.0187 -12.1152 19.9496 -3.62443 4.35226 -3.09943
1547 1 17.1284 -3.40839 -0.166839 0.241246 5.32723 2.36006
1548 1 18.9579 -23.3109 -7.03491 -2.73201 -1.47172 3.75563
1549 1 -2.44504 -4.11945 -15.9849 -1.21536 -1.25408 1.44128
1550 1 0.457425 -8.58409 -10.4118 -0.277409 -3.57812 -1.87763
1551 1 10.9974 -2.79325 -5.85677 -3.01447 1.15921 -0.980209
1552 1 17.7517 10.3387 -18.1668 -2.00508 -1.45985 -0.0241661
1553 1 -10.1479 20.2408 -15.7778 5.3581 -2.53813 3.41705
1554 1 -9.74103 -8.06971 -17.9058 -0.267091 1.02711 -0.747835
1555 1 -20.4373 -3.27369 -3.20432 -1.73332 -5.4402 -2.25219
1556 1 23.0701 -18.5095 -10.8474 0.917363 0.608691 -7.63729
1557 1 9.31239 -22.7242 -17.0378 8.29255 2.58321 -0.357016
1558 1 9.57041 -17.0993 -0.25718 2.11308 0.981434 -0.47622
1559 1 21.5738 17.8693 3.08152 -1.18999 3.49418 -0.273408
1560 1 -17.9516 -19.0759 19.2027 1.41161 1.68881 -5.49848
1561 1 20.1838 17.9065 -3.75447 -0.0637148 -6.11371 -5.27379
1562 1 -0.0694223 -3.50951 0.224102 3.19406 -2.87301 5.03026
1563 1 -4.51721 -5.18746 12.863 4.31808 -0.484561 3.65453
1564 1 8.47498 15.398 -8.78466 -2.68333 1.12015 -0.688981
1565 1 -4.0228 14.8827 -12.7673 2.82862 -4.35841 1.5574
1566 1 0.311503 -6.57968 7.74765 6.52382 1.74885 -1.99065
1567 1 0.818964 -10.5961 -23.5197 -3.06242 -0.613931 3.92372
1568 1 17.5634 21.9794 -11.4844 -2.91517 -3.40193 -1.5059
1569 1 8.25286 12.8331 3.16503 -6.66718 -2.58167 1.57162
1570 1 -21.914 2.99901 -12.4804 2.52644 0.164141 -4.12685
1571 1 -1.87136 -10.728 -3.21839 -6.08725 -0.580854 -1.29066
1572 1 0.0956413 -16.9197 12.3781 0.114067 -2.64042 -0.217628
1573 1 -11.1987 -13.2046 17.013 2.79551 -1.92314 2.92384
1574 1 18.905 -19.221 3.39153 1.89859 -3.66612 4.93994
1575 1 -16.3056 15.1451 5.21522 -1.86736 0.410491 2.15697
1576 1 12.8503 18.8665 -20.4442 2.81851 0.671037 2.86814
1577 1 16.2792 46.1902 3.59413 6.20602 9.57806 4.60443
1578 1 17.4418 -1.26018 -11.7522 1.06241 -1.94178 0.29606
1579 1 -5.51739 14.2279 -5.55536 0.42065 -1.06827 5.09928
1580 1 -16.1331 -23.7769 -7.24318 -3.37922 -4.15909 -3.47755
1581 1 -9.45909 -5.1133 11.6336 0.629029 -4.81621 0.398004
1582 1 -13.7002 7.22293 -0.865004 -0.642961 -2.11294 -3.7996
1583 1 10.8858 -3.25346 -2.91126 -0.735772 -2.48803 2.16447
1584 1 -5.5525 -3.63073 15.3392 0.262023 1.09725 -0.312101
1585 1 -8.24019 -13.1574 19.6881 1.45427 -2.0754 -5.41211
1586 1 -18.7769 -23.85 -0.597453 0.767937 0.463444 -2.81172
1587 1 18.382 -5.40892 -11.3607 -3.40238 4.04541 -2.21415
1588 1 2.68312 19.6337 -20.8027 -3.46301 0.498515 -3.4571
1589 1 -10.3992 -21.3577 -2.86385 0.957143 1.95414 0.124309
1590 1 20.3114 9.22034 -15.1498 2.5669 -4.00605 -3.17414
1591 1 14.995 14.022 -0.460922 -0.724342 -2.89033 -0.702767
1592 1 19.554 8.8176 14.6097 -2.80622 0.338694 2.91641
1593 1 -0.112251 23.464 -16.2165 -0.926735 6.98884 0.146101
1594 1 11.3494 3.82691 -1.08441 -1.03608 -4.14273 -2.40559
1595 1 7.85044 14.5853 -3.86731 -2.66253 5.19786 -2.86498
1596 1 -3.47143 -4.13617 -18.7466 4.38843 -1.69455 2.8177
1597 1 18.089 45.2795 5.54593 -2.69983 4.10832 0.72837
1598 1 5.0512 13.3923 1.40245 1.7688 1.34203 -0.0060155
1599 1 -21.9088 -4.38499 9.99466 -7.12491 4.30394 0.382965
1600 1 14.8784 -16.4937 -15.7723 0.206102 3.98651 -0.245445
1601 1 7.19152 14.858 -16.4911 -1.33395 6.53131 -1.18581
1602 1 -19.6408 -11.9751 -17.6993 4.80219 4.97794 3.46403
1603 1 4.80753 -10.472 -13.7898 -1.17923 -1.66598 -0.576361
1604 1 19.9953 -15.6112 -18.2784 -4.67867 5.57552 -1.13646
1605 1 -1.36677 0.038782 -10.833 3.64065 -2.42128 3.37794
1606 1 -20.9253 18.601 5.11301 0.139522 4.64518 -1.36188
1607 1 11.9664 -23.0437 -15.7548 -5.87198 -2.54712 1.0788
1608 1 23.4186 3.29575 6.68739 1.50242 1.20143 3.58667
1609 1 -20.9755 21.5314 -17.1687 2.39913 3.27432 4.53554
1610 1 -9.70718 21.5225 -13.1184 -0.0652529 0.587165 3.81519
1611 1 6.96383 10.1642 -3.44402 7.26703 -3.32951 1.5863
1612 1 -22.166 -19.5583 12.1671 -0.0685731 2.62895 2.78507
1613 1 -0.639648 -14.4655 -0.650897 -1.47912 -1.86139 5.05667
1614 1 -13.1806 -11.9651 3.56142 5.04611 -0.818547 -1.12464
1615 1 -3.01999 -17.4933 -13.5325 -0.329458 0.286995 2.15552
1616 1 15.3914 -14.4482 -20.0834 3.29622 -4.48201 -1.97149
1617 1 -13.1649 -11.8756 -10.2264 1.99328 1.02248 -2.77651
1618 1 8.66018 17.6461 14.6607 1.88216 4.75516 0.744608
1619 1 13.1828 14.8582 18.0413 4.15573 -0.925833 1.08469
1620 1 15.7939 -8.84645 -6.67465 2.25506 3.43728 2.12124
1621 1 -16.2312 3.98843 12.5683 -0.978688 -2.67663 -2.49403
1622 1 -15.5855 22.0576 14.6997 -8.08837 -0.0829874 1.46333
1623 1 -10.7062 -15.9845 12.825 1.21427 -1.83261 -1.23373
1624 1 5.43517 20.4603 -19.8595 -2.36767 -1.83331 -2.6858
1625 1 13.825 11.2775 -11.3634 2.08203 4.02692 -0.524602
1626 1 15.2343 -1.25269 12.8479 -0.557994 0.681451 0.887168
1627 1 18.5641 -6.72652 22.9826 0.654949 -4.75658 -0.390563
1628 1 20.0931 2.77471 -0.340688 -2.29381 1.85554 2.39489
1629 1 -6.10351 46.6987 17.4642 -0.854623 -0.159142 -1.29684
1630 1 10.7542 -11.2936 20.7932 0.229868 1.9945 -4.57137
1631 1 -23.5377 -20.4261 8.41192 -0.651334 -2.36881 3.48761
1632 1 -5.85753 7.35429 -21.7565 0.115016 1.99658 1.1567
1633 1 19.1441 20.1689 -20.9636 -5.55121 -1.73712 -1.33721
1634 1 -17.1385 -9.88665 -22.7384 2.46236 4.8209 -0.0633372
1635 1 8.33755 -15.114 -10.9914 -3.21207 -3.09478 3.09599
1636 1 16.961 -11.8971 15.3598 -2.56324 1.64922 -0.83361
1637 1 -1.12264 21.7444 -2.37122 4.22463 4.83596 2.68016
1638 1 15.7814 -3.64875 -19.59 -2.52784 3.90016 -3.75013
1639 1 12.6806 11.0647 18.1632 0.221971 0.502008 0.833317
1640 1 -16.5559 -22.9133 -12.5414 -1.81298 -3.51268 0.938413
1641 1 19.3269 -12.4561 17.3773 -2.18562 4.15168 0.408231
1642 1 -1.82257 22.9787 5.77297 -2.88588 1.46725 -1.60802
1643 1 -5.48483 23.8197 -9.51218 1.8935 -0.867198 -2.75238
1644 1 -17.0853 1.6447 10.9914 1.33512 0.114226 -3.39862
1645 1 -4.23315 -3.81194 -6.1326 6.29122 0.225446 0.068837
1646 1 -21.1261 -6.43758 -18.57 0.199409 -3.71891 -2.97022
1647 1 16.6748 12.6947 -16.1793 2.77727 1.8133 2.29532
1648 1 -20.3894 -15.807 -23.5977 0.388346 0.560299 -1.46551
1649 1 -17.556 -5.98369 -9.964 -3.85836 -4.08875 2.45856
1650 1 11.9716 -3.82625 -14.3212 -0.795227 -0.219816 -2.39167
1651 1 14.6402 -19.5997 -0.861077 1.60891 2.54361 -0.930316
1652 1 13.8905 3.65384 -20.021 -1.38185 -0.924347 -2.18347
1653 1 13.1083 -23.8213 2.01473 -3.09717 -0.387255 1.50908
1654 1 5.94982 -19.9925 12.2841 -0.0722252 1.69926 0.773178
1655 1 -3.42479 14.1529 13.0245 1.13992 1.19783 -1.08494
1656 1 -4.21671 14.0507 20.1421 6.88646 0.701576 -1.4829
1657 1 15.7914 7.1966 -12.354 3.8663 -4.03675 -3.72164
1658 1 -18.4569 21.0279 8.64255 -3.33295 0.860117 0.335252
1659 1 -6.67379 -23.4351 7.20166 8.44339 -2.80957 3.238
1660 1 4.42229 -10.9578 23.3812 -4.84847 -2.18692 1.99772
1661 1 23.3795 -1.6228 16.3583 0.188415 2.45269 4.12319
1662 1 -9.18815 -22.1605 -8.39169 -2.42083 -1.52986 -0.452025
1663 1 -14.806 -0.864839 -0.509639 -1.5217 -3.12569 0.573025
1664 1 3.60567 -14.6772 -14.6498 0.814062 0.543398 0.0390218
1665 1 -5.99543 9.4684 19.2452 0.56556 -4.96327 -0.601178
1666 1 15.8495 -9.65473 -16.243 0.874123 -1.24388 1.30938
1667 1 -12.7197 -3.28568 8.18508 -3.74675 2.61405 -1.51042
1668 1 -9.14106 19.1239 8.08086 1.55986 -0.550351 -0.502818
1669 1 15.5096 -23.7865 -12.5731 -0.333968 -2.76811 -6.66682
1670 1 3.29215 13.8454 -4.57237 -0.649802 -3.02606 2.53963
1671 1 -14.005 11.4161 22.0633 -2.9836 -1.04565 -3.38073
1672 1 2.09456 11.2427 -23.7465 -3.15745 -2.36562 0.732457
1673 1 2.25104 -16.5844 0.73809 -4.05854 0.501619 7.72551
1674 1 1.74862 -3.05493 -6.38998 1.91598 0.566948 6.34765
1675 1 3.86524 9.81577 14.191 -1.628 0.573973 0.29962
1676 1 -17.8945 2.75598 -4.82003 -3.23609 1.49584 -1.57422
1677 1 22.6948 -16.9505 9.81659 0.194227 2.49906 4.60842
1678 1 4.25838 24.4059 -18.1278 -1.47939 -3.23784 -4.86681
1679 1 -10.28 23.559 18.8173 -0.539532 -0.106701 -1.49768
1680 1 -23.8413 -16.881 -21.359 0.316004 0.882544 3.02714
1681 1 -14.8953 -7.44986 -20.1869 5.06591 0.444598 -2.12603
1682 1 9.36269 8.67581 -0.482219 -1.8195 -3.22775 1.34447
1683 1 14.0192 25.677 -16.8537 4.28647 -0.332646 -3.04463
1684 1 4.78292 15.6939 17.3928 2.63368 2.2047 2.6178
1685 1 -22.4559 16.5841 18.8235 0.697372 5.11554 -0.489571
1686 1 11.0584 -11.1519 23.7303 0.0602821 -2.39021 -2.28629
1687 1 18.732 -14.3204 -14.2466 -2.38329 0.00972531 -2.55155
1688 1 -17.9726 -1.92815 -12.637 1.19683 3.90175 0.0836346
1689 1 2.38714 -23.6445 -1.05721 2.06865 -2.45641 -2.40523
1690 1 -6.31677 -23.2736 12.5518 1.3854 2.28824 -2.58294
1691 1 -15.719 -11.3169 4.48474 2.26579 -1.80767 -2.76744
1692 1 -6.68612 21.0054 -6.01482 -1.71924 -2.44715 -1.01701
1693 1 22.5392 12.511 23.1066 -4.74261 4.00714 0.308841
1694 1 -14.8871 4.57494 -11.5615 1.18524 -0.616725 -2.79506
1695 1 18.2915 46.2248 -9.43045 0.421551 2.82671 1.14076
1696 1 13.9199 0.645477 2.82407 1.11345 2.75301 3.56834
1697 1 -11.7526 -22.3114 5.53395 3.46164 4.22997 -0.709249
1698 1 -10.302 9.72117 -1.78835 0.22817 0.19748 -2.46984
1699 1 12.5691 0.361567 13.106 -2.91319 -3.7198 0.471451
1700 1 15.6717 -1.90383 -13.7892 0.0209646 -4.5691 1.23591
1701 1 10.678 23.1771 -3.70452 1.72971 0.596274 0.691981
1702 1 3.41369 -20.6099 10.8335 -3.74221 2.99685 2.68843
1703 1 2.69895 5.51414 -17.215 -2.10792 -1.89114 3.00113
1704 1 -9.21293 -9.67881 5.22898 -0.762037 -1.56752 -5.79063
1705 1 -2.14199 26.0489 18.9441 1.61341 -2.15477 4.2106
1706 1 9.37374 10.5921 -20.6485 -3.30642 -0.55485 4.7547
1707 1 -11.557 -8.04086 16.3001 1.05388 0.641906 -1.90394
1708 1 -7.60396 25.8488 15.4913 -2.82322 5.05114 0.566082
1709 1 15.6787 18.6685 -0.570957 -1.74747 1.47695 1.02986
1710 1 -7.8134 -19.7013 -13.1829 1.97728 -3.69187 -2.34172
1711 1 -1.42077 2.26768 3.42006 -2.36257 4.37773 -0.243044
1712 1 9.55664 16.4225 -23.1198 -4.71946 -2.08369 -6.68649
1713 1 20.7746 17.5982 10.45 1.52222 -0.158796 -2.15767
1714 1 6.3516 0.206902 -13.0237 -0.0698671 0.905714 -0.974316
1715 1 10.9942 25.7378 17.4291 -3.1871 0.429802 2.3383
1716 1 15.7965 46.7812 23.8035 -4.71357 3.20083 -0.213411
1717 1 11.3737 -16.8273 -2.63163 -1.68123 -3.17196 4.03165
1718 1 6.0826 -18.7657 -11.6505 -3.14626 4.13159 -5.15616
1719 1 22.4326 8.67426 -1.36758 -3.29111 -1.27253 1.24813
1720 1 -4.07818 -23.444 8.32792 -5.29299 4.05946 2.69983
1721 1 6.22814 1.85071 10.5125 -1.76311 -1.86757 0.815072
1722 1 20.6521 -23.7549 14.0066 2.48258 -4.57953 -2.54888
1723 1 -23.1143 18.0644 3.0485 3.97848 2.98021 -0.214707
1724 1 -17.3139 46.1467 -5.07321 -1.96443 1.09632 -6.74742
1725 1 -15.4694 8.76798 -21.4319 0.69839 -4.27402 0.119754
1726 1 17.2666 21.7443 22.8626 5.12908 1.10521 -0.691575
1727 1 22.8685 -5.51679 -19.0285 -4.67467 -3.38727 -1.77225
1728 1 -22.2569 -8.8702 -20.1242 2.65313 1.95691 -2.53226
1729 1 -14.5134 10.8487 13.4846 -4.96608 1.50328 -1.397
1730 1 -4.88052 -8.06562 -21.848 2.90656 2.92409 1.60087
1731 1 22.115 4.30093 -2.14927 1.73286 0.858137 -1.58803
1732 1 13.8229 -14.4484 7.78999 -6.20661 2.45029 0.652703
1733 1 -10.0649 -14.5923 5.98369 0.860622 -4.9758 2.53178
1734 1 -8.17816 24.9616 -20.1612 0.380582 -2.99192 -2.14042
1735 1 1.68125 20.4486 -18.0007 -3.30464 3.3184 4.62714
1736 1 18.7018 2.51291 10.1059 -0.751474 -2.89393 -0.674716
1737 1 -17.7674 0.846009 -8.57392 -2.96235 1.78279 -6.96191
1738 1 6.35237 11.5668 -22.1142 -4.05014 -3.86369 -5.17727
1739 1 -10.0743 -17.0728 15.5311 2.63484 0.801613 4.62368
1740 1 2.65118 22.5448 18.4995 -1.43636 2.70288 5.41772
1741 1 12.2596 13.9141 22.0358 -2.3122 4.98305 -2.58137
1742 1 -0.0892791 -8.32945 20.9682 1.08713 1.18707 -3.19942
1743 1 19.0591 -16.4474 6.76972 0.499624 -4.66907 1.79795
1744 1 13.9745 24.2724 -7.1324 4.0534 1.56574 3.41047
1745 1 8.2744 11.9974 -6.42076 -0.584223 -5.60329 0.779259
1746 1 17.6487 23.9335 -13.442 -1.90391 -2.55537 2.29016
1747 1 3.3242 -15.0934 -8.19415 2.33011 1.88492 -0.240648
1748 1 15.1 0.569136 -4.06161 6.55553 1.60162 6.09544
1749 1 20.3822 10.6369 12.5969 0.632748 0.0582549 -0.859143
1750 1 14.0942 26.6392 10.4861 -2.30975 -3.84595 -2.56986
1751 1 0.18792 -11.938 16.4169 2.593 -0.449491 -1.5325
1752 1 -24.3753 16.6369 -19.381 -1.6239 -2.98009 -2.60303
1753 1 -22.0383 -14.6146 -21.3215 -2.19574 -2.71837 -5.2921
1754 1 -23.772 10.7399 -21.3067 -0.454862 1.29233 2.58606
1755 1 -9.84666 -1.26518 -11.3251 -0.864378 0.765611 0.412094
1756 1 -17.3593 4.71353 6.49338 1.41715 3.38493 -2.86045
1757 1 17.3668 -17.8605 -7.06526 4.43286 1.89775 -8.00932
1758 1 20.7657 46.035 5.58814 -4.001 -2.73415 -0.202038
1759 1 22.2043 8.49249 11.1424 1.15305 2.42922 1.20731
1760 1 -15.167 -13.9216 -22.6635 0.172727 -1.81535 1.19209
1761 1 -23.9105 -18.4006 -23.6624 4.15165 1.2877 -0.16955
1762 1 5.91459 18.2011 6.90487 1.82424 -3.223 -1.89539
1763 1 -3.64735 3.49872 14.1015 -1.56398 0.772691 -4.80106
1764 1 -15.4773 19.1984 -11.2957 -5.98477 -3.87149 -1.27455
1765 1 3.64361 -14.6597 -5.41843 1.9773 -1.64339 -0.290336
1766 1 -18.1862 3.36031 15.8501 7.58169 -7.48349 4.44526
1767 1 8.65782 25.9422 18.9898 -1.01775 3.4151 -2.76503
1768 1 12.554 -2.30063 7.4424 -5.1511 0.000493481 3.48098
1769 1 -22.9859 19.1947 15.0619 -3.21802 0.52412 -1.00682
1770 1 -6.71492 -1.88609 22.0413 0.261568 0.290527 -2.74509
1771 1 0.24478 22.479 9.86631 0.814523 0.339142 -0.945731
1772 1 12.8779 -22.0363 -0.454153 0.186256 -0.905459 -1.76049
1773 1 17.1627 15.4489 11.065 1.11083 -0.991978 3.55799
1774 1 16.7776 -20.7452 21.6899 -3.86288 -0.586765 -6.54455
1775 1 8.78857 13.0765 -11.8321 -1.35536 6.97073 5.51938
1776 1 11.7952 11.7856 -4.21796 0.614807 -2.40655 -1.92127
1777 1 -23.1245 -12.0015 15.5189 6.88565 4.00872 1.01842
1778 1 -17.1179 -7.56342 -12.1107 -1.75533 -2.5392 2.99517
1779 1 4.67305 4.44069 -9.73352 2.56172 -0.329747 3.31478
1780 1 6.47623 5.74379 -6.68014 -2.60747 -1.39047 -2.47705
1781 1 7.10505 19.489 -22.0385 5.43612 2.37728 0.331198
1782 1 -23.3229 -15.8701 -12.104 0.8359 -3.23233 -4.47134
1783 1 15.9031 6.60243 -5.71648 0.847867 4.83629 1.34888
1784 1 -11.5543 14.5937 15.5416 3.02643 -1.20596 0.275131
1785 1 -5.54545 5.82132 -8.50345 -2.89697 0.0377734 -0.28281
1786 1 -4.92787 1.75925 -6.88586 2.95482 -1.0385 4.22237
1787 1 8.14952 19.4497 -11.4072 -0.393738 4.6923 -3.17094
1788 1 -14.7859 -17.5673 15.6812 2.01248 3.95162 2.01985
1789 1 23.0742 -1.49903 -5.85955 -3.66726 -5.79179 2.93718
1790 1 8.02068 4.04937 -14.9326 6.71727 -4.21895 2.70858
1791 1 1.28455 -7.8775 -15.0542 2.03736 1.04159 -0.0158851
1792 1 -13.9031 6.6155 7.48926 2.58346 -3.39702 -0.792841
1793 1 19.762 6.86749 -21.0527 1.76034 2.75415 -1.9704
1794 1 18.91 2.0686 -22.0273 1.25349 1.28666 -4.14924
1795 1 19.5538 -2.88129 -10.0893 -1.72406 2.91952 -2.12804
1796 1 -20.9204 -12.329 -23.0452 -0.729336 0.0280368 0.227125
1797 1 -0.0951217 19.3696 17.1634 -0.913004 -4.10871 1.05717
1798 1 15.9029 -7.62682 -18.3592 3.74967 2.98622 -1.20176
1799 1 -12.2313 11.0472 -15.8777 -3.50705 4.0294 0.672906
1800 1 0.0513569 4.89623 14.3244 -2.56988 3.08189 -0.156266
1801 1 -9.19841 -18.8993 -6.13857 -0.862496 3.27287 -0.668828
1802 1 -14.9479 -20.5471 -12.257 -4.31026 -2.01287 -2.45694
1803 1 -13.2252 13.9834 -7.81896 2.43046 -2.25515 2.04552
1804 1 -1.03992 45.1535 -15.8205 1.7033 -3.59151 -1.24185
1805 1 10.5306 2.99869 -4.99748 2.308 0.085214 -1.97356
1806 1 10.3823 -5.83983 16.735 -2.28796 -3.48939 -2.18047
1807 1 -16.103 -7.72622 23.1708 -2.62123 -2.2451 1.70407
1808 1 22.3034 -13.0828 16.6717 2.2819 0.0101542 -0.977305
1809 1 10.0302 15.9846 -1.04432 -0.131962 2.65017 -2.82934
1810 1 11.2282 -22.8532 -8.02793 2.37281 -5.95346 2.18628
1811 1 0.406255 4.77314 21.2381 -0.842018 4.74385 3.33718
1812 1 -12.0367 -4.11417 -19.2049 -4.0656 -5.312 6.38427
1813 1 -18.8745 9.16052 16.9534 -0.42131 -1.87266 1.50741
1814 1 10.1963 5.68341 -7.55224 1.40969 4.93343 -0.453931
1815 1 14.9974 -9.37505 22.2412 -2.45736 -2.94031 2.76335
1816 1 2.80193 18.106 -10.7253 -3.10841 -1.08038 0.175429
1817 1 0.328606 17.4842 -16.5509 -2.15415 1.60196 -2.98289
1818 1 -22.6396 -12.1252 5.96214 -0.608582 4.926 2.43118
1819 1 -12.9572 -10.6206 17.2259 2.01085 -0.478576 -0.378649
1820 1 16.1776 10.0271 -12.3365 0.542272 -1.84719 3.44854
1821 1 20.2843 25.7061 10.7004 -4.91957 -0.103331 -2.41959
1822 1 15.5294 -2.11046 -3.41551 7.29262 -3.22555 -0.211654
1823 1 9.32445 -23.1576 9.24001 1.00084 -1.11828 6.74127
1824 1 -16.2189 -17.0501 8.02555 0.364799 -4.15771 -0.0252141
1825 1 7.63256 -11.1381 -5.39047 0.106002 -4.63861 1.2056
1826 1 20.6452 9.66295 2.72221 4.58287 -1.92372 2.30547
1827 1 16.7311 -22.8338 -3.11703 3.49056 -2.07093 1.05656
1828 1 -12.3349 -21.689 -18.9956 -2.45682 -0.176778 2.76497
1829 1 4.20017 19.8987 10.8792 1.29741 -0.769736 4.78438
1830 1 -17.4025 4.29751 -16.4112 -7.10066 -1.77455 -1.79152
1831 1 14.0429 -15.7901 -3.16851 2.07285 0.128281 -1.48776
1832 1 -21.4047 -12.2747 21.8135 -3.93487 -1.49406 -0.782962
1833 1 -13.1839 6.10048 18.5853 -0.704373 2.47973 -1.23693
1834 1 7.28902 -8.00888 -20.2392 3.1632 3.14305 -1.97746
1835 1 4.38719 24.6348 18.8748 2.62466 1.82889 0.0681663
1836 1 -10.0021 44.6548 -19.2059 1.45978 -1.83307 -1.20381
1837 1 13.6409 -24.4442 9.89518 -3.43034 -1.303 1.20458
1838 1 18.3892 21.7888 2.16955 -1.64102 2.31948 -6.38148
1839 1 18.7196 24.9503 3.94266 -1.70755 1.13985 -0.17755
1840 1 -18.7042 -12.3085 3.48118 -1.16635 -4.00812 -2.06809
1841 1 9.00342 -23.7561 -11.9483 -4.47331 1.10523 -2.02319
1842 1 14.3492 -21.0758 1.84681 1.88291 -0.0612521 -0.422206
1843 1 4.25864 -5.35694 -16.5983 0.274734 -1.41899 3.21238
1844 1 -3.2081 -2.58735 7.06182 2.51472 4.51777 -1.52355
1845 1 21.2378 18.2527 -20.5447 3.61979 3.57236 -2.56713
1846 1 11.8172 -19.759 7.09817 1.10044 -0.231025 -0.357259
1847 1 20.7871 -17.2084 19.3523 0.808373 4.46316 0.378767
1848 1 4.1332 8.98571 -18.5861 5.03058 1.17955 3.48305
1849 1 13.049 -24.4027 -13.4219 -0.651402 -5.6354 -0.0770408
1850 1 18.7076 -20.3175 -7.81772 -0.134988 0.789828 0.790826
1851 1 -5.02521 3.80245 0.375904 6.21072 2.51074 1.22685
1852 1 0.301093 0.592825 -20.0485 0.976508 4.64519 2.48783
1853 1 4.83885 -11.8333 6.56618 5.81881 4.56484 1.8547
1854 1 2.10076 -23.9647 13.4268 1.3312 -2.55739 3.14898
1855 1 2.46957 20.8447 -15.0373 -2.47924 0.465343 -4.41018
1856 1 6.68065 -6.21312 -17.9352 2.62638 0.61301 0.88221
1857 1 -1.22619 -19.1411 0.657723 1.05958 2.78403 0.212788
1858 1 2.35655 -17.2477 -14.1779 -1.49422 0.814472 1.01758
1859 1 7.38738 -16.6251 -16.7194 -0.832549 0.392272 2.05781
1860 1 7.30793 -0.604218 11.3131 1.58793 0.5933 -4.51947
1861 1 -16.023 -21.3245 -18.7975 -1.17882 -2.82675 2.39179
1862 1 -11.4667 -2.02419 -8.86186 1.81086 -5.18165 2.84751
1863 1 -2.75543 -16.9772 -7.07596 4.39947 -3.90944 -2.62293
1864 1 -7.07446 13.2774 20.4917 -2.3583 0.589605 -2.50349
1865 1 -10.2023 -4.961 7.1942 -0.680447 2.91623 -1.38494
1866 1 5.59954 23.6419 12.2318 5.21937 -1.11481 -2.4266
1867 1 6.91106 -10.5691 -2.56344 -5.78044 2.11914 3.3249
1868 1 -4.91055 2.60898 16.8428 6.7302 3.34175 -0.792512
1869 1 -1.23571 24.5191 17.0177 -5.2738 -2.40708 -0.418199
1870 1 -21.5824 11.4176 16.0948 -1.11287 -4.31186 -1.22936
1871 1 15.5426 -13.6126 4.13102 -5.99085 0.994108 -0.711856
1872 1 0.647764 -11.3496 -11.3496 -1.50786 -2.25139 0.437297
1873 1 -10.4742 18.5878 10.5925 3.86977 -3.79688 1.58164
1874 1 -7.98487 -17.1091 -21.0871 3.96496 -1.81632 -1.81939
1875 1 21.667 -6.88997 -9.50062 -4.11375 -2.32436 4.05121
1876 1 -21.6854 9.76096 -19.8751 -1.6909 -1.51611 -1.04651
1877 1 -14.6269 -5.36214 8.62183 -0.987801 -1.76828 -1.22538
1878 1 19.699 24.3916 -0.876384 2.67653 2.76039 2.11088
1879 1 -17.1213 -16.9221 -21.4087 -4.47208 -3.4077 -1.14543
1880 1 -2.6748 25.6984 -20.0725 -2.69668 -0.438508 -0.210602
1881 1 14.1258 4.2893 18.0377 1.04203 2.38389 -1.29353
1882 1 -10.5291 10.5027 18.8577 3.6155 3.3868 -5.3782
1883 1 -7.96306 -14.0708 -6.28271 6.88666 0.648698 -2.77916
1884 1 16.5386 17.079 8.65109 1.70279 1.46855 -1.68608
1885 1 -8.75326 21.3321 20.8397 -1.04625 0.0557388 4.90432
1886 1 19.2047 25.5874 6.63013 2.52686 0.0436194 2.72069
1887 1 17.0879 -8.29567 14.0591 0.99426 1.19474 2.10627
1888 1 -7.59138 -17.6675 -10.9651 -3.09522 6.87842 4.27296
1889 1 -10.7285 2.56361 9.84501 -1.75589 3.08134 -2.11859
1890 1 -22.6801 7.47836 22.8914 -2.22653 1.42158 -3.74827
1891 1 -8.30336 -13.5273 -22.262 -0.10623 -5.64715 5.95843
1892 1 -2.03089 -15.8005 -16.8966 -3.72286 -3.42263 -0.918334
1893 1 3.55895 0.204703 21.1514 -5.53493 0.812327 -8.79117
1894 1 2.63382 -18.774 -4.24342 3.43706 -1.44233 -2.36473
1895 1 -19.0516 -7.16751 17.0657 -0.879446 -1.6495 -0.419831
1896 1 15.6484 20.8141 1.56806 -2.4425 2.14728 -2.99445
1897 1 -13.7239 46.4258 -7.81769 4.11474 -8.86606 -4.45623
1898 1 -21.2813 21.311 11.4167 2.42657 0.878268 -0.0102795
1899 1 -6.98742 18.3014 -5.38347 -1.48314 3.04801 1.87049
1900 1 -14.4135 -0.00469937 8.5914 -0.0784883 -2.97886 0.951729
1901 1 -8.40045 -13.7537 -17.8935 -0.503245 3.92583 -0.471474
1902 1 21.7577 -2.94296 -19.8728 -2.59503 -3.11702 -0.878366
1903 1 0.421423 -19.6532 -16.3785 0.427459 -2.92876 -0.64137
1904 1 -9.62387 -20.6344 18.4265 -1.29419 -2.62563 1.42684
1905 1 -12.7344 10.1408 -9.21869 2.7237 0.123889 2.78727
1906 1 -21.1238 45.1813 11.0781 -5.22047 -4.95038 0.913198
1907 1 -21.1466 -9.00573 12.0782 0.816681 1.61502 -1.66596
1908 1 -15.4818 -3.16494 2.57406 -1.28483 -1.83697 0.292855
1909 1 9.22718 -8.46052 13.7963 5.24456 3.5035 -1.42958
1910 1 -9.55354 -11.312 13.7171 -7.22116 -1.91629 -1.53975
1911 1 18.867 -2.11576 -4.86296 -0.813514 0.786845 -1.41362
1912 1 -15.2887 4.83153 -0.813099 6.98033 2.18241 2.60132
1913 1 -1.01826 19.7712 -0.287341 3.58139 0.889638 -1.32148
1914 1 18.6218 7.99641 3.85817 -1.98247 0.189199 3.28585
1915 1 21.2844 -22.7483 -14.8592 -2.62213 -3.00112 -0.520285
1916 1 -3.40249 17.0099 3.04546 0.540915 2.06421 2.24666
1917 1 21.8396 24.3255 18.2076 1.34601 -2.06147 0.299578
1918 1 -20.0962 0.192878 -20.5912 -0.431286 -0.113746 1.84437
1919 1 -21.0662 10.3434 -14.8581 -4.572 0.736796 1.13177
1920 1 23.2337 -16.7268 0.408609 0.838822 4.27104 2.88528
1921 1 16.9555 10.6675 -9.38531 -1.26044 0.00903426 -1.5263
1922 1 8.50006 17.3885 20.5337 -0.397509 1.05668 4.36863
1923 1 10.342 0.102466 -9.01902 -6.88741 -2.18504 0.474256
1924 1 -23.221 -19.1237 1.17616 0.73781 -1.42686 -5.37152
1925 1 21.4735 -23.2795 16.694 3.48025 4.11787 0.124105
1926 1 12.8298 -1.11597 -7.87361 0.347287 1.18584 3.13218
1927 1 -5.15778 -23.5961 -21.0177 2.09735 3.78282 1.93087
1928 1 22.5075 -3.69503 4.44525 2.79341 3.28213 -0.917777
1929 1 6.72442 17.7189 0.314236 -0.619609 -0.0434236 1.90035
1930 1 -7.39244 -16.7048 -18.2916 -0.244606 3.0895 -4.0124
1931 1 -8.9534 7.17956 -2.11887 3.2233 0.453187 -0.678261
1932 1 -3.15823 20.6537 4.87388 -6.61192 1.51781 6.22017
1933 1 -1.19051 19.4342 -18.0673 1.95813 0.341727 0.580398
1934 1 3.14389 -9.30256 -2.11507 1.48901 -1.12019 -0.190289
1935 1 18.2968 -17.0508 1.5326 -0.905069 4.88278 -0.00621518
1936 1 19.0373 -22.3121 22.135 -6.00562 3.95906 4.90388
1937 1 1.83527 3.39007 19.1612 -2.21946 -0.495628 -4.32805
1938 1 1.28615 7.67033 17.4937 1.1281 -0.55119 3.82621
1939 1 11.4527 10.2556 0.227974 1.40656 2.29811 0.877363
1940 1 -21.1312 44.9485 7.99698 1.29995 0.482752 0.810989
1941 1 -2.17407 45.1114 -13.2661 1.59938 -6.61914 2.81098
1942 1 -2.33954 8.9509 -0.302261 -1.85028 2.3858 0.224613
1943 1 3.09112 15.7315 -6.51824 3.58181 -2.39694 2.45088
1944 1 -18.2584 -23.0065 -3.30544 -0.454186 4.58443 -3.36608
1945 1 -23.1108 -23.9972 18.7688 0.306525 -2.7345 1.24329
1946 1 10.5182 8.67561 -7.23987 0.920034 2.86523 1.48531
1947 1 -17.2091 12.2863 -14.7847 -0.381351 4.01922 -1.33022
1948 1 10.0613 -0.415576 -15.6065 1.84303 2.83586 3.10755
1949 1 -7.76814 -5.49273 -7.8921 3.05105 -1.7312 -2.06397
1950 1 19.4002 23.2487 -6.64785 -0.406591 -6.26833 1.25794
1951 1 -2.44146 -14.5041 15.2046 3.69293 0.0931344 0.958374
1952 1 5.60495 -15.9889 -10.2134 2.00651 3.68742 -4.91434
1953 1 17.9214 -21.0882 -1.09569 0.80714 -0.568388 -2.85621
1954 1 4.89526 6.04565 8.91516 -3.44071 3.52108 1.00584
1955 1 -11.3308 -17.5968 21.1654 2.94019 -0.0954085 -3.67668
1956 1 -4.22996 3.8938 9.0255 2.829 -0.0266511 -1.96275
1957 1 13.6219 16.1359 8.75676 2.05593 -1.93015 -0.797634
1958 1 14.418 6.88595 16.4445 -3.45701 -1.4713 -0.190414
1959 1 -23.1202 -4.43763 -1.87266 3.35963 2.15615 0.0247224
1960 1 -16.5952 -4.47207 -19.9101 2.69103 0.278424 -2.68586
1961 1 16.4062 -15.1679 -6.57226 -7.11367 -3.77449 3.88789
1962 1 -1.43983 -11.5342 -5.9363 1.58744 3.94118 3.54003
1963 1 -0.459916 14.8372 0.427447 -0.851034 1.08178 0.129278
1964 1 20.7664 26.0772 -15.6408 -0.994766 3.31685 -1.33365
1965 1 18.132 -1.92458 18.5379 6.10669 1.45871 -0.377654
1966 1 -17.5206 -14.3369 -12.05 2.06563 -1.14164 1.06418
1967 1 -14.8977 -23.8892 16.3937 -1.82683 2.2973 -3.74645
1968 1 -22.6496 11.816 12.0995 5.17128 3.68154 -1.34039
1969 1 -4.80018 -9.05554 10.6549 2.70884 -0.805924 -0.404487
1970 1 23.5029 -6.92837 -2.16084 1.63094 1.86058 -3.74151
1971 1 21.6968 -4.38195 7.11269 -1.05086 6.39689 3.56028
1972 1 -4.2843 -6.2507 10.3982 4.2211 0.478948 -0.624134
1973 1 14.5582 -19.4041 18.7406 -2.52007 -3.09737 1.20026
1974 1 15.9308 -11.1458 11.5354 5.07341 -1.86537 1.01837
1975 1 13.627 -17.7517 -20.5028 -1.0454 5.37799 5.14427
1976 1 22.6759 -9.33993 21.4384 0.487658 -4.89685 -2.48414
1977 1 14.9747 -15.9887 13.6841 2.98198 -2.41875 -0.854352
1978 1 9.5531 -2.20049 22.3597 4.34513 1.92344 1.08501
1979 1 -0.81398 24.2774 11.745 -1.22562 1.28833 -0.750179
1980 1 -24.065 3.39718 -19.095 4.60225 0.476254 -0.962622
1981 1 14.5667 23.7187 -2.59567 -3.72298 -0.230419 -1.29767
1982 1 -19.8958 -2.67696 23.1874 1.07256 -1.70675 3.947
1983 1 15.807 -5.85825 -3.63422 1.74258 -1.66275 2.95577
1984 1 0.881862 23.1607 20.6154 -0.0140822 0.993558 -0.695417
1985 1 1.0184 -22.9117 -7.53944 1.59229 0.191072 -2.65083
1986 1 12.883 -5.4369 5.03159 5.13976 4.9592 -1.51903
1987 1 -21.4461 3.48724 7.40226 2.50675 -3.83287 1.94545
1988 1 7.0684 16.8332 11.0971 -2.22623 -5.34746 -1.54223
1989 1 -11.9043 -14.2213 10.7279 -7.31608 3.82151 -0.155213
1990 1 19.8077 -15.5605 -4.85989 1.90404 0.858985 1.92662
1991 1 -20.4868 46.5075 20.2942 -4.96595 -0.464795 -0.396115
1992 1 13.7281 21.4987 5.14897 -1.03124 -2.91947 7.65445
1993 1 4.33694 12.2779 -12.6023 0.372208 1.63687 -2.61238
1994 1 23.2787 -17.7361 3.30374 -4.26149 1.94052 -1.41236
1995 1 2.27527 6.31474 12.8608 -3.22001 2.14945 -4.67893
1996 1 -9.96672 6.4336 23.7903 4.89429 3.22881 0.994821
1997 1 21.4517 26.6644 8.21135 -4.74299 -3.38733 0.978782
1998 1 -12.5451 11.1167 -1.03305 4.59966 3.46576 1.35878
1999 1 -4.43377 -10.2673 -23.6508 -0.0499926 8.55127 1.07213
2000 1 1.67996 2.68836 -17.9266 1.77725 -2.16242 -1.66481
2001 1 -7.40412 -13.0859 -3.61737 -0.11833 1.80835 1.66846
2002 1 23.4201 23.2409 -7.09867 -2.53793 1.96275 2.77939
2003 1 10.04 -2.74394 -10.3033 -1.70312 0.816979 3.77207
2004 1 0.300128 -22.6844 23.6391 2.64112 -3.42663 -5.19745
2005 1 0.76593 -6.31233 19.1232 1.8975 3.5839 0.6508
2006 1 11.2016 -10.8449 -6.0517 -3.58314 0.654406 1.71337
2007 1 -9.07424 14.2639 -11.868 -2.82728 2.27785 -0.0392772
2008 1 -11.4142 23.8062 12.8068 -8.33822 1.62702 3.91205
2009 1 -2.30467 3.42856 0.980279 -3.60821 -2.18088 5.05471
2010 1 -7.90261 4.29708 23.3671 -0.178934 -5.88871 -1.7942
2011 1 -2.08419 8.35742 19.6964 -4.71094 0.231643 -3.15711
2012 1 19.0434 -21.6237 13.2183 -2.45031 3.88011 -3.472
2013 1 -15.531 23.4372 2.93583 1.21109 6.51846 -1.36979
2014 1 -8.22531 -7.07033 13.5953 -5.60875 2.66342 -0.62628
2015 1 -3.57254 -5.60247 -1.78953 -0.654787 3.98596 2.74912
2016 1 -5.5387 -17.3468 -7.31147 1.92297 -0.886015 0.909063
2017 1 12.8159 11.0939 22.7125 1.81148 0.384642 2.02767
2018 1 -18.4405 -3.62596 4.58676 -1.99051 0.171527 2.50237
2019 1 0.745686 25.9757 20.0187 4.6342 -0.422347 -2.93437
2020 1 9.39368 -15.0784 -15.2486 -0.366827 4.37862 -1.25902
2021 1 -4.18259 11.9769 14.5659 -0.288955 -1.96681 3.54457
2022 1 17.4785 25.0491 10.5178 2.38113 1.90773 3.25684
2023 1 -19.8886 -12.9616 6.13764 1.80211 3.21398 1.72722
2024 1 9.66578 10.4519 13.8048 -4.02102 -4.3659 0.546106
2025 1 1.44356 -12.767 21.991 1.20513 1.33333 1.3534
2026 1 6.13012 21.9086 10.0574 4.0152 -0.980722 2.25563
2027 1 4.27488 17.5934 -8.39004 -9.24281 4.12999 2.90919
2028 1 -0.544707 -3.62958 -18.8992 0.509751 -2.21165 -2.23968
2029 1 17.029 -10.4126 -1.19168 3.46986 0.962096 0.287278
2030 1 11.2958 -19.2436 -21.2124 4.7676 -1.4915 2.26275
2031 1 -5.66237 -20.6415 -11.8583 -2.70942 0.23409 0.829702
2032 1 -8.9926 5.75668 7.08363 4.82869 2.43925 -0.0190365
2033 1 10.6436 13.0374 0.148108 0.178906 -0.528058 4.07201
2034 1 -10.2045 -3.32356 -17.1575 2.23925 2.52342 4.59145
2035 1 18.7032 -16.9599 21.4539 -1.2338 -6.56903 -2.28713
2036 1 -14.1412 6.35526 -22.198 -4.8836 1.33674 0.82852
2037 1 -18.5537 10.3452 12.727 -1.11221 -1.03427 1.47356
2038 1 18.8235 0.354882 13.9152 -1.48392 -2.202 -0.0987121
2039 1 9.54251 -23.0752 -20.7442 -3.43809 3.85302 5.37948
2040 1 -5.48278 -23.3782 -8.25864 -2.26797 -2.94523 -1.1194
2041 1 -9.62733 -12.2963 22.0987 -5.2653 -1.92227 -0.0397
2042 1 5.93013 -18.9296 22.7265 3.33182 -4.13638 3.37342
2043 1 16.1564 11.9925 13.7606 0.494089 3.32309 3.21494
2044 1 3.44011 -9.36766 3.68602 1.96143 2.58248 1.95668
2045 1 7.72183 -18.6151 -18.8318 0.14375 1.36564 -2.81681
2046 1 -8.31836 16.8768 17.5203 3.46024 -1.45926 2.33036
2047 1 -4.98191 -13.3665 6.90728 1.71882 -1.99159 -5.63804
2048 1 2.9171 13.9362 -17.3685 -2.96968 -0.900115 -3.33437
2049 1 18.3346 24.1792 -19.7368 5.73635 -0.345541 1.5495
2050 1 -12.8181 7.24321 -10.5329 -2.58468 2.34941 2.98808
2051 1 -23.804 10.0894 -6.2021 -3.41136 1.65651 -2.17479
2052 1 -10.4054 5.95821 -20.1991 0.00155024 1.49066 1.37415
2053 1 -21.6709 12.2131 -18.6862 1.40894 1.33101 -0.79538
2054 1 15.3442 2.82982 1.32528 2.06548 1.3456 1.19383
2055 1 4.59191 17.4627 9.22888 -2.82801 3.17004 4.15225
2056 1 -6.80541 26.2608 -22.4858 0.145712 2.41855 -2.91544
2057 1 15.494 -6.55317 5.99504 2.47479 5.31581 -3.20609
2058 1 20.8969 11.3918 -13.0721 -1.0369 1.50911 -1.46633
2059 1 6.26226 -10.0994 17.6902 1.59378 -0.1042 0.808458
2060 1 -10.2042 -1.36345 -1.47704 0.636837 2.97782 -3.91372
2061 1 -12.1331 -23.257 -21.3571 -1.7739 -1.83598 -0.357252
2062 1 -15.9196 20.3088 -8.82713 2.40075 2.121 5.11552
2063 1 -10.5105 -12.1523 -20.751 3.63789 -4.53603 -1.55156
2064 1 -13.7969 -16.9865 9.76671 2.04961 -1.6387 -2.01748
2065 1 13.0512 -15.9039 20.2766 -0.0401198 1.38928 8.26006
2066 1 17.7046 5.10467 9.38044 -0.525135 1.09966 -4.58806
2067 1 -23.9533 11.0336 20.8253 1.81612 -0.964723 1.16432
2068 1 -15.39 8.09835 -6.56303 -1.62407 3.50343 -1.38376
2069 1 22.2328 -23.4685 -12.1913 2.12808 -1.79391 2.01738
2070 1 -23.6618 -0.470944 -1.54641 0.753777 6.10237 -4.42862
2071 1 -18.9436 -13.3792 22.9988 0.883389 -1.59345 5.28132
2072 1 -19.384 7.76069 20.9862 -4.15633 1.68372 1.03748
2073 1 -16.988 5.81687 -18.743 4.0117 -0.456757 -0.234451
2074 1 1.30645 9.13319 -12.1661 0.0140696 2.26384 0.825237
2075 1 -9.26855 -19.9857 23.4965 -2.29484 5.42012 3.97447
2076 1 -15.1804 26.695 -9.73791 -1.96214 -1.46109 -2.58476
2077 1 -16.46 -3.87674 6.56739 0.621353 2.2641 -3.28683
2078 1 -16.3954 2.24123 -22.3021 4.46729 -2.8979 -3.32591
2079 1 3.81272 -11.9239 -20.3335 -0.238646 -1.03615 -4.0833
2080 1 -20.9941 45.8285 -17.736 -4.06793 1.10156 -6.25063
2081 1 -23.4875 21.4657 -15.5953 -0.136996 -1.41508 -2.02439
2082 1 -10.0104 20.6895 3.76868 5.66813 -3.95287 4.44286
2083 1 20.9024 8.71043 -9.35567 -2.52887 5.43621 1.85135
2084 1 14.1592 19.2356 19.7917 3.0742 -3.46825 3.60791
2085 1 -20.2566 -20.3199 -9.74166 -0.0117948 -1.28017 -0.106651
2086 1 -12.26 -10.1732 5.51441 1.0611 -0.217954 -4.46761
2087 1 -9.54954 4.99173 -14.0312 2.79559 -1.63454 3.77054
2088 1 7.55478 21.866 21.0466 -3.54664 0.545895 -0.73468
2089 1 8.52044 14.1189 -18.9018 2.03009 -5.63416 -0.0144665
2090 1 16.626 8.77666 15.7862 2.27421 -1.25358 5.13778
2091 1 -7.0191 8.3173 14.3216 1.59023 -2.12851 -0.363624
2092 1 -19.6614 25.6432 -22.041 2.55206 1.71277 1.11891
2093 1 -3.03848 15.6208 -4.98595 1.97281 0.700023 4.14544
2094 1 23.1874 13.1657 -2.41542 -1.50739 -0.00852479 0.191663
2095 1 -22.1823 -9.45731 4.81143 -3.67469 -0.266596 0.97194
2096 1 10.5335 -4.88001 0.787772 1.36941 -3.41258 1.439
2097 1 -5.81056 6.90223 12.0911 -0.319496 -0.183866 0.603539
2098 1 -15.3392 -16.3942 -5.24453 0.400931 -2.57021 -0.350489
2099 1 15.5721 -10.3847 8.58868 2.70183 4.43657 -2.59588
2100 1 -1.52799 -4.95429 20.4016 -2.56578 3.31347 1.2513
2101 1 -21.9871 -7.79952 16.2423 -6.4535 -1.05689 -2.01501
2102 1 7.97617 7.54014 -8.54021 0.206399 2.88826 -1.86868
2103 1 11.9641 -15.8145 -15.6355 -1.70278 -1.01316 -7.53437
2104 1 -21.8442 -4.2479 18.9038 -0.982462 0.412765 0.091439
2105 1 13.3449 7.60699 -14.1467 3.58765 1.90461 -0.386332
2106 1 -19.5253 -15.572 -20.082 2.07335 -0.544901 -0.0217656
2107 1 -7.85657 5.48967 -11.743 -1.13083 -1.87464 -0.249524
2108 1 -9.01894 10.9416 0.407249 2.42518 -2.09269 0.590585
2109 1 -3.87832 11.712 21.7834 -3.66217 -2.50045 0.580458
2110 1 4.60284 9.62768 -0.0726833 1.67746 1.48681 2.82783
2111 1 21.8399 -11.142 18.8554 -1.92003 4.90082 1.33423
2112 1 -9.75018 2.07427 17.3026 2.38283 -2.50656 -1.19493
2113 1 -19.1462 -3.11341 19.4039 5.00427 -1.34454 -0.190584
2114 1 -0.676138 46.5773 18.848 -0.00733991 1.00974 2.18772
2115 1 18.5635 -14.6694 -11.3631 -1.54773 3.72447 0.339236
2116 1 18.0961 -5.65729 3.06121 -3.43359 -0.653796 1.53291
2117 1 23.3213 23.5798 5.18653 -0.95725 0.687615 -1.71048
2118 1 -12.5633 -2.61427 -5.14873 -2.59425 2.89936 -4.88579
2119 1 -12.0003 17.5197 2.81056 -4.44018 -3.1313 0.0230288
2120 1 17.0562 -20.3835 9.83843 -3.72988 0.0491308 1.92833
2121 1 8.07104 -19.5407 -23.2326 -0.477753 -2.54837 -0.905926
2122 1 12.2392 3.69031 -12.9564 2.57377 2.63499 -0.639292
2123 1 20.0998 -9.36036 -17.6912 -1.50569 1.50283 -2.12644
2124 1 20.0084 -5.09358 -19.6535 3.0807 -1.30421 0.841194
2125 1 -0.0430043 -15.9758 15.172 4.49397 -2.499 4.33206
2126 1 11.779 -7.55853 -4.49796 -1.87705 -1.54982 -0.809627
2127 1 -23.2238 -10.8326 -22.2024 1.13405 -3.51226 4.26151
2128 1 -17.6719 -20.1348 -4.44581 -1.54691 1.4972 -0.744168
2129 1 -12.2116 -23.4597 12.4998 -3.83064 0.654024 -2.2331
2130 1 -21.1595 9.18635 -5.36799 3.12316 -0.379854 3.08669
2131 1 16.5215 -6.16632 0.443303 -1.04797 0.182037 1.05469
2132 1 11.9512 -23.3469 -22.7107 -1.34064 -1.4407 -2.32744
2133 1 -13.6585 -10.8503 7.75237 -4.07291 4.53512 3.69126
2134 1 10.8772 24.1226 8.02679 2.8515 1.69291 2.97468
2135 1 16.4908 13.6812 22.9134 -3.82557 -1.30114 3.50547
2136 1 -2.77052 -20.774 5.5487 4.41134 1.02552 -0.47999
2137 1 16.2905 18.4069 -23.4347 3.09551 1.48078 -2.49203
2138 1 16.6669 24.0698 -15.8967 -3.34336 -0.6195 -4.22082
2139 1 -8.55834 4.18093 -16.9552 -0.145128 1.40332 1.12154
2140 1 12.3197 -13.3375 17.3404 -0.725153 0.933865 0.819303
2141 1 -20.3081 45.9418 1.11737 2.35139 3.81465 -1.94623
2142 1 -16.0829 -7.60251 17.6567 1.90688 -2.1342 -0.595067
2143 1 20.6127 5.16677 -13.5827 -2.20049 -0.714686 2.83563
2144 1 3.9734 0.768435 7.41425 -2.75687 0.852916 3.97597
2145 1 20.9737 9.99376 23.5711 0.452648 -1.06492 -0.989802
2146 1 2.74385 9.89987 16.8109 0.21075 0.562755 0.62916
2147 1 3.98256 5.70143 15.1462 -0.0775195 0.460242 3.25549
2148 1 12.3141 -23.1394 21.0106 -0.222756 1.34352 -3.49591
2149 1 17.736 -3.86314 -2.8135 -0.815337 1.46411 1.91877
2150 1 17.1357 -12.0888 2.33574 -1.32867 5.87584 -4.5725
2151 1 9.50907 2.14893 -11.1103 -0.96661 -0.743473 -3.06445
2152 1 6.80774 22.8642 -6.80491 4.58402 0.813088 1.59538
2153 1 -8.92483 -10.8398 -2.88564 7.72484 4.57263 0.953411
2154 1 -10.8403 19.2137 -23.1669 1.46554 -0.0298743 3.48233
2155 1 13.4573 1.30129 21.1509 -0.592311 -2.10538 -4.98221
2156 1 -23.2382 21.4174 -9.09424 -3.06412 -0.785344 -0.5701
2157 1 -3.10788 17.6143 21.1619 4.84474 -2.08229 -0.0774193
2158 1 -17.4016 15.4961 14.2464 -0.660004 2.17254 -0.421526
2159 1 5.54738 -21.6982 14.4629 -0.000334491 2.6532 2.96868
2160 1 -21.9472 0.144937 19.4998 2.56255 2.12902 -0.877852
2161 1 -0.77617 9.671 -4.07881 4.33074 0.385755 1.80058
2162 1 18.6044 12.2629 -6.05614 2.31873 -1.49674 -0.309195
2163 1 4.22684 -11.1171 15.5466 1.3006 -0.994578 -1.06785
2164 1 11.5284 2.72174 -7.87919 0.351671 -4.45272 -10.549
2165 1 18.916 19.5827 -12.8542 5.27443 -1.18319 0.423263
2166 1 -14.386 20.3714 -13.9289 2.77542 -0.0701333 -4.32841
2167 1 -13.4733 -9.4855 -15.6576 2.74226 -1.87189 -0.934928
2168 1 -17.9346 17.6917 3.0194 -6.82945 -1.66068 -0.349597
2169 1 11.4878 -6.24135 -18.0262 -3.82451 -0.565341 0.65543
2170 1 -7.9194 -15.6243 2.13312 2.36912 3.66039 -1.5033
2171 1 -2.97514 3.89988 6.28124 1.19682 -5.13438 -5.69312
2172 1 0.134825 20.7577 -4.61494 -2.4448 -0.429024 -0.941105
2173 1 21.8392 1.29975 -12.7863 3.79205 2.33596 -1.25825
2174 1 4.72083 6.08322 -3.92824 -0.0334816 2.38723 2.18779
2175 1 11.7767 46.0963 11.6108 -2.09428 4.70794 1.20527
2176 1 9.7769 -21.3577 18.1201 -1.45014 1.46111 1.37832
2177 1 18.4915 16.7564 15.9434 2.86103 0.290639 -0.602236
2178 1 19.6677 -17.0165 -8.64618 -2.38648 1.51181 1.54802
2179 1 11.6092 -4.98476 7.73828 -4.47087 1.23791 -2.21523
2180 1 10.946 -5.62307 -10.0927 -4.08792 3.18945 2.47976
2181 1 -14.2137 -22.0867 22.4155 -2.45457 0.177962 -3.13827
2182 1 -2.08926 -1.10244 11.8534 1.17752 4.35645 4.27946
2183 1 4.44476 -2.3961 15.0504 1.91019 -4.41548 2.77333
2184 1 15.3194 19.5421 -18.597 -1.31863 0.909595 1.98539
2185 1 6.47979 5.84438 18.5315 -2.25508 3.36563 1.03079
2186 1 1.77171 -10.0271 -19.1768 3.52553 4.75221 4.33593
2187 1 14.283 -6.31434 8.45024 5.00574 -2.75898 3.04059
2188 1 -11.5813 6.65789 12.0885 -2.74825 0.175419 0.0861386
2189 1 3.41311 21.0229 -11.0396 -1.00524 -1.53155 -2.23592
2190 1 -1.85273 2.36126 -12.4797 3.60045 4.67129 3.07761
2191 1 12.2155 9.87078 3.52801 -0.889425 -3.09519 -0.663301
2192 1 0.300236 3.0076 -21.8165 1.75696 2.33587 2.02784
2193 1 15.8596 -13.8613 -14.684 -4.32529 -1.07125 1.81697
2194 1 -19.1647 4.25416 21.7562 -2.24967 -5.92865 -0.677266
2195 1 -8.89704 -19.1919 -8.88614 -1.63333 1.7298 1.14479
2196 1 -2.37803 6.92238 -11.0835 0.114277 -1.29241 0.5961
2197 1 15.6053 21.9841 20.0642 5.18662 2.98213 0.225804
2198 1 4.73625 8.96707 -4.73546 0.518976 9.72732 -2.35944
2199 1 -16.2789 13.0121 0.673628 0.477193 -0.362988 2.97658
2200 1 -3.04711 -23.0564 3.50834 1.7506 2.85388 2.03019
2201 1 13.082 -10.5943 -20.9682 2.68019 -0.333238 3.01026
2202 1 20.0714 -18.4838 -20.9425 -5.16418 -3.75709 2.42735
2203 1 8.37478 -2.0793 -2.79034 -1.81476 -2.29163 -2.95181
2204 1 6.5856 0.344542 -0.992483 0.388511 4.27938 1.24271
2205 1 -22.1642 7.57129 -15.0583 2.45771 3.39856 -1.76962
2206 1 -2.70738 -10.2167 -13.2674 1.17687 1.82625 -2.2443
2207 1 -20.4237 -8.99289 -0.424494 1.0145 3.24639 -2.06369
2208 1 16.0669 19.3764 -3.36042 0.743458 7.11033 -1.19467
2209 1 21.287 22.5565 20.2714 -2.24926 0.809122 1.04774
2210 1 -24.027 -19.4717 -3.09836 -0.0335776 -0.290177 -5.22398
2211 1 -19.3842 4.69627 -20.0496 -0.86514 1.13938 1.63559
2212 1 -17.4035 -4.93117 -6.27344 -0.276624 1.27547 -4.48412
2213 1 18.8281 8.63345 -4.86279 -5.14463 4.84477 -2.22278
2214 1 11.9925 8.20047 18.7259 -0.264656 2.90427 0.440123
2215 1 10.3489 13.5767 -2.54138 -1.07902 -4.93649 -2.18037
2216 1 1.14513 -1.07151 -15.1736 -2.3315 -4.54415 3.01478
2217 1 13.0738 -14.3156 23.1056 -0.226246 0.141773 1.24232
2218 1 -17.4815 -5.13468 21.1715 1.88585 -8.15931 -3.23587
2219 1 -11.5521 -22.0985 16.7576 -1.2345 3.95923 -1.57109
2220 1 1.67428 15.4495 -13.6539 2.77463 -2.48017 -2.49961
2221 1 17.592 2.30682 20.1675 -4.3765 -3.14343 -1.53374
2222 1 3.76061 8.20113 3.13911 1.07468 -2.912 2.37571
2223 1 -21.6794 17.0379 -21.0217 -2.95379 2.0537 0.817805
2224 1 -14.2345 16.7219 -4.699 0.91615 -4.1862 -2.19175
2225 1 1.00357 -19.5635 -22.1858 -0.839829 3.43684 -4.90247
2226 1 20.7185 -1.80876 13.9703 3.68835 4.81593 -0.711047
2227 1 11.2201 1.29551 -2.65426 0.115232 -1.03547 -2.71406
2228 1 -7.70544 -7.02798 -21.8884 -1.32826 0.953885 -2.9874
2229 1 18.3236 3.67055 16.7814 -3.58905 -1.52787 -8.91634
2230 1 2.9997 17.621 -1.92516 3.29681 -0.150647 -1.92719
2231 1 -15.6293 22.8261 11.8919 2.11527 1.28787 -0.640392
2232 1 -21.826 25.2959 -14.6327 -0.468324 7.25176 -3.8034
2233 1 -10.0151 0.828298 -14.8641 1.86771 -0.847044 0.313368
2234 1 -3.81914 1.9351 -4.13625 0.320286 -1.25784 2.52242
2235 1 10.1225 -22.535 12.0152 2.90581 -5.113 -5.5209
2236 1 22.9084 5.0184 -16.771 -2.06675 -0.345735 1.66753
2237 1 0.482353 -23.5269 -21.352 1.00275 -1.97128 -3.04033
2238 1 16.5189 14.7504 -18.1322 -2.98836 1.82663 -1.87777
2239 1 -14.0386 -9.29426 21.5576 -2.97103 2.0757 1.42543
2240 1 12.0491 19.1348 14.3446 -0.422413 -3.02661 1.90983
2241 1 -22.8789 -3.37701 -18.675 0.023748 4.94284 0.502486
2242 1 -10.392 -17.7201 18.5017 0.624949 3.69866 3.42872
2243 1 11.2015 24.5054 -11.0476 0.302601 -5.21811 -1.66528
2244 1 22.2299 22.8591 -14.0788 3.158 -0.52045 3.0731
2245 1 21.8395 -21.8108 7.40301 -0.652419 -1.43491 -1.30034
2246 1 3.20803 16.2503 -15.9054 -3.25344 -0.568681 3.5325
2247 1 21.5086 -12.9413 7.76254 0.687611 0.427795 1.473
2248 1 1.23323 -6.31831 -12.3651 4.38232 -1.27339 3.3362
2249 1 -15.0619 13.8565 -16.5062 -3.47799 -2.41641 -0.822054
2250 1 -1.26208 3.36968 12.196 -3.25349 0.71185 -0.0792918
2251 1 -8.91471 -10.1161 -12.3711 -1.91993 1.82789 0.503778
2252 1 -22.7993 -14.3723 -0.0131194 0.637835 2.56124 -2.32912
2253 1 5.16783 -17.1437 -4.113 -0.486058 0.0507816 -2.87603
2254 1 2.77864 19.2826 16.5038 -0.23868 -0.921987 -0.065906
2255 1 -1.6098 -1.68015 -15.3568 1.79991 0.873658 -2.85905
2256 1 14.8604 20.471 -21.9747 1.73423 -0.498566 -6.20007
2257 1 -1.40568 3.83847 -8.04423 -2.34839 1.96271 1.21162
2258 1 -10.8828 16.4111 -22.9963 -1.96067 2.51994 -4.46101
2259 1 -20.2115 -9.63664 21.4897 -1.81371 -1.85426 -1.06815
2260 1 19.8573 19.8874 -17.0062 2.47967 -0.766756 -3.0221
2261 1 13.5497 -2.94651 -12.0107 -0.0271201 -0.0454967 -2.48082
2262 1 18.4088 46.0432 -3.01549 3.4339 -0.69495 1.18208
2263 1 3.36117 -14.2546 -2.57606 2.64881 0.514628 -2.11133
2264 1 -2.07002 19.0878 2.45313 3.84447 -2.45256 3.58284
2265 1 -1.95331 3.51684 19.6309 1.45013 3.00376 3.83693
2266 1 -22.6886 7.33792 13.2557 -1.72137 2.59288 -0.44475
2267 1 -9.94279 -14.4038 0.8475 -4.01105 -2.68733 0.502251
2268 1 12.4278 0.871567 -5.51874 -1.12422 0.386775 1.5607
2269 1 18.3373 12.471 -22.7368 1.01605 1.86826 -4.21137
2270 1 -6.31771 20.9011 1.32579 -5.27801 4.72232 3.28352
2271 1 -23.5025 -18.0204 -7.98545 -2.30606 1.33731 2.35419
2272 1 1.47553 12.0323 11.4236 0.736011 -5.90075 -3.93188
2273 1 -21.7957 -21.0026 14.4852 -3.93878 0.584179 0.990255
2274 1 -5.65162 0.747972 21.0522 1.35353 0.542396 -2.82041
2275 1 -12.339 26.7551 -14.5151 -3.93198 5.07573 1.13486
2276 1 1.77292 10.2835 4.42696 6.2184 1.67157 5.29421
2277 1 -14.2165 4.46364 20.9256 0.347359 2.62041 -0.0862948
2278 1 -15.26 -12.8931 -5.08191 -1.41957 3.64602 -2.46366
2279 1 -11.6164 -0.583669 7.27032 -2.04603 3.23788 -6.69545
2280 1 15.5289 -11.9686 -3.41823 0.991911 4.37129 0.250334
2281 1 19.3622 14.2501 22.7703 -2.40845 -0.971793 0.300572
2282 1 -6.51451 25.2636 8.97878 -0.462897 -2.31107 -3.20521
2283 1 23.6664 -14.784 6.48037 4.37182 -3.22373 2.99541
2284 1 -22.0425 24.5875 -21.401 1.45912 -1.11394 -0.284323
2285 1 -21.1251 18.7208 0.728219 2.11318 -1.44327 -0.45491
2286 1 1.94329 -11.607 4.26507 -0.510215 1.29483 1.60737
2287 1 21.3287 16.4011 14.8104 -2.0629 4.58767 3.76246
2288 1 19.906 -6.50677 -5.94697 0.299479 -0.480872 3.01763
2289 1 -2.59493 12.1077 -20.8852 1.91735 -0.338307 2.72203
2290 1 17.6747 -5.5877 19.4723 2.8805 0.0881958 0.0262751
2291 1 -1.5176 21.764 20.2664 -5.96684 2.44386 -0.493305
2292 1 -13.9511 -9.90737 -1.35064 2.79044 -0.00790191 3.36321
2293 1 3.87405 8.86468 8.47838 3.23683 1.42004 -1.82147
2294 1 -17.9565 8.74825 -19.7223 4.88096 -4.00053 2.32948
2295 1 -16.6011 12.1754 23.5335 1.59026 0.130175 2.52088
2296 1 -20.8423 -9.23382 -17.2963 -0.952088 -0.425049 3.68362
2297 1 12.5716 5.58845 -21.5734 2.95962 -0.240899 2.347
2298 1 -3.97224 -20.4575 -4.11482 -4.3257 -4.06831 -3.76415
2299 1 10.0279 -11.8513 -3.61849 0.436183 -0.7779 -3.4927
2300 1 7.58645 12.8719 0.508085 0.341909 -0.916546 -1.74514
2301 1 6.69714 -23.1407 21.0376 -0.696613 1.17896 -0.794492
2302 1 15.0853 9.79702 -14.9941 -0.723597 1.23358 -6.30972
2303 1 -12.8991 15.0019 -11.6116 -1.47793 -1.44433 -5.44453
2304 1 7.01459 15.6749 6.42926 0.590568 -0.64664 0.181152
2305 1 -14.6057 19.2276 10.3135 -0.754418 0.148129 -0.817733
2306 1 3.02215 -5.07975 20.4881 -0.308037 0.933105 0.63764
2307 1 -16.7714 15.249 23.8936 -1.95751 -1.26334 -0.765092
2308 1 4.49349 3.25686 -18.6599 -1.3425 -2.26528 -1.31356
2309 1 20.9202 18.7458 -23.6595 -2.47009 -3.02035 1.06028
2310 1 5.4113 -17.7211 9.67703 -0.91964 3.92662 3.66544
2311 1 5.94352 -0.0500834 3.03759 -5.91185 2.74416 2.60502
2312 1 -19.6246 -21.7876 8.85848 6.71007 -3.66691 -0.673136
2313 1 -9.91896 15.9008 -20.0415 0.761396 -4.35172 1.10603
2314 1 -18.3736 6.65546 8.52644 5.2813 -4.49802 3.15305
2315 1 -13.7669 16.607 18.2218 -1.87034 -0.492235 -4.16558
2316 1 -17.299 -14.5779 4.75669 -1.97169 1.85939 1.38721
2317 1 -3.65441 -10.7734 -7.78766 2.23521 -1.78616 -3.16709
2318 1 21.7337 -5.37229 -4.08981 -1.22585 4.31523 -0.259356
2319 1 6.54894 -6.70481 9.27165 -0.703445 6.1935 -1.60649
2320 1 21.5763 1.19619 -18.8801 -3.60325 -4.62324 3.2422
2321 1 -2.59522 25.6056 23.6711 -0.603166 1.9353 1.99431
2322 1 -6.57629 22.1952 19.1457 -5.57774 -1.85894 0.646879
2323 1 3.09451 -4.81138 -2.22298 3.03216 5.4858 3.66255
2324 1 9.84361 -20.6463 -19.2695 -0.030385 1.36697 -0.507149
2325 1 17.2246 -22.5433 -16.8078 -5.46475 5.95722 1.95591
2326 1 21.0796 -9.98612 -11.3562 2.98325 -0.304716 -5.67114
2327 1 13.0137 0.426615 -17.2201 -4.11111 1.90389 2.15564
2328 1 -9.57389 -7.14311 -3.70834 4.89278 0.43607 -1.50427
2329 1 6.05764 6.83928 11.751 -4.04879 0.0706993 -0.378575
2330 1 14.7216 -24.114 15.2181 1.46872 -2.88031 -0.531836
2331 1 -16.6799 -16.1129 10.7816 -3.91996 -0.604484 1.3121
2332 1 19.8626 -16.6574 9.38359 -0.530049 4.80329 2.45172
2333 1 11.6173 -20.38 -14.8798 -3.43298 -2.50221 2.00413
2334 1 -9.31895 21.7778 14.9168 0.48774 -0.392136 -5.07647
2335 1 -6.78643 20.0064 22.6367 2.32863 -0.0572291 0.114203
2336 1 15.387 -13.9501 -22.933 -1.97845 -3.31988 3.74586
2337 1 9.44672 1.38354 -0.608171 3.24944 0.31411 -5.84304
2338 1 -0.162143 -3.11906 -21.5774 -2.66849 -2.88228 -1.34709
2339 1 9.57389 9.89295 -4.96155 4.54994 2.7454 -1.38566
2340 1 7.80734 7.77223 17.2394 0.946078 -3.14068 -1.29722
2341 1 3.41826 -16.4418 -18.8346 -1.76381 1.66261 -1.66197
2342 1 10.1682 -14.4669 0.302125 2.70502 -5.3126 -2.42194
2343 1 8.57885 23.079 2.37039 1.97 -1.75804 -3.8513
2344 1 13.2865 24.2178 4.43617 2.37344 -3.45075 -0.436477
2345 1 6.12703 12.659 -15.0556 -4.7148 0.78295 -4.52654
2346 1 -3.88276 -19.3948 10.6137 -0.68858 1.32334 4.12147
2347 1 -12.346 13.6271 -14.1117 3.27796 -1.11817 -3.93246
2348 1 8.17507 -1.18533 5.96518 -1.52195 -5.93465 2.33178
2349 1 -10.1027 24.4962 15.4454 -2.14378 -1.37616 1.45922
2350 1 10.3896 5.55475 -13.964 1.6314 -3.04224 1.31984
2351 1 17.8619 12.3307 -13.0896 2.37269 -2.96112 -2.53571
2352 1 -2.49673 22.8251 -20.4291 -1.42665 -1.13237 -0.83844
2353 1 14.315 -2.55342 5.04426 4.79561 2.00243 -2.11697
2354 1 22.5151 -18.5536 21.5633 -1.12102 -3.98462 2.98725
2355 1 -7.46802 0.753887 5.07668 -1.51337 2.45109 3.42923
2356 1 16.5328 -22.7409 -10.2031 1.13318 -2.60161 4.99154
2357 1 -2.80314 0.430313 1.46395 -3.39563 -3.65534 -2.30404
2358 1 2.05076 -13.7089 -10.7394 -2.05961 -5.28111 -2.38192
2359 1 9.83578 11.2233 6.78981 0.471865 2.37557 0.184065
2360 1 12.5571 16.7987 4.23315 1.15984 1.83247 4.05478
2361 1 -22.3075 12.0814 -12.8023 2.50776 0.84708 2.61733
2362 1 -20.1127 12.6215 13.688 -1.93065 -3.68695 2.82847
2363 1 19.2835 -12.2245 -0.708366 5.19631 2.7517 -1.87905
2364 1 3.05766 -3.95318 0.591041 -0.878657 2.86109 4.69627
2365 1 -23.3992 -8.88292 -3.77597 0.0351136 -0.437089 0.221995
2366 1 9.20714 1.94497 2.27388 -1.48777 0.27493 3.14763
2367 1 2.18689 18.1355 13.8556 -1.41929 0.0441566 -0.615169
2368 1 -6.5214 -21.2067 -7.11496 1.29993 -4.80178 4.4429
2369 1 19.6221 3.06354 14.2189 3.83262 -3.51812 -0.56486
2370 1 -22.9766 -9.23279 -8.44942 -1.8076 -4.83359 1.77414
2371 1 17.0468 -21.0432 1.85868 -2.03315 0.667149 -6.13132
2372 1 -23.9205 4.40731 -0.123776 6.09178 0.510016 3.13459
2373 1 13.3071 12.2854 13.1847 -0.492427 -3.46828 2.95853
2374 1 -6.298 7.56148 -1.57048 -1.89354 -0.00813806 -5.8719
2375 1 7.05582 25.8723 12.2932 -7.01066 -5.75991 0.695882
2376 1 -15.7293 -1.00816 21.9201 -3.90557 -2.48017 1.18322
2377 1 -6.18604 -5.80131 -4.91296 2.0395 -0.801367 -5.51452
2378 1 7.67709 1.49638 19.7911 -0.565767 9.18351 -0.906338
2379 1 -22.6626 13.3806 9.8331 -2.25887 2.38914 -1.64717
2380 1 8.50263 -15.1312 21.649 3.02979 -2.1548 3.13091
2381 1 14.2285 -9.48472 -3.80058 -1.47494 -4.65432 1.80501
2382 1 -15.7351 17.4604 -16.5014 -6.02832 1.43477 2.53392
2383 1 21.6848 -20.2633 3.89228 0.0941301 -3.2789 3.19406
2384 1 4.05775 -13.3989 -22.8896 -2.8631 -1.26671 4.49117
2385 1 0.859449 7.69607 2.91862 5.84403 1.46744 6.31797
2386 1 4.16378 -3.46547 6.09339 5.04505 -0.229371 -6.02283
2387 1 -11.7985 -4.56208 15.176 2.88082 -1.35855 -6.07216
2388 1 7.50054 25.0044 21.2334 0.170827 -0.528881 2.48668
2389 1 6.96094 -12.1586 11.9791 0.145727 -4.3055 3.09826
2390 1 -22.0072 -7.84947 -6.02446 -1.24186 -4.79297 0.705072
2391 1 -7.40259 -2.05219 8.86138 1.86326 -9.56838 1.27059
2392 1 8.71866 -21.0897 -14.5383 -1.95618 0.115351 -1.02916
2393 1 4.22951 -15.2607 20.1994 5.60571 -4.2977 -3.77887
2394 1 15.945 13.5309 -5.91783 -0.839729 3.62671 0.499401
2395 1 3.31132 20.2016 20.1143 -2.04607 -4.81656 -0.419446
2396 1 -15.5586 -21.4877 -2.77791 -1.13108 -4.34901 4.71003
2397 1 -14.9321 -5.54109 19.7104 5.4897 -0.0138153 -4.23522
2398 1 -8.42247 -1.68264 14.5222 -1.81329 -1.74034 2.69781
2399 1 -13.9937 -10.1499 10.766 -3.05481 -2.43558 -0.349513
2400 1 12.3035 -7.27767 18.332 -0.42029 -0.488377 -0.0878823
2401 1 -17.8796 21.2773 -3.42244 -5.96147 5.15715 -2.32917
2402 1 17.3799 17.3992 -19.5538 -4.68536 -0.173889 3.78869
2403 1 -12.1673 0.510727 -22.3022 -1.88063 1.01497 -3.31247
2404 1 -19.5727 -10.001 -23.8455 7.88819 -2.2334 2.73665
2405 1 -4.58933 -10.1112 -19.7439 0.223567 -0.0265441 4.59883
2406 1 23.3326 10.0537 -12.8556 0.409041 -3.60901 -1.02234
2407 1 -13.9878 -13.1648 13.8122 -3.22315 -2.03892 0.426261
2408 1 -20.8034 -2.30611 -12.1186 3.00793 0.294904 -2.57379
2409 1 5.22461 12.2635 14.3009 4.59673 -2.28942 -2.17918
2410 1 9.29741 -21.9581 -23.5858 -0.315027 -0.679892 3.34498
2411 1 10.6664 12.5363 -18.5218 1.25948 1.03691 0.0551586
2412 1 6.84906 19.6686 14.6386 -2.2865 -0.545652 1.14521
2413 1 -5.7288 21.0092 4.12137 3.56314 0.412581 0.647113
2414 1 12.0045 -5.53042 -6.85491 3.80088 -6.41232 2.26639
2415 1 22.8441 -23.508 23.5278 -3.10011 1.16351 -2.39902
2416 1 6.71016 12.0198 10.0041 3.30442 1.56825 -1.40061
2417 1 -2.99794 -3.8287 0.685992 -2.12266 -4.09886 -1.6035
2418 1 13.4674 2.66331 -10.5394 0.866574 5.70095 0.0373029
2419 1 22.4349 8.22983 -20.9872 1.08396 -0.176505 -4.9561
2420 1 -0.555606 -4.71912 -6.00777 1.57996 2.22082 -4.55407
2421 1 -23.4608 18.6359 -7.86286 0.00556833 -3.06923 3.0351
2422 1 -18.2302 6.85732 18.3494 -0.542164 -3.24704 -0.0186901
2423 1 13.9467 24.0906 8.84157 -2.00468 -3.07464 -1.20067
2424 1 -23.5762 17.5589 8.05551 0.755777 -0.118093 -4.8551
2425 1 -17.393 9.35062 -23.5606 2.55721 5.9328 7.7709
2426 1 -1.0943 19.2959 21.7523 0.260479 -0.0339416 -3.15015
2427 1 13.8387 3.51669 3.78231 2.735 0.356997 1.81542
2428 1 12.9466 -17.7519 14.9775 -3.1781 0.793309 -1.04539
2429 1 -6.74534 -8.20915 -12.2238 2.11761 -2.69314 2.14392
2430 1 -13.7601 -6.07319 16.4594 0.473681 -2.08078 -2.83762
2431 1 -20.5789 19.7646 -7.9868 -7.86984 -4.65261 3.34364
2432 1 19.1689 15.6838 -14.7269 -1.8889 3.63892 6.98771
2433 1 18.0544 -23.7498 18.4603 2.96137 -0.750163 1.45284
2434 1 -0.236929 -20.4572 -1.5018 -1.14528 0.452807 -6.17569
2435 1 -17.1394 24.476 9.61402 0.51937 -1.34982 1.58925
2436 1 -7.97698 11.4543 18.6009 -7.49968 0.770576 -2.93141
2437 1 -14.3764 -5.44474 11.578 -2.88904 2.11826 2.19679
2438 1 -1.21351 46.2093 -19.6624 -2.79569 -0.902982 0.752903
2439 1 -13.5297 21.8772 10.2048 -0.424679 -0.187372 1.25209
2440 1 5.26858 -2.96684 -15.3743 -0.698815 -0.059523 -0.974338
2441 1 22.4137 15.3666 22.6452 -0.138102 0.0676434 -3.7691
2442 1 -2.25558 -10.1884 -16.7176 3.67048 0.765527 -1.34449
2443 1 8.35967 9.38598 23.1497 3.07965 -2.57819 -5.74309
2444 1 11.661 21.6091 18.1566 -3.6872 -0.712214 5.03836
2445 1 1.60017 3.87114 23.6154 0.717103 -1.96174 -4.80705
2446 1 0.67401 -3.90947 14.3559 1.33951 1.08846 1.26029
2447 1 -3.3233 -15.6473 17.7267 10.0652 0.664136 -1.77713
2448 1 -0.755836 -17.5461 -11.6441 0.0518229 -3.95883 1.41639
2449 1 17.5335 44.8124 12.1502 0.757414 -0.101391 -1.16508
2450 1 6.57728 12.0453 21.383 -4.75932 0.0888982 -2.4389
2451 1 9.17198 -22.9296 4.39428 -2.33325 1.43229 -2.98717
2452 1 13.587 16.2977 -15.2763 1.39681 -1.73019 1.96307
2453 1 -0.305375 10.5875 14.7185 1.9399 -6.29696 -1.06408
2454 1 -6.09809 10.1475 -18.9015 2.229 -3.67915 4.23424
2455 1 12.3808 10.4283 15.1221 -2.3766 0.505957 1.44322
2456 1 19.0982 19.1874 19.6934 -1.22841 4.02969 1.49285
2457 1 -3.81005 2.30564 11.3892 -0.89347 0.783395 -1.72319
2458 1 23.2238 21.3081 -1.99966 -0.100344 6.66438 -2.68719
2459 1 -19.2367 16.8183 -7.84978 3.1137 -4.46192 -3.77836
2460 1 9.85305 8.23458 -16.9298 -3.43389 -1.65703 -3.05413
2461 1 -22.7919 21.1671 -4.23878 0.381282 8.24108 -1.41028
2462 1 -13.8584 25.664 2.31735 -0.0559929 -1.52967 2.07899
2463 1 -11.8081 -21.7988 -23.9806 2.87561 0.375261 0.63301
2464 1 6.32987 16.573 -13.1857 -0.0756454 -1.34676 -1.50873
2465 1 -4.88037 -13.7733 -11.0105 -8.96304 2.15117 2.93563
2466 1 3.49859 2.28759 -3.86337 1.51452 2.73707 2.49783
2467 1 2.65883 -18.325 9.44883 0.700989 -0.375411 2.60219
2468 1 -19.9492 45.8059 -5.40585 -2.80669 -5.9721 -0.102823
2469 1 12.9993 46.6068 23.0679 -1.99632 0.107466 -4.00705
2470 1 13.5535 -19.9648 -10.3654 3.28555 -1.342 1.76652
2471 1 -4.35579 26.8792 -21.9111 0.0883929 -4.72403 -3.75998
2472 1 -18.6336 2.55912 13.208 -0.0747869 -1.5819 -0.114071
2473 1 11.2361 10.8073 -8.71136 3.75573 1.36294 -3.43233
2474 1 -5.20402 -7.82719 -17.7634 -0.857816 0.792282 2.17652
2475 1 -17.4688 11.5371 10.5254 4.783 0.43946 3.35753
2476 1 -4.67544 -19.9999 -18.7441 4.30802 -0.805948 -0.687663
2477 1 13.2725 7.34782 -3.08909 -0.487854 6.0999 -3.00791
2478 1 -3.98295 -23.5735 -3.99936 1.32318 -6.96584 5.01077
2479 1 -20.7815 -3.50977 1.69421 1.08746 -0.450767 -1.5896
2480 1 -0.377468 18.2414 -5.92279 0.00383642 -4.26964 -0.952207
2481 1 -14.2791 -8.19998 -9.72177 -1.87306 4.19487 1.19296
2482 1 9.25913 -7.46707 0.820232 -0.619655 0.0695993 -2.62274
2483 1 -1.12479 12.1978 -10.7268 -2.21972 4.47473 -2.36006
2484 1 1.00809 -16.3055 -9.81745 5.00179 5.86255 -2.3232
2485 1 1.56876 -16.6279 5.32881 -2.55196 -2.54208 7.65476
2486 1 -3.04945 -18.8878 7.7994 3.5581 5.54709 -2.41807
2487 1 1.69687 18.8092 0.475665 4.09128 3.40402 1.13532
2488 1 -9.67425 21.0882 18.0255 2.62555 0.858178 -0.275362
2489 1 5.2521 22.5043 -12.932 -1.65937 2.83479 2.56323
2490 1 -12.058 24.1866 21.281 0.430488 -6.49508 -2.28003
2491 1 11.934 -22.2166 -5.07036 -4.3065 2.0753 -1.12834
2492 1 -23.4305 13.8121 4.8313 -1.41538 1.48206 1.34116
2493 1 20.6499 22.9964 -20.8686 -0.853532 -0.568305 -3.00522
2494 1 -9.86708 -15.0262 -20.3859 -0.95981 -7.80416 -0.486915
2495 1 13.2362 -12.8346 -9.67983 0.917477 4.20544 -2.29302
2496 1 3.92592 2.15375 -22.6837 2.1635 -1.21426 2.4052
2497 1 3.52975 7.84345 20.2283 2.70806 -0.934083 3.40593
2498 1 -4.63 6.15994 5.6498 -2.34621 0.961059 0.977155
2499 1 -23.9702 -17.6686 7.33895 4.03304 -4.29753 -1.28359
2500 1 9.40561 21.9205 7.15273 1.26944 0.398118 1.17399
2501 1 5.78355 14.1432 8.37269 -1.99761 1.41723 0.000982492
2502 1 -4.77846 -12.9261 10.9367 -3.3512 -3.22433 7.71105
2503 1 16.8734 14.4491 -3.23019 1.38683 4.98465 4.10462
2504 1 9.08963 10.6601 9.48294 0.214361 -1.21928 4.19798
2505 1 -10.4256 18.959 21.4749 -1.80262 -5.25844 -1.71269
2506 1 22.5967 10.9031 -8.5408 -2.58847 3.61954 -2.80963
2507 1 8.00516 -2.56093 -16.1291 3.10128 5.52788 1.3383
2508 1 11.3204 24.0782 -6.29019 2.50709 -1.13885 4.42947
2509 1 -4.87032 -7.61513 2.37885 0.391566 -1.3057 1.27772
2510 1 -21.1691 3.22787 -2.95132 -1.59775 -0.480656 0.117726
2511 1 3.72767 5.69655 18.21 -0.967276 7.29215 1.23946
2512 1 -9.40263 13.1761 14.0542 -4.55942 -1.83525 0.0567355
2513 1 20.1856 6.48087 8.27276 -1.33244 3.79088 -0.385513
2514 1 -22.6788 15.5141 22.2498 -1.79654 -2.06146 -2.4524
2515 1 0.723582 -18.4504 3.02274 -2.72893 -0.2437 -0.257041
2516 1 6.15662 10.9302 -17.4022 0.998635 0.340295 1.35635
2517 1 -11.2623 -13.4355 14.264 -1.52414 -1.94311 -1.12771
2518 1 -0.38824 -0.700867 -0.29836 -0.720087 -1.82498 1.03541
2519 1 -23.8763 23.3007 13.8372 -3.43837 3.98642 1.2979
2520 1 -23.1539 -0.221167 -8.05623 -0.0816648 -0.758632 1.20042
2521 1 10.5866 5.99183 13.8731 -2.13019 2.13045 -2.04459
2522 1 -2.18788 11.2261 1.7761 7.13356 3.14984 -1.56958
2523 1 -14.909 -23.6254 -22.1984 1.48463 -0.529009 3.15241
2524 1 11.4441 22.8025 -19.3117 0.725146 -1.51536 7.71937
2525 1 -12.031 -14.9244 -7.81855 3.96673 -1.3389 -0.442397
2526 1 -11.7803 -2.43585 -14.6786 1.43932 6.03127 1.74525
2527 1 3.46758 5.13016 6.43417 5.55131 -3.20542 -5.27355
2528 1 -7.96427 14.0506 7.84304 -5.94539 2.61509 0.056471
2529 1 -17.3436 -8.56294 -3.94806 0.681794 2.79383 3.30556
2530 1 5.29656 -14.8263 -16.9605 -0.842231 -1.06627 -0.427979
2531 1 -18.2735 -9.2788 -15.4704 -0.89917 1.68137 1.06748
2532 1 -14.8489 -14.6011 3.03322 2.41875 2.91501 1.99064
2533 1 -14.9945 22.5441 -1.31843 -5.64646 -1.46365 -4.20745
2534 1 -18.0357 -10.0006 -1.61708 6.2636 2.0322 1.36902
2535 1 15.7664 -5.65367 13.3819 0.708045 -4.6526 1.10471
2536 1 -20.9245 -18.5358 -22.7535 0.716508 0.274638 -3.52252
2537 1 -2.79473 -24.0636 14.847 -2.45996 2.28972 -4.15646
2538 1 -5.82412 4.63928 -22.4723 2.72975 -1.81301 0.333136
2539 1 13.0778 -13.0183 20.1119 -0.0747578 -6.05605 -0.370849
2540 1 21.0142 -8.77775 15.3563 -0.766318 -1.30504 3.84345
2541 1 5.98776 8.04145 14.848 -2.3122 3.98923 -0.193123
2542 1 -11.4363 -8.63198 -20.8905 -0.162847 -0.822535 3.70183
2543 1 -15.3514 -6.0512 -8.26865 0.279569 1.48696 0.681969
2544 1 11.8964 3.21731 6.77994 -3.75769 -3.86059 0.26197
2545 1 -10.9623 8.98864 -20.5558 -1.97884 -1.44643 5.48845
2546 1 -16.0151 7.29488 14.2273 -3.5927 5.25511 -1.78022
2547 1 -11.5453 -1.68826 4.51006 -2.37476 -3.75815 -8.08448
2548 1 15.3964 -4.62283 -7.94101 4.80208 1.47212 4.30953
2549 1 8.89315 10.9973 -16.6846 2.60362 0.9048 0.498052
2550 1 -21.1666 -17.9007 -19.9761 1.19438 0.0658967 -0.0187119
2551 1 -6.72214 12.1296 -15.054 -1.94252 4.94566 2.91709
2552 1 -0.827752 -15.1758 8.0278 -2.84182 4.85446 -5.77578
2553 1 1.39688 24.1209 16.3589 -3.48822 1.84237 1.57051
2554 1 18.0099 24.4537 -4.66296 5.12941 2.46909 -5.91294
2555 1 5.09148 12.858 -7.58941 -2.9499 3.46655 -0.883056
2556 1 -7.80229 -13.0952 9.39139 2.50635 2.581 -1.38042
2557 1 17.7543 45.9257 -13.7836 -4.33992 3.13684 -8.08149
2558 1 -19.7229 9.08921 -21.8047 1.56956 -0.825084 -2.68323
2559 1 -16.1592 7.50068 5.92375 -3.24619 0.666319 1.00332
2560 1 22.1864 46.5858 7.86638 3.45373 6.86848 -1.61437
2561 1 -9.94433 -0.953244 11.2566 1.96956 -0.0734151 -1.79586
2562 1 -21.4568 -4.97544 -12.2697 -1.24809 -8.85323 0.387446
2563 1 19.8826 -5.58743 -22.3297 3.40161 0.577026 -5.26288
2564 1 -9.41511 -14.1777 -8.73398 -2.19656 3.31469 -3.8644
2565 1 10.6589 17.0621 12.4213 -0.635744 -0.916549 0.544241
2566 1 23.1988 -11.204 13.0333 3.76046 0.326614 3.18699
2567 1 -13.7748 0.305657 -17.8673 3.13875 -3.04683 -1.08895
2568 1 18.7516 -10.9451 -20.1463 4.63249 -4.32714 0.600585
2569 1 -23.7384 -19.4035 -14.5955 -0.373425 -2.96197 1.31893
2570 1 -22.1892 17.7383 -15.5764 3.00188 1.98133 0.0561736
2571 1 13.4695 -1.99771 21.2343 1.18536 -0.376056 -3.44617
2572 1 -21.0101 -19.3138 -7.30047 -0.719593 -5.09161 4.16493
2573 1 19.9888 45.8248 -5.30587 0.752889 2.8291 3.99234
2574 1 -19.3897 45.6279 -10.7287 -0.821482 0.264571 -1.42888
2575 1 4.28612 16.8674 1.91162 1.97136 1.46689 -3.17372
2576 1 21.0017 18.9989 13.7989 -0.451022 2.69066 0.0912995
2577 1 13.2798 19.2419 -4.29105 -4.57922 0.750043 5.45648
2578 1 -17.6173 -16.3923 -3.5081 -0.285574 -0.722566 -1.28396
2579 1 -9.1818 13.424 4.22554 -6.38598 0.743666 -1.14001
2580 1 -23.9473 13.6797 -20.1375 0.134099 -1.69414 -4.71796
2581 1 -8.52068 16.9116 21.7438 4.37195 0.420353 1.27839
2582 1 11.2579 26.0115 10.1386 4.14718 2.87252 -6.75644
2583 1 5.32957 19.3069 -1.41509 -2.03657 -1.72971 -2.04448
2584 1 -12.6246 -21.6936 -10.9316 0.313949 -0.474171 -2.96072
2585 1 16.7489 -16.2696 17.4741 -1.37507 -0.268378 -0.260494
2586 1 -13.8646 15.7377 14.256 -1.04446 -3.20371 3.91403
2587 1 18.1515 -21.1652 7.13461 -0.839773 2.61497 2.14527
2588 1 17.9285 2.23959 -16.8837 -1.44982 -0.693516 -3.11259
2589 1 -1.78273 -5.30314 9.33353 3.02131 -2.60214 -0.183022
2590 1 11.5743 0.663297 -12.8638 -4.90605 1.00658 1.47119
2591 1 -5.38409 -23.0149 15.2417 -2.40819 6.73255 1.81558
2592 1 -0.97411 -17.3261 6.38679 1.34983 1.7091 0.690923
2593 1 -21.067 -7.9695 -22.587 3.43907 -2.15006 -2.17805
2594 1 23.0003 -7.62172 16.9236 -1.98472 0.494116 -2.79646
2595 1 -1.08764 -18.3878 -18.2755 2.57432 0.64245 -3.24306
2596 1 -13.0996 12.8117 -20.1664 3.17228 -2.724 3.27435
2597 1 -19.974 -2.82585 -17.4817 -4.55561 -0.0798473 3.48118
2598 1 19.9198 -0.329219 -2.76246 3.91091 -1.53173 -3.20387
2599 1 -7.08499 4.4333 9.28165 -1.75579 0.361727 0.820524
2600 1 3.98853 21.0682 0.346048 -5.21294 1.21832 -0.91188
2601 1 -3.16869 8.39377 4.78138 0.774057 -0.835012 -2.59571
2602 1 -4.91096 -10.0876 -3.3573 4.36184 -0.677162 -2.62054
2603 1 20.8859 20.777 -3.44374 5.21583 -3.34156 -1.62964
2604 1 14.1835 -12.7757 -1.19014 0.532096 0.652921 -0.247213
2605 1 -17.845 9.47582 -4.17621 0.829706 -1.99338 0.466374
2606 1 14.732 16.4799 19.6547 -2.13437 1.15664 4.14189
2607 1 11.4232 2.00788 -22.696 -3.6297 -1.06274 -0.859913
2608 1 14.7183 -19.8222 23.2279 -2.87723 3.42967 2.37221
2609 1 -13.0711 -6.41782 -17.7155 -3.71508 -0.474858 -3.20153
2610 1 -0.758713 4.12351 -18.5457 6.39356 4.92501 -4.6675
2611 1 -21.3501 24.2162 -18.7008 1.59331 5.09598 -0.827735
2612 1 -14.8405 -19.0497 20.1083 -4.81376 2.1071 0.878056
2613 1 -23.3091 3.31319 12.4805 -0.251045 1.87377 0.339414
2614 1 -10.445 11.8234 -19.9992 0.00498132 0.172911 2.91059
2615 1 -2.69594 1.12517 15.6911 -5.65896 -2.0675 -1.93208
2616 1 22.9456 -4.83085 -8.03286 2.23435 2.62668 4.6571
2617 1 -9.87705 15.8111 -15.8197 5.45331 -4.95048 4.16009
2618 1 -4.83534 -16.5543 -11.4165 3.40639 1.15468 -1.15208
2619 1 1.32985 13.5675 -22.0171 -1.20537 0.0196464 1.12686
2620 1 -8.88082 16.7206 6.79669 -1.4832 -4.65589 2.06711
2621 1 3.43707 -21.8675 2.71505 -4.66376 4.83538 2.21425
2622 1 -0.315619 -20.0042 23.2037 0.975402 5.32974 3.45054
2623 1 -22.406 19.8171 -21.2128 -0.813684 -2.52662 -0.00482124
2624 1 -19.7297 18.5408 -5.37999 -2.92258 -2.76283 -0.264044
2625 1 -5.78478 -2.82696 -23.0507 -4.21237 -0.331344 -1.67758
2626 1 -1.68298 5.72103 22.8669 2.58831 -0.147426 -0.449106
2627 1 14.5453 28.004 8.00925 6.8586 3.14469 -0.235219
2628 1 12.2616 -7.85246 -21.4175 -1.37676 1.82939 0.74477
2629 1 -21.4881 -3.85516 4.57765 -0.394782 1.83556 4.10216
2630 1 -13.2033 -7.82801 18.8299 -0.261239 1.98491 -2.01073
2631 1 18.5974 16.1358 1.73657 -0.0921315 0.223318 -0.666619
2632 1 17.4187 -0.740447 -17.5963 -2.06037 -1.55957 -1.72677
2633 1 -3.87505 -17.2831 -18.9221 -3.69056 -0.805255 -0.0759545
2634 1 -5.50202 11.6645 -21.5407 1.31918 -1.04012 1.62292
2635 1 -1.10573 11.4106 22.4386 -0.0551458 2.11996 10.28
2636 1 -15.4784 -20.5396 13.3657 2.60908 2.00101 -4.0823
2637 1 11.7848 -16.6987 -18.4749 2.50612 1.15028 0.255795
2638 1 14.3914 2.7148 -7.11869 7.75349 -1.95074 1.12474
2639 1 -2.56673 -10.0381 20.3854 2.66564 3.55555 -4.28296
2640 1 5.35566 13.4495 -18.607 -1.99969 -2.11358 0.133616
2641 1 23.3513 9.15626 -15.4518 -3.94527 -2.72553 4.13942
2642 1 -5.46749 -19.9336 4.25651 -0.272604 2.26231 0.531234
2643 1 -1.43932 -16.021 -21.9744 -2.20666 3.10202 -7.24257
2644 1 20.1576 -20.2439 -14.9262 0.943398 -0.961226 -2.79478
2645 1 7.53574 46.3069 14.8721 -5.99251 1.25128 -2.11924
2646 1 -4.01485 12.2316 -4.22497 3.0379 -1.96563 -4.00114
2647 1 -8.87804 5.10949 3.16844 -3.2242 2.60454 -0.175998
2648 1 21.0717 -1.25827 4.49823 0.672735 0.680667 0.969124
2649 1 -18.4921 21.7716 -8.06457 -2.96395 -4.19703 1.63645
2650 1 -2.81528 9.7337 15.384 -2.08127 -1.58272 -2.55486
2651 1 -16.866 -19.662 15.6374 2.69622 1.31964 1.22084
2652 1 -21.3388 -6.40052 -14.6237 -1.82131 4.35382 5.80454
2653 1 -9.30009 10.6531 -4.32142 -2.65953 0.39251 1.07146
2654 1 19.0511 -9.37834 -2.72695 -0.537409 0.220763 -0.0431324
2655 1 -5.68642 -10.1763 1.1843 2.39646 -1.26975 0.744848
2656 1 -8.03229 7.93774 -19.943 -2.65259 2.94308 -2.41307
2657 1 -10.6871 -7.65959 10.6857 -2.63957 -4.02395 -0.361208
2658 1 -3.65474 1.26826 18.9064 1.4699 -4.59367 -2.60143
2659 1 16.05 -7.41099 -23.4516 -0.00857884 -2.26258 -1.86304
2660 1 -14.0796 25.1854 12.7781 3.56981 0.770608 2.82973
2661 1 7.75527 6.65026 20.9354 1.59496 2.21861 3.92933
2662 1 -21.4031 -23.315 12.4583 4.26709 -0.98906 -3.21389
2663 1 -8.16199 11.9656 22.7313 -2.01939 2.38586 -1.6717
2664 1 -16.5598 19.6532 22.1575 3.83845 0.409286 2.66875
2665 1 -19.4365 3.97147 0.750434 1.25822 -0.759867 -3.56965
2666 1 19.9047 46.7896 0.950927 -7.36462 -0.47051 4.13345
2667 1 -8.71044 -2.40127 -3.85345 8.71998 0.0195099 -1.84242
2668 1 -6.16768 -15.6835 -22.8033 -2.64473 2.76952 -1.82212
2669 1 0.055995 -7.98327 16.7291 -0.264323 -6.2652 0.689075
2670 1 23.2294 25.058 -15.492 0.565101 2.40477 0.962168
2671 1 10.4152 21.0875 20.869 -0.581885 -2.91174 -2.58565
2672 1 7.90154 -4.25873 8.19771 1.10864 -5.91375 5.28077
2673 1 -14.1708 -23.7069 -2.00121 2.38401 -1.86795 -1.34406
2674 1 -7.7737 -21.2266 -2.35664 -0.967436 0.188595 8.46888
2675 1 17.1858 5.60611 -10.3153 -1.69104 1.80225 0.244131
2676 1 21.4092 22.3395 -18.2049 -3.98132 -0.361906 0.510424
2677 1 -0.873152 -21.5704 2.20653 1.24039 -0.577202 0.849433
2678 1 5.81611 -19.827 -16.9871 -1.98401 1.35765 0.302383
2679 1 6.63012 -2.50192 1.49996 -1.19323 -1.0488 1.39889
2680 1 9.14816 -6.59199 -7.96384 -6.05039 2.07497 -0.897228
2681 1 -15.6806 -7.84099 -15.454 3.25946 -2.42032 -2.84993
2682 1 -20.618 3.96088 11.8032 -0.708719 -1.71316 2.49337
2683 1 -14.727 7.08465 -17.2753 0.665854 -4.85383 2.90385
2684 1 22.5805 -12.1171 2.86865 0.400438 1.86389 -2.11807
2685 1 -2.90172 -7.40965 6.35417 6.40395 -1.7086 2.14654
2686 1 6.85523 -22.586 -20.328 -0.551144 -0.390129 3.03846
2687 1 19.116 -17.0015 -15.8067 -1.58472 2.34639 -0.474457
2688 1 -17.4312 -1.91357 -0.687762 0.551753 -0.804335 0.942186
2689 1 -7.85111 -1.18468 -7.44239 -0.113427 1.35197 -2.06724
2690 1 -12.9197 -13.5944 -20.9107 -1.86039 0.972341 -0.226423
2691 1 -17.6464 -24.261 20.5072 4.00119 -1.32625 2.42582
2692 1 4.77566 -0.336503 -15.9966 -1.44529 -4.92113 1.03371
2693 1 8.32761 19.1305 -15.8119 2.45627 -2.59921 0.208946
2694 1 -6.3538 -9.48791 18.7025 -2.87226 -1.78639 3.61364
2695 1 14.2666 7.78503 11.9419 4.37386 3.85379 -2.36647
2696 1 -21.9558 -15.0926 22.0667 2.35459 -2.17441 -3.47927
2697 1 6.55949 -3.65689 -4.24799 -1.4215 0.687214 2.35501
2698 1 15.643 -16.3022 21.1126 -2.44508 -0.806491 1.11213
2699 1 -15.9731 16.1883 -2.3306 0.489294 -2.43337 4.02531
2700 1 -8.1184 -20.5567 2.20396 -1.60547 2.2923 -0.203205
2701 1 -20.963 22.9522 -0.570134 -0.20036 -5.38366 -1.17321
2702 1 -8.67657 18.3361 -19.5428 3.22583 -4.67936 -1.41634
2703 1 11.7293 -6.65496 -14.3388 0.245377 -1.14061 -4.61107
2704 1 1.27497 -23.1822 1.54164 0.707513 -2.24104 0.395217
2705 1 -1.39203 -4.83379 6.05745 1.04651 -1.35985 1.89021
2706 1 3.81821 -23.4696 20.765 0.650624 2.93074 3.58216
2707 1 -10.4417 -12.2878 2.39712 -0.299403 -1.62637 -1.16626
2708 1 -14.9516 -0.37288 -22.8206 0.263202 1.27978 3.45694
2709 1 22.2146 -2.3929 19.0072 -2.44548 0.834923 1.72113
2710 1 -4.45791 16.5794 18.5852 6.5144 6.25876 -4.24233
2711 1 -13.0249 -6.86125 -22.4685 -2.00956 -0.346343 -3.05499
2712 1 17.1859 14.4333 7.75997 -1.02 1.21257 -0.205321
2713 1 21.9886 3.70578 -7.55661 -2.82943 -4.94509 1.71744
2714 1 -17.8317 4.93122 -10.7058 2.1003 1.66783 0.868149
2715 1 -14.3157 13.8064 20.3908 2.53032 1.35973 2.85206
2716 1 17.739 13.4505 1.01629 0.624536 2.49516 -0.895456
2717 1 8.68387 21.2386 9.64312 0.960593 -3.27133 -3.33542
2718 1 10.9964 -12.1987 -21.4751 2.11822 -2.16277 3.303
2719 1 19.9258 -12.2684 1.91687 -2.20941 -0.18465 2.85869
2720 1 -14.0165 -13.0145 -18.1783 -3.43504 3.97189 4.75782
2721 1 4.40472 -10.9617 12.5889 -3.06687 -0.712773 -5.09223
2722 1 -8.37108 19.5601 -9.48442 -4.79054 -0.683484 3.07615
2723 1 -5.64549 15.8563 13.8943 -0.49995 2.17591 2.26861
2724 1 -6.47566 6.99061 7.64466 1.56577 2.40529 0.494749
2725 1 -3.89875 8.98626 -17.6637 -3.5799 0.596812 5.09745
2726 1 -10.7004 -6.92525 23.4382 4.08924 1.64525 2.26471
2727 1 -11.4938 -18.9283 -2.1237 2.44047 1.34094 2.75248
2728 1 21.6692 -1.65985 10.4492 3.3651 0.902354 -0.637787
2729 1 -2.89084 44.8832 -17.9332 3.23445 3.19622 0.90375
2730 1 -7.61709 -16.0326 9.57168 -0.384146 0.600556 5.31251
2731 1 21.5036 25.2807 -6.78424 -2.75624 0.00353297 -5.31977
2732 1 -0.78359 4.77622 4.61917 -4.9542 0.393788 1.78928
2733 1 -8.3507 9.30717 -17.2562 -6.19218 2.892 -2.12099
2734 1 17.1482 -8.19469 18.5606 -3.01527 -1.65338 1.30696
2735 1 -4.94355 7.70775 -15.0861 3.56783 0.972642 3.53731
2736 1 17.711 16.3403 21.4682 -3.09236 -1.3956 -5.20447
2737 1 -19.6438 -18.4431 -3.34217 2.08456 0.872842 -3.17205
2738 1 -6.74284 11.0937 14.07 0.649065 -2.3025 1.58672
2739 1 -11.2087 -6.33654 20.5895 2.05563 1.83512 -0.178081
2740 1 -10.6663 -16.3335 -17.7686 1.13501 3.45698 -0.359058
2741 1 -6.67794 6.79178 3.79833 0.502784 -1.35205 -4.57007
2742 1 -13.5933 14.514 5.58459 -2.06667 3.53583 0.932237
2743 1 2.51064 -19.0799 -9.13078 -1.33099 -1.11734 -1.10132
2744 1 -14.7425 -17.3045 -19.9778 -0.0344953 -0.1314 1.17757
2745 1 -11.3151 22.4717 0.854742 2.50981 3.23445 3.19727
2746 1 4.87498 -12.0892 -4.2117 0.303641 3.54456 1.94278
2747 1 2.15121 3.20567 15.8869 -2.51072 1.05769 -4.35417
2748 1 -5.59247 -0.537347 -11.2124 0.0691709 7.15615 -2.76365
2749 1 -13.521 -6.46408 22.2867 3.08347 -2.3353 -1.79523
2750 1 -14.8116 22.9315 -20.4767 -1.35711 0.71188 -1.80226
2751 1 10.6381 -22.2921 6.78009 2.7487 -2.21156 3.68334
2752 1 -6.9566 17.63 -11.3203 5.40904 1.25615 1.49623
2753 1 -0.274262 -5.78032 11.8727 -0.467058 5.17412 -0.604814
2754 1 -13.121 24.5754 -0.0724133 4.03976 -3.70424 5.63784
2755 1 1.69747 -14.106 15.5359 3.76491 -3.43707 2.56183
2756 1 21.4422 11.0143 18.9412 1.38561 0.411313 -7.7459
2757 1 17.1314 -18.3844 19.5299 -2.71637 1.8817 -6.69363
2758 1 -19.6135 -14.8801 -10.1801 -0.67513 -0.274662 1.83141
2759 1 -18.4801 -15.1124 7.43486 2.08398 -3.73623 1.9967
2760 1 -0.589195 15.4654 -18.4805 -7.15782 -2.52028 -4.14564
2761 1 -5.47357 -12.0944 18.4812 2.14989 -1.3345 -2.17373
2762 1 -11.2845 10.5519 9.58747 -3.6823 -3.99405 0.759075
2763 1 -7.9487 -10.7482 15.7913 -3.16618 3.27707 -4.18485
2764 1 10.6818 19.7564 -13.9039 -0.311754 -2.39464 -2.92134
2765 1 8.98802 -16.1093 -19.2963 5.79303 1.85585 1.89417
2766 1 10.4429 6.6155 16.9054 6.50432 0.237933 4.97798
2767 1 -12.3408 -16.3731 -21.5908 1.23457 3.06093 3.81008
2768 1 -7.87755 23.2725 0.605947 1.30385 2.36895 4.43858
2769 1 -13.7883 18.3251 15.7575 -1.69362 1.01166 5.48731
2770 1 -22.9917 11.2976 3.03618 -1.21079 -0.737763 -4.19654
2771 1 -18.5264 -15.4902 -17.1955 -0.569329 -2.5509 0.790276
2772 1 -14.8581 19.9317 -17.5037 -2.02152 0.221574 -4.75351
2773 1 8.56934 24.2522 5.24013 2.88942 -1.21684 -1.19874
2774 1 21.8484 -1.24053 -17.3396 -3.01076 3.46878 -1.59468
2775 1 -3.59388 -19.0207 15.3607 4.41972 -2.58809 -1.87976
2776 1 11.3397 7.06012 -11.691 1.04033 -0.568349 -3.6098
2777 1 -12.9948 17.3276 6.16458 -4.3285 -1.26264 -0.420912
2778 1 -21.2594 19.1024 19.6707 2.26644 -0.527137 0.323619
2779 1 17.2921 17.259 18.6059 -2.89447 -2.23088 0.284188
2780 1 -11.4983 0.985674 -6.42869 -3.70112 -0.763964 0.998154
2781 1 9.77633 24.9911 12.2632 -0.901409 -0.616545 -5.2867
2782 1 8.51309 -12.8103 14.3539 5.06197 0.536362 -4.92261
2783 1 11.1961 -10.2848 -12.5122 3.17221 4.69818 3.18231
2784 1 -10.7412 3.41368 -0.0923242 2.08274 0.334824 -3.80128
2785 1 21.7243 -7.03827 -14.4689 -5.6652 0.137432 2.25447
2786 1 7.82553 -3.43413 4.39045 2.58598 3.22647 -2.05241
2787 1 -14.5916 15.1925 0.0541387 -1.59419 2.08687 3.78649
2788 1 -22.0716 17.2778 13.2487 -0.491294 0.216804 4.65982
2789 1 9.15217 -8.58835 -5.72395 -3.70531 1.03747 -0.911839
2790 1 -8.23481 -5.28106 -15.6762 4.0168 1.79783 1.49799
2791 1 22.6865 16.873 -4.51843 -4.5635 1.33757 -1.21886
2792 1 -5.34918 -3.80319 5.35337 -2.46811 4.01107 1.59248
2793 1 -0.840394 1.83197 7.20901 2.57879 1.54831 6.89191
2794 1 6.29921 19.177 -7.44589 0.86468 3.47374 -3.38883
2795 1 20.7669 15.0103 -17.3744 -1.42617 -0.691494 -4.82275
2796 1 17.7178 -17.704 10.9791 -2.1467 0.0762985 -0.300766
2797 1 19.1764 -11.3843 21.3306 -0.65402 -3.50331 2.76897
2798 1 -20.4229 1.22349 -4.71773 2.82044 2.38228 -2.52744
2799 1 1.41711 -17.9867 -6.69281 -3.65368 -0.850837 4.05653
2800 1 -10.2817 -14.965 -15.0125 2.59061 3.21606 -2.43094
2801 1 1.72095 18.059 8.15243 1.9414 -1.52516 -3.35823
2802 1 8.09872 10.2746 -11.0637 1.25727 1.91242 -4.64314
2803 1 22.441 -7.96038 -17.0633 -0.25363 1.57385 -4.12065
2804 1 -16.384 17.5687 -7.55075 9.93604 -4.66763 -3.60734
2805 1 -15.7723 7.20581 -10.5297 1.33156 0.883491 1.49544
2806 1 -4.03673 19.8865 -17.4829 1.89387 -0.142678 4.09419
2807 1 -21.6462 18.5643 -2.02468 -0.291703 -0.0963435 -1.57592
2808 1 4.41349 -24.1299 -12.7658 -0.465442 0.479024 4.31203
2809 1 -12.2868 20.3483 17.4047 2.03103 2.01434 3.64573
2810 1 5.53799 25.1436 -15.5977 2.05957 5.0155 -0.069745
2811 1 -11.9677 12.3088 4.32093 0.862881 0.676851 -2.70797
2812 1 -9.17674 -1.30696 23.4623 4.25817 -2.6856 -2.58034
2813 1 0.670936 -10.3277 -16.5807 -1.89752 -6.16052 -0.746655
2814 1 20.6677 -3.57362 -6.256 -3.59346 2.47844 -4.54921
2815 1 22.9722 5.45672 4.63768 -3.08202 -2.48462 -0.058119
2816 1 -0.250091 -16.533 20.2722 -0.977344 2.41107 -1.05909
2817 1 8.38448 -15.2254 -21.8933 1.52894 -1.63433 -1.61965
2818 1 3.00065 -6.37898 3.18522 1.11965 -0.355834 1.17867
2819 1 17.2792 14.283 15.2359 1.07619 1.5275 -1.69062
2820 1 -15.8348 24.4138 5.55984 -2.66913 -0.589701 -0.102258
2821 1 12.5264 -7.69869 -11.7649 4.88955 0.93689 1.70167
2822 1 -13.7744 -3.54259 5.32625 3.69633 -0.210946 3.03662
2823 1 11.9045 -16.4776 4.3443 0.498889 -4.80032 -5.4763
2824 1 7.51012 15.1398 16.3593 -0.00195791 3.07992 5.05741
2825 1 14.1652 19.5457 -9.23098 2.95556 -1.70627 -0.388453
2826 1 8.25755 -18.8285 -2.33889 -1.01028 1.56204 -0.845595
2827 1 4.65231 -8.9904 20.6627 0.737305 2.11367 0.605824
2828 1 -0.119583 -6.23373 -17.8762 4.11651 -0.0118183 3.10359
2829 1 17.8124 -24.0036 7.61624 2.18672 -0.709567 1.1657
2830 1 -23.0768 7.28714 -0.969492 -0.111855 -2.77062 -1.1768
2831 1 19.5995 2.96773 -11.9372 -0.106452 2.71252 -1.28378
2832 1 -21.8533 -22.033 -11.2179 -3.98547 1.6675 1.27007
2833 1 -21.0658 1.63111 4.09153 -1.04167 -1.87291 1.78648
2834 1 -9.6929 -17.045 23.4645 1.11989 3.88591 -0.317248
2835 1 -1.6248 5.98725 2.14707 0.291052 2.63197 0.732919
2836 1 -11.991 20.3016 -5.63852 2.80108 -5.08839 1.53838
2837 1 -15.7775 9.94524 -9.03301 -0.323972 -2.35999 -2.15266
2838 1 19.7249 -9.47879 18.0325 -2.63995 2.92176 5.45292
2839 1 -20.2823 -2.23848 -21.7805 -0.00924899 1.95943 0.604575
2840 1 3.5341 -20.0852 -23.7232 0.649883 -0.210446 -2.18532
2841 1 19.7783 -18.3016 -4.3723 -1.23635 3.11525 -3.81107
2842 1 -2.65076 -13.1887 -9.73947 1.93168 0.978238 -0.829362
2843 1 17.3815 4.59965 -22.5166 -4.20608 2.99386 -1.34088
2844 1 21.5733 16.618 7.93997 -2.79954 -1.91278 -1.76876
2845 1 20.5737 4.51629 -22.5949 -0.138799 1.4415 6.57155
2846 1 -20.3936 1.2649 1.39016 -2.17737 -0.983056 -0.115225
2847 1 7.06366 15.1705 -1.18425 0.660284 -0.225103 2.56522
2848 1 -17.1664 -24.2336 -10.0119 -2.84925 2.78979 -1.51442
2849 1 -21.6122 46.5255 15.1048 -3.7547 -1.13604 1.80127
2850 1 2.52952 2.84266 -10.0462 1.15693 1.34471 -2.6233
2851 1 -7.90317 24.6946 19.7808 -0.443515 2.01607 -3.54779
2852 1 1.57465 -6.5265 0.61033 -0.80217 4.28873 1.04256
2853 1 -4.07096 25.5033 21.1665 0.299373 0.599894 0.455768
2854 1 5.1194 -7.55778 -6.20756 -1.03865 1.7663 -9.68281
2855 1 -17.7538 -8.03737 -20.6324 0.996127 0.604487 0.662996
2856 1 17.2286 -17.9896 -0.865887 8.22959 1.83677 -4.15152
2857 1 18.4525 7.64061 10.2244 1.26728 -2.17537 1.39128
2858 1 10.6833 -1.4587 -21.0066 3.72158 -0.469073 2.90853
2859 1 -21.4125 46.2475 -20.6257 1.3375 1.11331 2.50767
2860 1 -22.3952 7.33045 18.0428 5.44363 -2.55117 -1.95694
2861 1 13.9154 12.6575 20.2401 -1.05402 -3.43513 2.15938
2862 1 10.2721 -3.48248 -18.8062 -4.6258 -3.43031 -1.48447
2863 1 21.2422 -19.4893 -18.4713 0.142437 1.86031 1.93
2864 1 -17.8607 12.8614 15.7026 -3.01328 -3.41476 -0.426512
2865 1 7.18923 10.2502 -0.746199 -0.140602 0.0279771 -3.59798
2866 1 -19.0583 25.7817 -7.87252 4.87505 -4.0759 -0.852726
2867 1 -19.79 19.8487 -10.7209 0.27343 -2.35854 -1.70491
2868 1 3.89898 46.3913 17.8524 -0.0860134 -3.01029 2.01438
2869 1 -21.3813 -18.6712 16.257 -0.562856 -1.24067 -1.85112
2870 1 -10.9404 13.6919 -9.67886 -0.447041 3.50433 -0.205219
2871 1 -14.6176 21.2536 23.4736 0.295061 -2.23954 -0.0787012
2872 1 8.32084 7.93606 10.4941 2.10511 1.18291 6.46523
2873 1 -10.6303 1.04619 4.84117 7.086 -5.45667 -1.08242
2874 1 -0.544717 -12.571 -13.6241 -7.50269 1.11179 5.83467
2875 1 19.0061 -6.69703 -8.79593 2.24969 0.518907 2.16586
2876 1 20.5037 -22.3068 -23.4471 3.94608 2.50471 0.818187
2877 1 9.04654 -8.56337 6.30957 -1.01636 0.560633 3.59925
2878 1 -17.7091 21.9378 -10.8728 -0.713521 -1.69543 1.44759
2879 1 3.11798 18.2495 5.55966 1.80199 2.35473 2.13646
2880 1 -1.50042 -0.519551 18.033 -1.19885 -0.952927 8.61365
2881 1 -18.1012 17.0291 -20.0692 -5.58536 2.66628 -6.70793
2882 1 -18.7224 -16.2038 18.7841 -3.09393 -1.09871 0.880709
2883 1 12.764 -15.393 -0.613169 -2.09137 3.91669 1.03577
2884 1 7.56552 -4.87682 -22.6008 2.67346 -0.481662 1.95434
2885 1 -8.37648 3.83244 -5.88955 -0.628446 3.32997 -4.67222
2886 1 12.5853 24.1382 1.82516 4.76082 -0.998248 -5.87817
2887 1 22.8512 17.3211 20.1548 -2.23507 -0.942191 0.227904
2888 1 -11.7947 4.93163 -22.5042 -0.769956 2.34011 0.702552
2889 1 5.0027 -4.09952 8.91233 -0.29657 3.36127 -1.3339
2890 1 -2.16406 -6.69181 -22.2032 -0.270102 -1.48642 0.0655824
2891 1 8.52271 -2.67661 17.7285 0.120394 1.24422 2.94314
2892 1 21.6266 19.3853 -7.8438 2.10306 -0.804627 -3.26486
2893 1 -10.3802 -14.284 -24.1096 -0.894206 -1.51885 -3.23584
2894 1 -9.23507 7.12004 15.8714 4.13965 -0.906214 -0.521471
2895 1 -19.0878 22.4888 19.2915 1.77944 -0.972037 -2.85805
2896 1 -12.4767 4.53152 15.8351 7.7712 1.68644 0.107314
2897 1 -3.75602 16.3765 -1.9976 -0.539279 1.43301 -2.33922
2898 1 -8.9493 -9.84171 -21.1363 7.71778 -2.06927 0.068008
2899 1 -3.63386 -21.2925 19.5717 3.36162 -0.0459854 4.31205
2900 1 15.9996 3.00706 23.2827 -0.0577933 0.761181 -0.780407
2901 1 -9.78174 -18.7206 -16.4884 2.00444 0.0485816 3.24222
2902 1 23.2158 -0.40645 -20.5942 2.189 -2.73232 -2.31757
2903 1 -13.8452 -15.1792 6.44259 -0.846384 2.74841 -1.70036
2904 1 -4.88388 12.8769 1.35158 -0.99679 2.48868 -1.69482
2905 1 -17.343 24.1082 20.8958 -3.7801 0.70181 0.232612
2906 1 13.9151 2.21023 16.0601 1.77347 -0.0494261 -5.60456
2907 1 -17.0058 23.911 -6.51084 1.83589 3.74436 -2.36155
2908 1 -1.19831 11.2214 19.3085 5.86454 -1.01515 1.16769
2909 1 -10.2806 -5.74015 -21.1186 0.209399 0.654087 1.34107
2910 1 -14.9936 10.2996 19.2732 -6.1978 3.31369 0.0492803
2911 1 1.23314 6.0671 -19.5946 1.45379 2.30244 3.08098
2912 1 11.0148 -14.7566 -6.58255 -4.35041 4.57313 -0.00496492
2913 1 17.0958 5.28337 -1.86832 -4.93454 -3.15208 -2.8037
2914 1 -0.917304 0.82554 13.5531 -7.81161 2.27315 3.12936
2915 1 -12.7701 -12.5101 22.5378 -1.19539 -4.1859 -4.61249
2916 1 17.4344 17.0338 -4.19996 -1.33783 -0.451002 1.34412
2917 1 -7.62027 9.603 7.01228 3.02564 -3.99782 0.870173
2918 1 18.5295 5.81327 -4.42902 2.2651 -1.10926 -0.584586
2919 1 -23.6596 -16.767 -2.56937 0.219926 -1.41388 -0.242356
2920 1 22.4783 13.9109 8.64932 3.19069 5.42623 3.19417
2921 1 -16.5832 18.99 8.25254 -0.148796 5.46625 -7.26575
2922 1 -13.1901 -19.5335 -22.9904 -0.27649 -3.6858 -2.00778
2923 1 -15.0946 1.61316 20.4769 1.21801 -2.35768 0.198767
2924 1 -3.1355 -17.0194 21.6179 0.85258 -3.73542 5.31923
2925 1 18.5447 -10.5636 12.9575 -3.92171 4.11151 -0.841659
2926 1 -6.35543 8.09365 -12.3713 -0.332542 -2.90588 -2.51895
2927 1 10.3109 4.45941 1.61579 -2.60941 2.36357 0.498507
2928 1 22.2999 44.1534 -11.5495 -2.10074 2.12256 1.52624
2929 1 6.86283 -12.8195 3.50271 2.45034 -1.07724 -4.03845
2930 1 -18.2586 7.92927 -0.467585 8.13482 -2.81165 -3.11279
2931 1 0.85952 -9.9982 18.6758 0.833157 -4.72169 4.92754
2932 1 7.26208 19.9326 17.3765 -3.02941 -2.29474 -1.96512
2933 1 20.0552 -5.88385 10.6845 -5.29522 -0.552584 0.881722
2934 1 10.3221 2.55846 -19.8617 -1.43439 -3.62579 -4.02203
2935 1 5.84574 22.8894 1.32742 0.892305 1.79138 3.82542
2936 1 -22.2218 7.69305 -9.52751 1.7197 -0.430916 2.28261
2937 1 -18.0315 5.38714 -13.7047 7.01162 -4.60072 -1.32964
2938 1 -8.45116 -3.69357 -1.11405 1.96136 3.37042 2.55098
2939 1 -12.6672 19.6995 4.5629 -1.02354 -5.25402 2.25398
2940 1 17.2621 16.2195 -0.865045 -3.85912 1.57137 0.542559
2941 1 -5.34589 4.45641 -10.8297 3.64767 -1.91751 2.08152
2942 1 -20.9275 14.6797 20.2313 -4.61347 3.25995 -0.446254
2943 1 23.2158 5.69845 11.7897 -0.772241 -3.51387 -1.42166
2944 1 10.4106 46.3751 14.1653 -3.35552 5.63755 2.96806
2945 1 -7.31314 11.7338 -8.25546 0.329092 2.63113 -2.51404
2946 1 11.5689 0.384863 10.5134 2.89804 -5.51084 2.13109
2947 1 19.0874 -14.971 -23.9894 -4.37267 -0.177293 -0.780387
2948 1 2.42627 -20.7916 -1.99995 0.61048 3.38136 6.39817
2949 1 -6.75411 -21.4558 -22.1525 -2.12665 -0.458512 -1.85715
2950 1 -19.0921 16.3708 5.25343 2.41167 0.746695 -1.1103
2951 1 13.9234 -17.8167 -12.2798 1.79915 0.307279 0.907017
2952 1 -12.1233 22.9046 -19.6182 6.18078 -6.29645 0.87229
2953 1 17.881 4.22717 0.778031 -4.29765 2.71033 5.78988
2954 1 -17.0804 -1.41242 7.99995 -3.85771 0.0916707 0.774728
2955 1 13.3203 -11.0538 15.6683 4.06127 -3.00574 -0.192506
2956 1 -13.7264 19.9994 -1.73561 0.471335 -4.39632 5.04641
2957 1 2.30887 -18.4266 14.0664 4.15127 1.6931 -1.06878
2958 1 6.35384 -7.42035 -11.8547 0.101119 0.469027 0.540158
2959 1 -17.7782 19.7462 -20.6194 -5.38598 2.06741 -3.52778
2960 1 -14.1555 -2.8232 -21.0212 1.13861 -0.472211 0.0191
2961 1 -12.6866 -10.8469 -22.2139 1.77422 -3.47038 -0.566076
2962 1 -8.93853 -1.85786 -14.96 2.16237 -4.1436 4.59643
2963 1 -23.5858 12.6892 -5.07637 2.70881 5.08774 0.467368
2964 1 -0.548316 -20.5297 -20.092 1.76948 0.811976 -1.5926
2965 1 18.1999 -0.82922 -14.5757 0.918283 1.23667 -0.626184
2966 1 -2.21692 -22.5595 17.2263 -0.277642 1.18961 -0.476812
2967 1 0.875864 12.1231 8.81948 -3.47673 0.127925 -2.81944
2968 1 -4.64054 -14.8657 -1.08607 -3.19387 -4.08492 -1.72575
2969 1 -4.21219 -1.66103 17.9412 -2.62844 0.270425 2.64978
2970 1 20.0697 -12.0595 -12.9338 -2.32606 -0.364872 -3.08443
2971 1 -5.30931 20.4989 10.8743 0.724667 -1.51996 1.91558
2972 1 -8.47481 9.37787 -10.6704 7.05774 0.391284 -1.64022
2973 1 -13.5053 16.2989 21.0219 -2.69416 3.88708 -0.0541449
2974 1 22.9622 0.520268 19.6085 6.62469 -2.14569 1.00874
2975 1 15.0853 11.2398 -1.11335 5.98348 -0.209342 -2.66213
2976 1 -17.1162 21.3348 -13.9609 -1.26344 1.40022 -1.00428
2977 1 2.76861 -9.17455 0.842456 2.2516 0.0856676 1.09694
2978 1 11.9413 18.3147 -16.3593 -0.560481 0.18912 4.38408
2979 1 7.09337 3.7521 16.5046 -3.8178 -2.23751 -1.5529
2980 1 -2.96427 13.9128 -0.596301 -2.67548 -1.22469 0.825661
2981 1 -14.443 9.35656 16.7016 -1.73814 -2.65601 2.06956
2982 1 -12.1399 -6.89933 8.32378 -4.63814 -1.41147 3.0732
2983 1 -9.57538 14.0207 -22.1549 -0.490345 0.382698 -4.05719
2984 1 0.128567 -1.1176 -23.8274 -2.61526 1.13152 -3.95081
2985 1 -14.439 -12.8446 10.8798 -2.03389 -2.48316 2.50121
2986 1 -6.84825 21.301 -21.935 -0.285657 1.06218 -0.693185
2987 1 -20.7402 45.5651 -8.28661 3.32041 -7.08433 2.85782
2988 1 1.01226 -22.8116 -4.55543 -2.21515 0.985539 -2.32246
2989 1 20.7167 19.9249 -10.782 -3.9761 1.8184 -3.25665
2990 1 11.9361 -20.9594 16.2342 -1.48903 1.22573 -1.83045
2991 1 3.6172 2.30193 11.9617 -7.37593 -0.286928 -2.7051
2992 1 22.1729 13.8409 -12.2902 -0.424476 -3.56598 -2.38318
2993 1 -24.0577 16.6058 16.171 0.38447 -1.30794 -0.971379
2994 1 18.5395 -1.13346 10.3146 1.46264 2.53025 0.231839
2995 1 -3.10303 10.0767 -5.80911 -1.82693 0.310603 -3.71434
2996 1 11.9943 5.51954 4.84129 -1.84972 0.550066 -2.8936
2997 1 -5.69581 -18.029 6.39446 -0.887168 -1.72837 6.57246
2998 1 4.49345 -16.9442 15.3346 -2.12912 0.130661 0.0568007
2999 1 14.4301 -18.5691 -3.51783 2.33719 -2.63741 0.806859
3000 1 -1.56025 14.7313 15.5067 -0.182609 0.939036 1.67121
3001 1 10.1793 13.8171 7.62753 -1.2796 -1.2557 1.57161
3002 1 -20.2506 15.0165 17.5068 1.66359 -1.14563 2.69678
3003 1 14.4122 14.8059 11.5561 -2.1584 2.28141 -4.35388
3004 1 17.0568 19.2461 -16.4324 -4.6997 1.4279 -2.99679
3005 1 2.28438 4.71612 -5.3363 2.90783 -4.07424 2.91616
3006 1 19.7596 5.91376 -18.2589 -0.273903 -6.93376 -3.21118
3007 1 -6.94434 -22.5784 20.9862 3.35974 1.90893 0.223308
3008 1 -2.96656 -21.4156 22.6965 -2.60607 -4.69317 4.20458
3009 1 -14.8579 -21.9212 9.11772 3.53233 -6.17014 0.391514
3010 1 -16.5374 -20.0036 -16.4907 -7.00354 -0.547265 5.66718
3011 1 -7.31507 -2.43872 -12.7496 3.39984 0.603256 1.96778
3012 1 3.15126 -23.5865 -20.607 0.708189 -3.86321 -0.451607
3013 1 10.3357 -17.3017 22.139 -0.922799 -6.99975 -2.86846
3014 1 21.1667 13.6264 20.5277 -1.02173 2.36702 0.941508
3015 1 -1.88765 12.1304 9.44632 -0.971373 3.48547 0.940194
3016 1 17.5325 -12.7977 23.357 1.78259 -1.34837 1.83164
3017 1 -12.8603 9.13182 -22.6928 2.36762 3.02576 1.1987
3018 1 -22.3162 0.118617 -13.0298 0.947838 1.04579 -1.94393
3019 1 -18.5977 -22.5875 11.432 1.95087 1.15438 2.46256
3020 1 -14.9164 -8.21511 7.89059 -1.34011 -1.48173 -2.39988
3021 1 -18.3858 24.9358 -2.9908 0.914892 -0.0533196 -2.84947
3022 1 16.6068 -13.4599 -0.105439 0.987958 3.55176 0.0504974
3023 1 5.4473 19.4006 -4.61563 -0.573627 2.88403 -1.97126
3024 1 -23.3407 6.8964 2.28389 0.956467 0.885083 -0.884665
3025 1 5.36695 46.2118 10.3831 3.89956 -2.55256 1.08242
3026 1 0.639295 -22.0642 7.4852 1.60156 0.388972 0.425594
3027 1 13.5229 4.55567 10.8141 -0.75776 -2.60117 0.203324
3028 1 -18.2314 14.6184 21.304 -7.24028 -5.22564 0.624696
3029 1 6.89602 4.05507 12.483 -0.239489 -3.98456 -2.85455
3030 1 -17.8809 18.101 -12.3645 1.66276 1.1967 3.84222
3031 1 21.6619 -11.0734 -19.2371 -2.92413 2.88967 -2.83267
3032 1 18.0299 -10.5196 -7.11409 -0.459874 -1.86201 5.35046
3033 1 -10.7482 3.06971 6.74382 3.17686 4.10453 0.0372443
3034 1 -10.8245 -6.76611 -15.6019 5.37745 -4.86738 0.563758
3035 1 19.4749 15.2068 6.33173 -1.88695 -0.730202 -0.980398
3036 1 12.2269 19.1162 21.8219 2.7586 -4.74895 1.49818
3037 1 -3.5833 -10.0774 7.02902 1.24932 -0.580307 0.181734
3038 1 -16.0777 -23.9793 -17.4911 -1.42887 -1.19356 -3.20768
3039 1 19.2106 45.8541 16.2668 0.122209 4.53091 -5.56225
3040 1 7.68441 -18.4157 13.8298 -5.41623 -0.603486 3.39208
3041 1 -20.5219 21.0442 -2.49668 -2.85549 -0.0729686 0.518911
3042 1 -6.4843 22.457 12.9404 2.45537 -0.436225 0.39944
3043 1 6.24592 -12.2003 -17.2782 -0.824401 1.38545 -1.27928
3044 1 -7.07143 15.6738 -3.60879 -1.07172 2.71925 5.26901
3045 1 1.54652 -4.16232 4.68269 -2.79432 2.88666 4.64749
3046 1 16.7278 -12.2433 -17.0013 0.288314 0.829529 -5.18501
3047 1 7.83959 20.2259 3.3598 -3.74761 1.90733 -1.39163
3048 1 6.69387 -10.9396 20.45 -0.846004 -2.74308 -1.14798
3049 1 -10.043 -22.6119 -15.0249 0.951506 1.16781 -4.24835
3050 1 1.38638 45.8592 16.93 -3.78404 -3.88403 -5.18362
3051 1 -18.175 0.451535 -14.3469 -2.92998 0.0495043 0.133456
3052 1 -21.4964 15.697 -13.8026 -2.13371 2.09221 -7.17989
3053 1 20.1575 -23.0079 -1.73967 -0.93543 0.909785 1.04534
3054 1 20.0485 -2.15862 21.0027 2.53566 0.598206 -0.285527
3055 1 19.418 3.48302 5.25183 -3.89368 1.85593 -2.84425
3056 1 -24.1486 13.6123 13.6718 0.880005 -4.19431 4.28437
3057 1 17.4167 8.88071 23.2287 -1.04095 -3.53855 5.43908
3058 1 11.0236 -6.3587 10.3513 3.00074 -1.55557 -2.98829
3059 1 -10.4876 -21.3642 -5.78992 -0.27667 0.749782 0.603069
3060 1 -23.3295 25.1476 -2.98186 1.85962 1.30985 4.66132
3061 1 -10.3756 24.9824 -15.8374 0.140066 2.12225 0.458995
3062 1 -12.6594 15.4751 -16.392 -2.60228 -2.17276 0.838762
3063 1 9.37029 22.0847 -12.9441 -3.8066 3.18179 -2.67645
3064 1 0.113176 11.2922 -20.7149 2.51105 4.43746 0.670545
3065 1 6.1454 -12.0432 -11.5658 7.00567 1.58261 2.16478
3066 1 22.1451 -4.04211 0.00724052 -0.0894818 -0.695614 -0.0784916
3067 1 16.2762 19.2776 -13.573 5.09741 4.92916 0.717847
3068 1 20.1763 16.2371 -1.44681 2.04616 2.97708 2.83311
3069 1 7.1526 -7.94326 -3.98183 -3.80805 0.604579 1.61204
3070 1 21.8371 -8.02406 -0.32891 -1.60782 2.1109 -3.68216
3071 1 -3.33273 -1.19668 -3.67387 -5.52352 2.42756 5.31453
3072 1 1.07191 10.4493 21.2887 4.33798 -4.37496 -4.16167
3073 1 1.13338 21.7737 -0.305245 2.46407 0.415972 2.27625
3074 1 -8.13301 -8.12988 9.63594 -2.22445 5.77587 -0.198341
3075 1 19.0095 9.66045 -22.0628 -0.504899 3.01419 5.40232
3076 1 -11.6027 20.8382 12.0257 -0.450369 -1.33103 -1.73953
3077 1 -13.3624 44.8275 -9.85936 1.44838 2.7321 -0.0893007
3078 1 -20.4156 4.99487 -15.6521 -2.6408 2.89508 -1.07133
3079 1 13.0701 -5.13181 -2.64365 -1.63145 1.93815 -1.38359
3080 1 -20.0742 11.677 -7.06245 -0.824884 -2.8978 -4.26385
3081 1 -18.4796 8.88037 7.03172 3.1299 -1.88299 -2.53295
3082 1 -3.20077 3.10974 22.7118 2.49354 -2.86362 -0.524005
3083 1 8.11709 -13.3449 -8.80379 -0.772233 0.135604 -4.10595
3084 1 -14.9889 -20.607 6.67668 0.675674 -6.66068 -2.86225
3085 1 -16.8256 -2.29687 -7.23681 -1.7528 4.26253 -5.59089
3086 1 14.8906 18.3876 6.46814 -0.340444 -3.42701 4.94779
3087 1 -10.5108 -19.7491 10.3928 0.654529 -3.09715 5.2355
3088 1 8.97234 3.79812 14.3216 -1.85475 -2.60982 -2.54582
3089 1 9.86586 -20.5146 14.1409 -1.49748 5.00086 -9.94483
3090 1 16.3005 -2.20949 -6.41473 4.06451 4.22879 0.578865
3091 1 -5.69399 3.29579 21.6916 0.206177 1.16135 1.80833
3092 1 -8.24623 -5.49959 22.6226 1.18231 -0.0351308 5.63656
3093 1 -12.636 2.94095 -20.6587 -4.75252 -1.7207 -3.74851
3094 1 15.0638 3.65243 20.6908 -1.99168 1.76152 -4.18206
3095 1 -16.2419 -13.9576 0.367193 -0.274071 -4.95062 -1.02999
3096 1 8.48833 5.2907 -22.5716 3.40662 2.18184 7.02739
3097 1 -6.95393 -12.0785 -20.1816 1.08925 -0.714695 -1.86076
3098 1 -9.09517 -19.1012 4.69256 -1.39112 -3.62016 0.998881
3099 1 -21.2336 10.0665 23.4347 0.675801 -0.317536 -0.364463
3100 1 19.5758 -10.8721 -22.6473 -1.12577 -0.65843 -0.303993
3101 1 22.3907 -14.7764 -19.7021 -2.65275 -1.35121 -1.36715
3102 1 4.70863 4.41747 23.2712 -5.48786 -2.30275 1.51978
3103 1 -7.17025 -11.5053 23.8477 2.1338 1.54948 1.42471
3104 1 -21.2244 -8.36403 9.40992 -0.125732 0.776817 2.83532
3105 1 -24.0718 -5.88786 20.3948 -1.09248 5.76049 -1.69704
3106 1 1.47709 -10.968 -6.34507 0.407184 -4.64836 0.192415
3107 1 21.8324 -12.3167 21.415 -0.82826 0.960596 -0.211496
3108 1 8.69973 -16.5528 -6.93888 -4.05978 2.45684 0.187195
3109 1 1.3398 -2.25028 2.57848 3.32226 4.20601 -0.770045
3110 1 8.66743 6.05103 -0.517981 -1.77611 0.197517 -1.17875
3111 1 11.7745 -19.2355 -17.512 3.45327 0.0891206 -2.28141
3112 1 -1.84421 -10.0861 -20.8088 -6.21452 -2.98228 -1.96124
3113 1 8.99427 -13.5167 -17.7352 1.21974 0.668519 -1.70468
3114 1 4.90799 6.18053 -18.9642 -0.32517 1.54075 -4.88726
3115 1 -19.7567 19.9141 -13.8269 2.01028 1.94367 0.419451
3116 1 -10.4911 15.8207 -0.735955 1.4778 -1.45803 -2.52036
3117 1 18.2534 -11.3449 -4.53222 0.843869 -0.73405 -1.58501
3118 1 5.32263 6.2735 4.45141 0.559862 3.36645 -0.441592
3119 1 -7.13711 -7.95679 4.12197 -5.22207 -1.40791 1.0209
3120 1 -12.3177 -9.38122 -18.1071 6.00189 0.710715 -1.80142
3121 1 1.56713 -22.4716 15.9264 0.630719 4.69113 0.630215
3122 1 -14.0677 25.5425 19.554 -5.04035 -3.22804 2.6279
3123 1 13.5588 16.8695 13.2674 -1.29221 3.04803 2.84008
3124 1 -14.9185 12.7203 -9.59382 1.42086 -3.5554 -0.598074
3125 1 -2.16778 -14.5974 -4.08218 -0.122977 -3.42099 1.92418
3126 1 1.51719 7.81673 -8.67802 -1.7774 -0.932035 3.7587
3127 1 17.3629 7.09287 1.60129 -0.715867 -0.812335 0.992109
3128 1 4.59358 9.07007 -15.4755 -6.20205 0.135109 2.02138
3129 1 -2.48227 -10.6695 10.355 0.645676 -2.04224 -0.0560766
3130 1 22.1474 -10.2277 9.26884 2.70253 4.19245 -1.12262
3131 1 -10.8726 13.0329 1.47239 -0.288431 0.234756 -0.123604
3132 1 3.99401 11.0027 2.54934 -0.574639 3.86344 -0.0919441
3133 1 -1.75909 14.209 -14.3767 -1.7719 5.06617 0.753144
3134 1 20.7797 6.76152 -2.65668 -5.68321 -3.61258 3.1214
3135 1 -16.3971 -13.9619 -2.69314 2.89675 0.893443 4.33146
3136 1 -17.333 46.9877 5.20014 1.15959 0.596174 6.18982
3137 1 2.62459 -7.54958 -17.7245 2.8861 0.945628 -0.154061
3138 1 16.6405 -4.73885 22.057 0.851812 -1.68451 3.30193
3139 1 6.39016 9.94334 -13.4634 -0.227615 -0.791724 5.22925
3140 1 2.68397 17.5944 -18.5626 0.769582 -5.22763 -1.43949
3141 1 8.56979 -4.67621 -5.89666 0.27598 0.603111 -0.618354
3142 1 1.53066 24.5786 -18.5737 -2.75049 6.34478 -0.217889
3143 1 23.3609 23.0761 -20.9217 -2.57974 1.4608 -1.92555
3144 1 -0.834963 11.3335 4.49125 -0.840561 -1.55093 -0.611731
3145 1 20.2691 -19.472 8.25814 -0.593994 2.2771 2.32413
3146 1 0.452396 6.70757 -11.2589 -2.2269 -0.88983 -0.707311
3147 1 -2.33462 -16.7693 -1.13988 0.861695 4.73245 -1.73177
3148 1 8.8182 -10.0763 3.75219 1.35788 -5.22855 6.23824
3149 1 11.9228 5.95488 -16.4267 -1.14582 0.077337 1.79441
3150 1 -19.8252 13.6453 4.53853 2.32511 -4.01787 0.304408
3151 1 -11.3219 45.3334 -16.6497 3.31273 -1.87604 -5.76928
3152 1 -13.5506 18.9671 -22.8111 2.39385 2.42803 -0.482187
3153 1 16.9147 6.60554 -20.4499 1.27053 -0.139827 -0.553347
3154 1 9.28335 19.1571 1.12036 0.906449 3.20655 -2.29894
3155 1 -5.30696 -12.3349 3.07201 -1.08931 -0.891728 0.247471
3156 1 19.0728 -4.96539 7.39551 -3.14002 -3.04776 -3.33293
3157 1 11.5308 1.63999 4.20385 1.09007 4.36614 2.08564
3158 1 21.499 -19.0696 -8.35799 -2.50351 -2.96514 1.68143
3159 1 17.6906 3.12377 -4.98111 -1.94755 -0.270267 0.703373
3160 1 -9.47149 45.6346 -23.7966 0.214746 -1.15443 1.02924
3161 1 -9.47631 -17.0967 -2.03917 1.59968 -2.79931 0.939905
3162 1 -13.9451 -14.3616 -13.4513 3.9292 -7.22031 -4.60753
3163 1 22.9227 0.115806 14.0393 0.130671 -0.660192 -2.20241
3164 1 -20.291 3.33389 19.107 1.14186 0.958766 0.945617
3165 1 -6.06855 21.1219 -16.0487 -1.56769 -0.445 2.60727
3166 1 15.8404 -9.56232 16.2775 -1.06813 2.82472 0.387013
3167 1 18.9485 -15.7023 -20.9487 0.306048 -2.85291 -0.614458
3168 1 -15.944 -21.5008 17.6167 7.0684 3.27623 4.53973
3169 1 13.8595 -22.9793 -20.6255 1.19422 -1.6288 1.69078
3170 1 5.12479 23.4544 -23.5668 1.22339 -2.66335 0.535543
3171 1 -6.98864 15.2137 -22.7055 4.16819 -3.96336 0.392463
3172 1 -8.09841 2.49244 7.20922 0.400859 -1.09623 0.0962173
3173 1 9.13669 18.4103 10.2313 -2.97475 0.237828 1.81417
3174 1 -23.9569 12.1218 -10.4328 -0.68631 -2.29349 2.14248
3175 1 20.0713 1.43421 -5.3766 4.43689 -4.46229 -2.89085
3176 1 16.6966 -0.57457 15.3989 1.37475 -2.47943 1.33738
3177 1 -1.68782 -9.3577 -23.736 -0.912279 -0.3939 2.87988
3178 1 13.3482 20.131 10.0466 -1.97662 -1.15845 -0.747968
3179 1 1.50108 1.19501 22.702 3.99537 -2.74057 0.856785
3180 1 0.0982121 14.1429 3.86829 -0.24132 -1.93949 -5.59963
3181 1 -21.322 -19.8949 20.6568 -3.44419 0.327078 0.0504636
3182 1 -15.952 46.5735 22.7532 -4.65504 -1.2009 3.55469
3183 1 -22.9059 18.4429 -5.21574 1.20263 -0.888521 0.530447
3184 1 14.2862 -2.53821 2.13458 0.802973 -0.172893 -1.21642
3185 1 -15.155 20.3183 -20.5547 -4.54544 -5.20449 -3.99308
3186 1 -6.73345 20.6674 7.20218 -3.2922 -0.427862 -1.94508
3187 1 -20.5588 -18.5059 0.22224 0.829831 -3.48917 4.8084
3188 1 -19.645 13.9361 -8.95243 -0.292176 0.878502 -2.08689
3189 1 13.9883 11.4067 8.1894 2.34512 -2.2876 2.99487
3190 1 -20.9832 22.5679 -14.4905 -1.00683 -2.1354 -2.86757
3191 1 6.32648 -5.30869 -7.71636 1.56663 2.31462 3.85937
3192 1 -24.1924 11.0454 -0.585232 2.35095 1.12157 -4.37621
3193 1 -18.3874 24.2858 -0.376019 -2.89514 4.87441 -0.302483
3194 1 -16.8068 -5.48154 1.97981 -0.974369 1.0998 1.61469
3195 1 -16.1007 2.59899 2.87814 -2.6721 7.33563 -2.82792
3196 1 1.07626 1.60571 -2.34869 2.84545 1.23064 0.621001
3197 1 -4.65277 10.5552 3.42216 -1.2839 -0.248235 -0.874861
3198 1 9.5063 4.82586 -17.2826 2.80957 -2.25832 2.83571
3199 1 13.8964 -23.5966 4.83736 3.06747 4.43724 -2.07873
3200 1 -23.7336 -3.6922 -4.46663 -3.12676 -2.59043 0.496714
3201 1 -14.5842 -2.06815 19.4341 3.54781 -3.70889 -3.17127
3202 1 -16.2365 -12.2939 -9.00751 -2.31267 0.530385 -1.20261
3203 1 17.3198 9.83507 20.5078 -3.4687 -1.73893 -0.428792
3204 1 -16.6844 -8.88037 10.3014 -4.16803 -4.22738 0.910583
3205 1 -12.0235 3.8594 -5.55756 2.82745 -3.88458 6.56994
3206 1 14.4779 11.2462 -6.48955 1.30176 -0.799905 4.18489
3207 1 -2.47794 -7.48188 -16.6601 0.289322 4.39728 -0.202399
3208 1 6.31014 -7.62383 6.65405 0.228783 4.50868 5.13709
3209 1 10.0433 -14.0343 -23.7536 2.93449 2.83353 -0.983298
3210 1 -13.9546 11.7178 -3.26516 -4.64734 -0.976957 -2.05268
3211 1 -2.87691 20.5136 12.6404 -1.2405 -3.58125 3.65966
3212 1 -13.5132 9.0343 -18.9827 -0.548706 4.50862 2.16334
3213 1 -2.34649 1.01015 -14.7214 -0.845256 -4.95204 2.02477
3214 1 -2.0696 17.4691 16.6554 -2.20676 5.11919 -0.112856
3215 1 8.75697 2.80981 10.4545 1.8383 -0.46002 -2.73058
3216 1 23.1756 -2.61528 8.49822 1.73147 -4.05462 3.72734
3217 1 10.1808 1.44264 8.39622 -1.36984 1.27186 -1.72293
3218 1 -2.97584 22.8601 -9.48217 -0.998547 0.0583471 3.92057
3219 1 -5.87859 -21.2032 -16.4363 -2.11989 -0.539849 -1.93016
3220 1 -4.24486 -8.66776 17.1583 -3.07545 0.581552 -3.75629
3221 1 -6.36322 -5.74506 -1.825 -2.48974 -2.7447 -4.39513
3222 1 -14.1803 -18.0817 -1.01946 -0.127155 0.239657 1.13849
3223 1 22.7589 8.4736 17.8607 0.967123 -5.05637 -0.269233
3224 1 -7.26229 -5.7109 1.03433 -3.86843 -2.56127 5.82731
3225 1 -7.87633 -6.20795 16.4067 1.44125 1.13021 1.07476
3226 1 -21.7666 26.0178 -9.37869 0.621701 0.715903 -1.54928
3227 1 6.17375 21.619 -2.6842 -0.460597 0.624567 1.00207
3228 1 -9.76762 11.3858 -12.5302 -1.4486 -0.460736 0.534674
3229 1 -10.4348 3.10826 -2.82925 0.552415 2.05863 -1.8395
3230 1 -22.8801 14.8669 -22.6377 -2.58808 3.74811 -2.67011
3231 1 -17.0734 -17.9342 -1.09308 -2.68546 -4.33218 3.70351
3232 1 -22.0619 16.157 6.1171 -0.31374 3.52428 -0.281959
3233 1 -0.380156 17.1239 6.29909 -3.95515 -3.19356 -6.1892
3234 1 8.32169 -5.28384 -12.2008 -2.13753 0.165856 -3.89256
3235 1 -5.45553 12.414 -12.771 3.31575 0.459208 -6.3915
3236 1 17.2266 21.2185 8.86047 -0.0323113 2.23284 3.01869
3237 1 -3.19557 -12.8029 -23.2042 4.06877 2.27249 -0.615217
3238 1 18.9623 22.0032 -1.8654 -1.82549 -3.46193 -3.2612
3239 1 -11.6131 -15.7989 8.10537 -2.41887 2.4936 -0.940389
3240 1 -12.6488 -21.9812 -16.1262 3.8114 -0.126458 -4.73289
3241 1 2.65114 -21.2023 13.4006 6.53749 0.588515 1.43566
3242 1 21.4634 -12.9735 -17.307 -1.02615 1.48211 -3.12459
3243 1 6.36559 18.2484 22.114 1.34676 -1.93872 1.94973
3244 1 18.8375 15.1527 -11.8113 -4.16263 3.36342 -2.30555
3245 1 -9.16842 22.3773 11.811 -1.54295 2.18043 -5.76133
3246 1 20.3114 6.17114 5.41186 1.17087 -1.35029 -1.10925
3247 1 -5.85266 10.6395 -10.6477 -1.1306 -4.95774 -1.29196
3248 1 8.99666 -2.48028 0.0978618 0.476374 -0.787557 -4.31098
3249 1 9.26696 -3.95581 13.9997 0.518971 1.47317 -6.71852
3250 1 16.5835 3.84654 -19.2328 -0.752114 0.715095 1.2944
3251 1 -0.595742 18.9175 13.4397 -0.467426 3.22852 -3.60954
3252 1 20.136 45.81 11.9166 -2.09121 3.51303 -2.20533
3253 1 9.16308 15.5812 4.19185 -2.26626 0.344668 2.93183
3254 1 20.0489 6.04795 -6.8122 0.611673 2.30471 -1.95809
3255 1 -17.4121 13.1067 -19.6726 -2.20192 -1.3758 2.20644
3256 1 -3.25159 19.4034 -10.8477 -3.97873 1.9906 3.28219
3257 1 -14.6877 7.56935 20.9457 -3.94271 -0.947336 -0.55049
3258 1 -20.4439 -6.52704 19.6225 1.84619 2.84744 -1.18259
3259 1 18.0708 20.4536 6.34108 1.9572 4.51209 -2.12733
3260 1 19.9078 44.5191 -7.95067 -1.23179 3.99022 -4.39764
3261 1 -15.169 -2.98779 -15.7164 -1.23875 -4.36794 -1.99746
3262 1 8.46089 8.15138 13.3786 0.994668 -7.16046 -0.776273
3263 1 21.323 1.3734 17.5952 -0.643833 1.43911 -1.91864
3264 1 12.0582 8.44377 21.6564 1.66644 0.1146 1.86757
3265 1 4.45637 -3.87427 -12.8596 -0.975917 -3.5394 -1.87335
3266 1 9.32264 -0.107115 -23.5413 -3.69182 0.193873 0.369993
3267 1 -15.3456 10.2344 2.18062 4.12519 -1.45304 0.612243
3268 1 8.31157 -20.9103 10.5779 4.13037 -5.14922 2.48754
3269 1 7.42635 17.2658 -4.24982 1.61061 0.662865 -4.53851
3270 1 16.5883 -18.061 15.1536 -8.58135 6.91959 6.01067
3271 1 8.54101 -12.3302 22.2035 -0.039159 1.56577 2.92268
3272 1 2.4645 11.7041 -8.10084 1.54479 -2.70118 -0.23763
3273 1 -16.9294 8.26418 -14.1977 -1.55376 7.1295 -4.10746
3274 1 13.5018 -20.81 4.78735 -4.89651 -1.85872 -2.1801
3275 1 20.1155 6.7958 12.2195 1.08617 3.73377 2.84516
3276 1 9.80043 1.44241 12.8203 5.05722 -0.1703 -4.42768
3277 1 -0.457327 -15.7621 1.9298 -1.99064 -4.65092 -2.81703
3278 1 0.799646 -5.78813 -21.9406 2.67961 -0.981352 3.10137
3279 1 7.12412 -0.870162 15.8542 -2.04462 2.57597 -0.177012
3280 1 6.94041 15.4043 13.4998 -1.97406 -4.58223 1.07143
3281 1 -3.69374 -15.4201 12.6374 5.16808 2.54761 0.587126
3282 1 1.83439 -3.38127 -17.056 3.84026 0.0301109 -5.62586
3283 1 -4.71252 -1.10752 14.7278 0.320654 5.4845 0.0740936
3284 1 13.171 24.9884 -19.4917 2.63576 -2.86112 3.67955
3285 1 2.38709 18.2863 -13.6344 1.12341 5.43507 1.24085
3286 1 -17.304 21.9125 5.04394 -4.68628 -2.1421 -4.28475
3287 1 -4.77877 -12.7001 15.6233 -1.45208 -0.386381 6.08355
3288 1 -2.28695 7.81055 -20.867 -2.67483 2.36054 1.06432
3289 1 -16.8921 46.641 12.5643 -1.07889 -8.57711 -0.632714
3290 1 -13.7996 22.6873 16.7823 -3.64232 -5.94361 5.23666
3291 1 21.0771 24.4202 -10.7395 2.11378 -4.99296 -2.37989
3292 1 -22.6124 22.4331 1.90893 -2.18821 0.594438 -1.73017
3293 1 -10.9811 12.8445 23.2989 3.72145 0.815568 -0.603229
3294 1 -22.8183 -1.00459 -16.7257 1.41576 -0.218995 -0.415857
3295 1 4.9036 -22.938 0.317305 2.74186 -3.80244 3.68318
3296 1 -17.878 -12.5993 15.6942 -0.129536 -3.77138 -0.760047
3297 1 -17.1913 24.762 23.8366 -3.07463 -1.76994 2.14775
3298 1 5.40148 -8.78341 -17.3138 2.07551 -2.11091 2.51621
3299 1 -13.3321 23.6364 -4.39022 3.86228 0.402067 -4.80598
3300 1 -0.7042 6.60153 -7.28436 -0.963532 -3.04567 0.0202321
3301 1 -21.655 10.5709 -9.30917 2.3208 -1.46259 -5.78805
3302 1 -18.9023 -11.2954 19.2966 -0.443018 -1.85466 -3.40818
3303 1 -23.1372 45.9356 -15.863 1.04982 4.63442 -0.634239
3304 1 -2.57434 16.9931 13.7505 -1.14184 1.97106 4.48308
3305 1 3.52774 6.02907 -7.87099 -3.08627 3.01688 1.4858
3306 1 -8.40466 11.4541 -22.1384 -3.35789 -1.61939 3.58848
3307 1 -21.207 11.6964 19.8285 -2.63287 -3.85546 -3.95555
3308 1 -16.4801 19.3244 -2.0604 -5.39027 4.32036 -0.386779
3309 1 2.1538 0.177237 13.3202 -0.682322 3.05389 1.21639
3310 1 16.3503 25.4732 7.93112 7.0643 -2.10483 -1.75971
3311 1 10.8006 4.57214 -10.303 -3.02967 3.26012 5.3416
3312 1 -24.1117 6.46461 15.6177 -1.94683 0.267251 -0.613983
3313 1 13.7882 10.5202 10.9622 -2.42235 1.64367 -1.10006
3314 1 1.38983 -2.03651 10.0026 2.41284 0.793535 3.05429
3315 1 22.0816 -12.1775 -23.5055 0.609801 -1.26103 2.28418
3316 1 3.29778 -5.46221 -4.94407 -4.08545 2.06877 1.60157
3317 1 2.49062 0.60973 9.74331 -3.54174 -0.514954 5.21946
3318 1 -8.39878 1.39093 20.5068 -2.22732 0.145382 -0.311574
3319 1 -0.192021 4.06984 -14.321 3.84362 -1.78955 -0.905174
3320 1 4.85456 6.01054 -12.2235 -5.79237 -2.04465 1.43881
3321 1 -7.89794 -16.1653 19.5703 -2.05928 -1.35359 -3.50393
3322 1 13.9941 -11.3829 -23.6522 3.50493 0.947112 2.15473
3323 1 -4.49095 19.0794 14.4613 -4.1992 4.15594 -1.30117
3324 1 15.7588 -15.7655 -10.9373 0.21111 -3.61805 -3.19991
3325 1 -10.8355 15.6627 5.19101 1.19591 -0.731339 3.04035
3326 1 -22.7414 6.67784 -21.2486 -2.23179 -1.77485 1.07404
3327 1 7.18083 -22.5743 -10.1032 1.12213 -1.1904 0.361988
3328 1 3.25486 -17.3893 -11.4092 -1.68157 -4.23551 -1.11853
3329 1 15.787 3.87283 -16.0616 -4.11213 1.40244 2.31759
3330 1 -7.65661 18.5979 -14.7294 2.76552 -0.0290863 -2.09249
3331 1 -18.4189 -4.37666 -1.73487 2.02095 -7.09662 -1.79588
3332 1 -5.4342 9.197 22.0831 4.46218 -4.70826 -0.458285
3333 1 6.99834 -7.93038 22.1699 3.01376 4.67705 0.679972
3334 1 22.8366 21.0089 16.5739 2.28864 -3.20595 -2.86639
3335 1 22.6246 0.359173 -4.03397 6.24185 -0.163271 -3.36399
3336 1 14.1744 -17.2664 0.866789 -4.32325 -4.55227 -2.21412
3337 1 -14.8666 11.0959 9.70813 0.578149 -6.05064 -3.50403
3338 1 10.0454 22.3092 16.1021 -1.53524 -1.95128 -0.168624
3339 1 10.9292 21.6656 -21.8731 -4.1888 3.99475 4.26168
3340 1 19.5393 -0.754044 -19.3832 2.69944 1.39837 -1.17184
3341 1 19.6569 21.9141 -14.6897 1.56444 4.85329 -1.21137
3342 1 -1.48346 -1.35393 3.21251 0.46737 5.63036 -2.00925
3343 1 -23.1797 -5.72622 -16.5587 -3.84506 0.893328 -2.06496
3344 1 18.0839 -20.5018 15.6831 1.21978 0.470918 4.27799
3345 1 13.1252 24.9002 24.0974 0.482183 -6.2054 1.66295
3346 1 8.88315 -23.1146 -1.88218 -3.82753 2.78964 -0.216473
3347 1 -23.8017 14.1187 -14.4234 -4.00998 4.16363 3.31571
3348 1 -10.5304 -19.8589 0.533169 -0.966886 1.50494 -2.6105
3349 1 13.9777 20.7792 -12.9232 -1.62142 1.55263 -1.81918
3350 1 -3.42703 -6.99295 14.3415 0.707422 0.423556 3.69525
3351 1 -21.0761 -10.1538 14.7653 -2.38391 4.91831 -1.88167
3352 1 5.26458 14.865 3.77343 1.51046 2.91272 -0.650351
3353 1 -22.9969 3.4845 16.1064 -4.19508 -3.41515 -3.23123
3354 1 -15.7309 9.08787 -0.267149 2.13904 4.17635 -0.454275
3355 1 -16.3781 -20.7789 -6.97652 -0.40719 -0.142904 2.12805
3356 1 -9.1834 23.4619 6.80164 -0.458297 1.83591 2.49549
3357 1 7.66667 -6.93308 18.724 4.17734 -1.30667 -2.15145
3358 1 -1.85121 22.802 13.8854 2.10766 1.63673 -0.594931
3359 1 -5.76193 25.0912 13.5319 -2.1201 0.796886 -1.09364
3360 1 -7.69647 -15.4776 15.4357 -0.564528 -0.129135 -4.30838
3361 1 -2.85454 25.2802 10.1621 2.44035 1.49163 1.84215
3362 1 -6.79974 4.12842 -14.4643 -1.96816 3.61478 3.23364
3363 1 11.7693 -2.4146 -16.8032 -7.23702 1.22505 2.36849
3364 1 -19.4288 -8.31337 2.2656 -1.54849 3.73387 0.688713
3365 1 -0.0431441 -8.67017 11.0641 1.067 0.78887 -0.58006
3366 1 -18.936 -23.8242 -21.3993 -1.90374 0.95616 -0.972511
3367 1 3.74793 -20.7759 -20.8556 -2.28116 0.743797 6.57345
3368 1 21.312 -20.1955 16.2821 0.864737 -1.06454 0.861537
3369 1 -1.99342 -2.77821 -7.59899 1.92951 -1.96863 -1.62353
3370 1 -19.0394 -14.2913 -14.6953 -0.375389 2.22115 -3.5186
3371 1 -9.64478 4.35084 15.2315 1.63937 -3.78953 -4.39187
3372 1 4.8816 -3.07714 -6.45966 -2.35817 -3.26221 -3.89313
3373 1 14.8522 -6.01536 18.9971 -2.71802 -2.6116 3.76073
3374 1 21.6269 -15.0361 -22.7105 -3.20411 2.75257 -1.22252
3375 1 21.481 -10.596 -1.70591 1.36651 -1.07965 4.50197
3376 1 -16.8302 9.99872 15.0724 -2.92763 0.119112 -0.987883
3377 1 5.56317 -14.3873 12.9678 0.449691 0.7906 -0.0121151
3378 1 -6.50205 -17.1953 -1.60551 2.29865 -2.98687 0.118436
3379 1 11.4574 -10.1994 6.98961 -6.9346 -0.0964707 4.7084
3380 1 1.37871 18.6487 23.2248 -0.969627 -2.42439 -0.955096
3381 1 -4.08992 -15.8746 -21.1794 2.30811 -0.571737 -4.52943
3382 1 -20.3768 15.5643 14.5903 -1.37006 4.55053 1.27152
3383 1 -19.9468 25.6282 -16.5417 2.62625 1.82606 -0.506013
3384 1 18.078 -19.8592 -13.0652 1.6829 0.112506 -1.64109
3385 1 -1.09062 -19.0269 -5.73692 3.63729 1.60554 -5.86015
3386 1 8.32808 -7.55087 -23.1161 3.0042 -1.29507 1.85689
3387 1 -18.2857 -2.16756 2.18686 3.24254 -5.28225 1.58325
3388 1 -19.5219 -1.80278 14.504 -0.936053 4.9439 1.21764
3389 1 -13.615 -10.8249 -13.0977 -1.747 -1.34955 -0.609946
3390 1 23.1585 -22.1725 13.7224 -2.92322 1.87993 -2.52695
3391 1 -7.96504 -16.2661 4.8654 -0.0398218 -2.86149 -0.306996
3392 1 -8.57695 1.05553 -17.511 -2.07501 1.26893 -2.38987
3393 1 -15.9218 15.5693 -18.79 3.316 -2.04588 -1.42487
3394 1 -10.4298 0.31717 15.2881 2.00574 0.824653 2.01395
3395 1 15.0482 -16.1632 11.0301 0.660962 3.2608 4.62805
3396 1 -19.1664 7.75505 -7.21276 1.43563 -0.502598 4.63357
3397 1 -4.45071 4.86246 19.6381 -1.06298 -4.49872 1.82618
3398 1 -6.99558 -20.0113 -4.79783 3.75289 -1.14032 -0.0279343
3399 1 0.150617 -6.55389 4.10781 6.55522 -1.57699 2.3443
3400 1 16.4114 -23.8826 -21.3873 -1.10123 0.927156 -5.53331
3401 1 -18.4949 -23.0748 -14.4572 -0.633667 0.846642 0.373517
3402 1 14.6832 -19.8311 -17.4737 0.0320793 -3.23496 -3.33638
3403 1 -15.9682 -23.767 0.223378 -0.960474 3.94189 -4.55113
3404 1 -17.1637 -10.1319 2.19862 -2.52474 -2.3859 -0.466282
3405 1 15.4716 5.26787 12.6842 1.2933 -0.693005 3.07002
3406 1 5.61532 -5.55938 4.79944 1.8087 -2.60462 -1.07921
3407 1 13.1865 -0.33361 -10.6526 2.88885 -4.08442 -0.257031
3408 1 -19.0036 16.3447 -22.6561 -1.25177 1.54315 -1.94956
3409 1 -2.18847 -18.2422 17.9783 1.31377 -0.227426 0.10163
3410 1 -19.7159 -6.5273 14.3311 4.67223 -0.86294 -0.970226
3411 1 -4.06125 -3.47 19.9873 -2.87181 -0.887232 -0.967984
3412 1 7.0843 -2.43352 -10.3182 -0.385611 4.95248 0.714599
3413 1 -1.38779 -22.4012 -18.0772 -2.58221 -0.441878 -1.55817
3414 1 -18.838 4.78721 -6.60155 -5.31084 3.51862 -1.62009
3415 1 -18.313 1.35802 -17.1132 1.64981 2.52779 -1.65687
3416 1 21.4618 -22.1266 -7.83315 -4.62199 2.24033 -2.4055
3417 1 -23.6489 -12.0407 8.77668 2.12516 3.58573 -3.299
3418 1 18.3201 17.3798 13.0545 -5.06717 0.663347 4.98801
3419 1 -10.7679 -10.1591 0.729997 -3.17579 2.822 0.835366
3420 1 -19.5144 10.4583 9.03364 1.04455 0.122981 0.841784
3421 1 11.9269 14.9041 -13.5293 1.02726 1.6799 -2.46487
3422 1 7.46296 -15.2413 -4.49496 2.40427 5.22242 0.784715
3423 1 -13.3277 3.96038 1.06284 1.10785 0.828088 2.2286
3424 1 -1.5185 -10.6894 2.61042 -6.05938 -1.30316 1.22122
3425 1 -23.2731 -9.9394 17.9501 3.75224 3.82585 0.676988
3426 1 -20.9445 -6.72782 5.11973 -4.09058 5.618 -0.269945
3427 1 -23.2773 11.8015 -16.2972 -3.11936 -2.10858 -1.60371
3428 1 -3.71899 13.3815 17.0214 -5.64179 0.836113 3.08826
3429 1 6.91071 -17.7373 16.62 -3.9466 0.126618 0.343659
3430 1 -12.1085 -15.5118 18.1535 3.07453 4.33656 2.90334
3431 1 -8.93611 -3.37118 1.77391 2.23994 3.10573 3.31684
3432 1 -3.11845 9.47625 9.39801 1.4527 0.750698 4.31752
3433 1 -9.3326 -1.23041 -18.9901 -2.12874 -5.50051 -0.605903
3434 1 13.0184 16.4738 -11.4526 -4.24176 1.77872 -1.68221
3435 1 -1.65812 21.0035 -15.8078 -0.513364 2.68408 0.762328
3436 1 -3.62376 10.4756 18.0042 -2.88729 1.37762 -1.09409
3437 1 11.8265 17.4466 -6.03441 3.25622 -3.0115 0.704187
3438 1 -17.4037 11.361 3.56563 2.67442 -6.76992 -0.697876
3439 1 2.71083 -13.6128 12.91 -2.01732 -2.75348 2.53902
3440 1 4.94285 23.274 -9.37463 -1.86641 1.79912 -1.56072
3441 1 6.31645 -13.7352 -6.56635 4.16459 -1.55907 -5.06167
3442 1 -5.28585 1.59076 7.78739 1.48508 -2.83289 1.75564
3443 1 -22.409 1.97768 -0.676376 3.5897 0.574665 2.698
3444 1 -17.6286 14.0591 2.95678 -0.654236 1.23145 0.564798
3445 1 -11.9824 2.05139 -10.0114 1.06644 -1.77393 0.74308
3446 1 -4.31149 -22.9237 -18.257 3.65314 -5.94299 4.37578
3447 1 -5.68429 4.49821 -6.06705 -1.6027 2.68175 -1.60329
3448 1 -20.1099 6.01388 14.076 0.430023 2.27147 0.820748
3449 1 8.40887 24.9692 -16.0275 -2.93498 2.17269 5.20735
3450 1 -2.47495 -14.5453 -14.2001 -1.39931 0.889757 -3.23336
3451 1 6.20912 -10.5329 -19.4364 -0.474128 -0.836522 -4.41863
3452 1 -11.8516 -0.229924 -12.8992 1.2977 -4.98465 -0.844007
3453 1 16.6155 9.34637 -20.4965 1.26288 -2.41134 2.91929
3454 1 -23.5513 20.8539 12.9444 -0.0331493 -1.04327 -3.86819
3455 1 -17.9949 16.3397 18.8669 -1.93263 -0.583847 3.66308
3456 1 10.1628 24.7014 -13.8114 -0.416077 -0.319064 -3.84938
3457 1 -22.7471 18.3936 22.1608 3.10431 1.23631 3.04037
3458 1 15.0014 8.41496 -22.914 1.80402 4.07572 1.82193
3459 1 -4.25118 19.1711 17.2889 -3.32946 -0.333155 -0.594506
3460 1 -1.54966 21.7921 17.3964 -0.412902 0.577769 1.05734
3461 1 -13.5996 45.7924 18.475 -0.359165 2.99797 -6.10747
3462 1 -12.671 22.6254 -7.30785 0.245587 -1.25749 -3.99988
3463 1 22.6981 7.82814 -23.7282 0.325143 -0.483534 0.476497
3464 1 -19.4223 -19.0469 11.6911 -5.68015 3.40447 -1.44297
3465 1 2.51934 -5.3501 11.2129 2.26287 1.25473 -3.04293
3466 1 -10.4593 5.02104 -7.73105 -0.519727 3.92343 -1.91658
3467 1 11.9837 14.6058 14.3619 -0.911375 -7.61497 -1.04288
3468 1 -6.00649 -5.57993 -23.6707 3.05922 -5.7263 -3.40813
3469 1 -3.17539 -10.6318 0.175689 -0.0387316 -0.386709 5.03952
3470 1 -17.6726 -21.3465 -9.45254 0.351186 1.6978 0.473564
3471 1 -16.1889 -17.1747 -17.4191 -5.79699 1.3988 -0.692502
3472 1 -14.1691 11.5406 -17.7905 -3.35725 -1.95013 -4.11025
3473 1 -23.8777 23.4274 -17.9517 1.60777 -0.368365 -1.26848
3474 1 16.9068 -3.48357 12.1583 1.12032 3.70307 1.41323
3475 1 -19.4887 -13.7775 17.7117 4.00827 -0.714725 0.800499
3476 1 3.12586 13.5289 15.6843 0.636787 0.839095 3.35447
3477 1 -20.4814 -1.25935 -14.9622 -4.63862 6.89441 -2.23674
3478 1 10.5709 -14.3324 3.17159 1.16392 3.13168 -4.09866
3479 1 13.8625 -5.99515 11.2634 -1.56783 -0.376324 4.9214
3480 1 22.2595 26.0545 -4.09518 -7.05379 1.86285 0.7555
3481 1 3.32939 -22.7465 23.6192 1.52823 2.38773 -0.0528563
3482 1 14.5763 18.8048 3.60044 -2.52938 -0.191312 1.76796
3483 1 10.166 20.7823 -0.850211 -2.31713 1.67941 -4.35295
3484 1 2.87554 11.1056 6.71818 1.79886 6.21291 -4.69406
3485 1 1.89731 7.10934 -3.57903 -0.326002 -3.41044 -4.987
3486 1 15.26 24.1829 16.4223 -4.30438 -1.63397 4.95262
3487 1 8.7645 -11.2676 -10.7696 -4.77837 -3.77105 3.53787
3488 1 15.4914 16.4792 -13.0647 -0.108899 -1.84161 -2.89255
3489 1 17.9634 1.48472 -8.59079 2.79805 -2.65708 -2.21985
3490 1 -20.9925 6.42773 3.96011 4.45704 2.08831 -1.27423
3491 1 -8.59407 8.69131 -22.676 0.314513 5.41238 0.197272
3492 1 17.0204 -4.0153 5.39403 -0.0186984 1.48692 -1.84066
3493 1 6.47343 10.4102 16.5205 -3.97884 -2.42187 -1.86994
3494 1 -16.4238 3.11161 22.5825 3.43088 -2.40838 1.37306
3495 1 22.5285 -4.36598 14.9858 -1.28826 1.2289 -1.57107
3496 1 -9.62776 6.92275 -16.5597 0.356261 -2.3907 -0.570059
3497 1 -17.0958 12.554 19.6004 -0.704125 0.726415 0.96626
3498 1 -16.8261 14.0439 7.79692 4.876 3.4791 -12.0459
3499 1 -20.4006 21.9657 -21.4625 -1.39335 -2.28543 0.558792
3500 1 18.7476 14.452 -7.82141 -4.9849 0.243747 3.35509
3501 1 -17.0366 19.9946 -5.7421 1.80967 1.47511 2.41856
3502 1 -8.20411 22.1882 -3.76386 1.17585 2.4082 1.36652
3503 1 18.3622 -23.2056 3.03925 7.76606 0.783823 2.3354
3504 1 18.9674 -0.702635 2.40157 -3.72858 -0.168229 -4.18594
3505 1 0.683874 -14.1258 4.24532 -3.18322 0.677788 -3.13361
3506 1 -22.2928 23.6982 -5.22916 4.80585 -2.62236 3.37252
3507 1 8.47741 7.37802 -11.5111 0.201805 -2.11855 -4.70492
3508 1 -4.18231 -13.1002 -20.5291 0.00635518 0.0564799 -0.392968
3509 1 -18.0978 -19.4974 -22.1407 -0.914994 0.0269053 -1.90128
3510 1 -11.5435 4.15009 13.1273 -5.41425 -2.46426 -2.00122
3511 1 17.2677 9.52382 -2.68948 4.46912 -1.47938 -1.10538
3512 1 -16.8462 4.94496 1.59218 2.55446 -2.83505 -5.21804
3513 1 -18.5681 -21.301 -19.9669 -0.297949 1.29861 -1.81469
3514 1 -1.28319 17.2138 -11.1041 -3.83888 -3.06276 -3.8398
3515 1 14.642 -18.7945 9.34423 -2.93528 -2.94033 0.731819
3516 1 -21.5015 4.74541 -18.3407 3.18322 -1.04577 2.29817
3517 1 -7.20755 19.3651 17.9064 1.54903 2.0943 -2.75726
3518 1 2.38836 -0.136816 0.640681 0.751237 -1.35696 5.08357
3519 1 -4.07846 5.26848 16.5474 -0.97927 -2.72639 2.62905
3520 1 -5.85202 -12.6375 21.3354 -2.48957 1.35297 3.08837
3521 1 0.888476 12.8214 -13.9834 -0.970815 -1.21491 -0.378778
3522 1 22.4433 16.2461 -22.3469 -0.78343 1.81995 -1.20959
3523 1 -13.5198 -18.0529 6.95017 -0.995879 2.10223 1.07173
3524 1 -1.13881 24.3098 -1.3204 1.95517 -4.78948 1.38585
3525 1 -15.4243 13.6437 -21.7457 0.111704 0.392829 -0.897027
3526 1 10.7169 21.5643 -7.44591 -0.691614 2.28373 -0.506839
3527 1 -2.01384 12.953 6.61922 3.17403 -0.752747 -0.262133
3528 1 -22.8359 46.7646 0.241037 2.62981 5.48451 4.71672
3529 1 -21.9136 9.0117 20.6177 -4.00715 0.60614 -0.321648
3530 1 -12.1285 10.8107 6.88412 1.17913 -3.65431 0.147048
3531 1 5.31557 7.30449 22.4888 -3.35384 1.44802 1.22461
3532 1 -6.81572 14.5142 -8.28603 -0.648083 -3.73723 -0.305535
3533 1 15.7415 11.9506 2.64986 -1.5365 -1.92804 -4.03789
3534 1 7.16557 -1.22963 21.0314 3.39192 2.82656 0.340643
3535 1 14.4146 -22.8754 -17.5601 -1.14043 -1.34256 5.85336
3536 1 22.3362 -19.7569 10.4165 -1.08779 -1.40484 0.124003
3537 1 19.1607 24.0197 16.8598 -2.07297 -3.691 4.02746
3538 1 4.91877 -8.47454 14.4886 -2.76743 -1.47995 1.45985
3539 1 14.9041 24.4711 -12.4479 1.26746 -1.52555 3.20775
3540 1 -1.33449 13.2467 -4.223 -2.60775 -2.6474 -4.17127
3541 1 13.3822 -2.34012 -21.162 -4.41556 1.72193 -1.46879
3542 1 18.4749 -1.26525 5.89178 -3.19657 0.277425 3.05859
3543 1 -16.3863 15.0721 -6.07274 -0.773757 1.09062 2.59115
3544 1 -9.69293 19.8318 -2.86093 2.76599 -2.2327 -2.48498
3545 1 2.0442 21.0056 12.5979 -1.02729 1.88369 -0.720496
3546 1 17.4589 13.4662 -10.1054 3.78669 -0.548814 2.42916
3547 1 10.4523 -16.1288 -9.30983 -2.7916 2.69153 2.50107
3548 1 9.34963 -11.1585 -19.5506 -2.28336 1.27921 0.906554
3549 1 -10.2091 8.32121 6.94125 3.01038 7.73511 1.73295
3550 1 -12.7591 17.7722 8.807 -1.58107 -1.99062 5.05685
3551 1 12.8994 0.681319 -20.159 2.0778 1.05677 -0.738412
3552 1 14.6308 21.1424 7.82097 -2.00411 4.18903 2.82093
3553 1 -9.80696 18.378 -5.19091 -1.05363 -2.47126 1.02681
3554 1 13.2019 11.9864 -14.1242 4.37386 -1.6841 0.323097
3555 1 -19.541 -21.2361 0.261268 -0.659714 -0.709266 2.36451
3556 1 -8.50676 -13.3392 16.8338 -2.27462 0.899245 3.40664
3557 1 11.0431 8.12448 -19.4877 -1.18971 -1.89344 -4.92224
3558 1 -19.4128 -14.5127 0.0203212 -2.05975 1.68916 2.25145
3559 1 9.03745 -4.17025 10.8994 -3.36605 -1.55951 -0.201108
3560 1 -19.3832 18.1733 -16.0987 0.982671 -1.63754 0.990149
3561 1 -19.7406 20.9158 4.19059 -1.64465 -4.06259 1.75366
3562 1 19.7743 12.4779 2.83695 -5.35773 1.38421 -0.0890524
3563 1 3.76153 -22.2788 -7.34714 1.51709 -3.12012 -0.803416
3564 1 19.6841 13.0182 -15.3091 2.0732 -1.48592 2.64369
3565 1 17.1806 -19.3651 -4.58795 0.208306 -4.66977 2.49349
3566 1 -12.1676 -14.6628 4.07577 1.67877 1.36497 1.72964
3567 1 1.64382 -8.43299 5.82903 2.6317 1.22074 -1.12773
3568 1 19.6587 -3.41655 11.8892 -2.40599 0.605302 4.52652
3569 1 -3.40062 4.54136 -12.9577 2.99037 1.3525 4.05912
3570 1 11.6845 23.2114 22.3388 0.154176 -2.08197 1.95144
3571 1 2.3639 20.8099 8.60004 1.72764 -0.0307823 0.738852
3572 1 -13.6341 -15.8839 -17.5436 0.215388 -2.44015 3.0443
3573 1 19.9609 -5.02924 -1.72168 -0.241053 -7.1957 4.1361
3574 1 -16.0208 -3.92285 -11.3575 3.6898 -4.40423 -2.61039
3575 1 -10.2184 -12.1261 -10.6121 -3.48037 1.17941 -3.58877
3576 1 15.8424 4.51026 15.4954 -1.33301 -0.117845 -0.113956
3577 1 -7.6798 9.47274 -6.40959 3.39899 -4.57915 -1.67529
3578 1 21.53 7.29235 20.0998 0.425909 0.409489 -4.68799
3579 1 -18.8853 -9.86567 -7.51879 -1.38788 1.95493 -1.165
3580 1 -1.1053 -9.17465 8.11686 -1.78216 -0.289074 -3.58151
3581 1 -11.0978 9.40327 4.2311 1.40197 -3.8678 -2.38261
3582 1 -14.7816 -23.3693 13.6003 -2.76628 1.30994 3.45762
3583 1 -18.1054 16.704 8.21127 -1.05264 -1.74842 -0.246225
3584 1 13.2727 5.89453 21.9117 -1.33832 -5.38199 -0.0926282
3585 1 11.1411 -2.33158 10.1437 0.34942 2.40156 -2.76537
3586 1 15.3794 -0.0436684 -8.02941 0.230365 0.758171 -0.0388973
3587 1 22.7879 -17.1431 -18.0192 -0.483814 -1.75516 1.17793
3588 1 -22.3847 -7.38079 -10.7227 3.30015 0.153165 -1.12531
3589 1 -13.4748 -0.0248311 -8.12217 -0.0446953 3.64226 -3.81386
3590 1 12.2772 -1.08876 -1.51079 -0.622947 -2.39401 -1.75912
3591 1 -8.52228 -8.96068 23.9371 11.1164 -3.34056 2.17416
3592 1 -6.38644 -17.1037 -4.36352 0.308518 -0.868779 -1.79011
3593 1 15.2162 -13.1888 -11.9816 -2.70871 -2.11848 0.100658
3594 1 16.3081 -0.388473 4.30119 0.432032 -3.0242 0.311398
3595 1 -3.74241 -14.8217 8.98543 -4.14007 0.971519 -5.47848
3596 1 -7.03953 -8.2119 -8.44377 2.98787 -0.967788 -0.950105
3597 1 -4.57851 12.118 5.71071 -4.09218 -3.33522 -2.26757
3598 1 -12.6001 -11.62 -4.58624 -3.6982 -1.71596 -1.48968
3599 1 14.231 14.845 -7.8353 -0.912746 0.939427 -4.91725
3600 1 -21.0826 23.443 -7.94514 -4.51436 -1.18883 0.934232
3601 1 -21.5604 -12.1325 -5.08794 1.43595 -6.123 -2.59285
3602 1 1.98018 26.1832 22.519 1.01106 -1.71423 -5.71324
3603 1 -4.80002 -0.372721 11.8043 -2.36149 2.08887 4.90184
3604 1 10.8972 13.6002 -23.2683 0.556805 -2.57236 0.997708
3605 1 14.099 20.5955 12.9763 4.31814 -0.78537 2.13748
3606 1 1.82741 7.55515 -15.3776 -0.473048 4.26131 -5.65787
3607 1 -20.4185 5.22604 16.8434 0.112794 3.04703 -3.84427
3608 1 19.3059 24.0355 -16.9618 5.15282 6.75716 7.57965
3609 1 11.426 -13.1704 7.15657 -0.891236 -0.0401169 1.04087
3610 1 15.4351 11.9657 -21.3448 -0.198532 4.05526 2.15363
3611 1 -18.3596 24.0043 -14.8474 4.1148 2.06481 -3.08491
3612 1 -3.75124 17.9243 -8.3569 2.42493 -1.01411 -0.174849
3613 1 1.52553 25.9795 12.2289 -4.37345 -5.30891 1.86106
3614 1 0.198476 -4.20391 -2.51663 1.41075 -0.627027 -0.425504
3615 1 3.3531 19.4471 2.95079 -4.2395 1.36656 3.34659
3616 1 -10.9458 -11.4381 19.4849 -6.09966 -1.39761 -5.12905
3617 1 15.8496 -0.554614 -20.2455 2.01722 2.90441 -2.23378
3618 1 0.96457 -8.34115 -7.68596 -1.99911 -2.92714 1.04917
3619 1 -2.60174 20.1221 9.80972 0.627353 -2.30742 -3.1774
3620 1 -2.44887 14.6082 -10.405 0.894011 0.367518 4.60174
3621 1 -7.49774 14.5771 12.1622 0.462949 1.15129 -0.368122
3622 1 7.38692 -13.3028 7.18542 3.77128 -0.0410587 1.65595
3623 1 11.9356 -0.497715 16.762 -2.46753 4.55943 3.29076
3624 1 23.0918 -8.3685 5.46498 -1.38567 2.59563 3.09963
3625 1 6.11458 -16.199 22.1793 -1.8369 1.28429 -4.14799
3626 1 -14.7261 3.90163 -7.06718 2.1081 -0.463921 -6.42394
3627 1 -2.32225 19.0749 7.13376 4.26962 2.49384 5.32016
3628 1 8.51116 -1.27206 8.77873 4.22603 -2.76767 -1.82745
3629 1 -2.62663 -3.83838 3.6536 2.39237 -5.09974 -5.23134
3630 1 4.3799 -12.8988 -0.134847 4.16672 0.981999 -1.81414
3631 1 6.65853 9.37019 20.6549 -3.8263 -2.47506 0.0877851
3632 1 -15.4286 -15.5479 13.5691 -1.4276 -2.96683 0.475777
3633 1 12.1916 5.60474 -5.03609 4.19185 2.92793 -1.15046
3634 1 -1.87504 5.54042 10.2899 -2.17261 3.74932 5.93643
3635 1 0.38536 -16.1953 -19.8142 -3.08817 -1.60107 -3.34417
3636 1 3.9961 -19.8027 -14.3694 0.0243334 3.32495 -1.06919
3637 1 -4.06796 16.0144 23.5364 -1.09547 -1.07434 -0.789574
3638 1 -22.4601 -8.43436 20.2238 0.635766 5.1849 3.11842
3639 1 5.77919 -19.0482 3.82378 -1.10821 0.561837 0.0300993
3640 1 19.043 -17.5616 -11.5677 1.93554 3.4089 0.777783
3641 1 3.6349 11.9213 20.7927 -0.225624 2.04265 1.80594
3642 1 -2.39603 -16.2414 4.32426 2.65811 1.89276 1.46751
3643 1 0.573851 4.65537 8.81089 -2.79567 0.146975 -1.2169
3644 1 18.1424 20.018 -0.0110276 -4.04519 -2.69842 4.27902
3645 1 -15.9384 -14.3865 -7.22344 -4.03706 -1.11402 1.49398
3646 1 19.5214 3.04645 -19.3011 -2.01247 3.36976 -0.876893
3647 1 19.9796 -22.3221 5.14709 -1.89742 -1.0249 2.63414
3648 1 -22.5568 -21.5937 -0.181415 2.07405 -2.89596 0.783669
3649 1 -18.0347 -0.943482 -18.836 1.77495 4.74173 0.0350437
3650 1 5.93463 -8.12441 -14.5537 4.14839 -1.09639 -4.24315
3651 1 -9.69761 8.31136 13.1805 -3.64139 -1.48165 1.50996
3652 1 21.3261 -13.6186 12.9526 2.71591 -1.2491 -3.14119
3653 1 -1.1025 17.067 -1.16397 -0.915592 1.20962 2.16237
3654 1 -20.3812 23.6366 12.8035 1.74556 -1.19561 3.84021
3655 1 -9.04019 24.5139 -13.4726 -1.22603 0.796999 1.03075
3656 1 -12.164 -20.2818 20.9888 1.74215 3.86829 -0.252953
3657 1 23.003 25.3732 -9.20578 -2.03113 1.35872 0.896063
3658 1 20.4377 14.4569 16.9674 -7.08305 -1.44544 2.72174
3659 1 22.3552 7.63494 -17.9724 -1.63399 -1.23723 -2.77955
3660 1 16.1734 9.03477 9.62935 1.8841 0.735086 -0.61027
3661 1 21.2072 10.7064 -20.5295 -1.16264 2.60629 -0.23491
3662 1 -1.51639 0.945134 -22.4463 -5.33044 -2.15927 0.101935
3663 1 -21.2759 -13.7757 -12.6933 2.51238 -1.85991 0.860733
3664 1 5.1048 18.1877 12.9388 2.906 -1.89722 0.0581308
3665 1 11.1835 -9.93693 -17.3607 3.02466 1.74218 1.68137
3666 1 5.8571 -15.552 -22.7549 -3.80783 0.662742 -2.08359
3667 1 13.9261 13.7736 -16.5699 1.51543 3.44237 -1.93224
3668 1 -12.1363 -2.43699 22.9725 -1.233 2.202 -1.83359
3669 1 0.44899 21.6921 4.46905 -1.89037 -4.42495 1.65466
3670 1 13.8537 7.17395 -10.2897 -1.52239 -1.59887 1.17546
3671 1 -2.6873 11.6192 -13.1522 -0.118391 -1.31737 -3.40533
3672 1 -12.7634 12.1151 11.6795 -6.48544 0.0144752 -1.3796
3673 1 -2.40268 45.5852 20.9443 0.695797 4.15634 -0.884951
3674 1 0.423491 -0.421162 -6.02709 3.9409 -4.98116 -7.13665
3675 1 -12.8576 19.6897 -8.63214 2.85586 -3.50918 0.456558
3676 1 15.3533 13.7124 -13.3292 1.29326 3.20139 0.356639
3677 1 -6.0664 15.0784 16.5287 -0.820774 -1.90359 3.01809
3678 1 -18.3015 7.49063 12.8244 -2.02018 -3.72246 -0.325125
3679 1 9.47955 -18.6376 -4.88959 -3.33586 1.41683 0.470386
3680 1 14.8428 5.73004 -23.3982 -2.38996 3.49424 -1.23997
3681 1 -6.89722 0.809752 15.564 0.608269 3.06845 2.0033
3682 1 -23.6766 -22.8073 16.3177 0.992769 -2.39751 -2.33051
3683 1 5.70135 11.8266 4.61966 1.13829 -3.33501 0.845321
3684 1 14.4556 16.2598 -22.7291 1.89172 0.182613 1.58609
3685 1 5.34405 -5.015 1.94499 4.89038 -0.587277 -5.77968
3686 1 -21.418 10.9036 0.721924 -3.57379 -3.79433 -1.51986
3687 1 7.92699 -16.5257 9.84846 -0.176189 0.228205 0.764382
3688 1 -11.5643 -23.2362 -1.28398 4.17069 -4.39575 -1.87427
3689 1 20.7943 17.9826 -14.9475 1.23421 2.84411 0.682335
3690 1 -7.77041 7.50459 -8.43287 0.867897 2.76501 -0.44672
3691 1 22.6119 44.42 -8.76397 3.88453 0.874787 1.8493
3692 1 5.14136 -1.24387 -18.628 -5.63656 -1.38311 1.56584
3693 1 3.5469 22.5036 -2.21737 -4.26828 1.10924 -2.78036
3694 1 -21.7085 2.23343 -7.19732 -0.965204 -0.239799 0.650765
3695 1 -6.37516 -2.12408 1.66101 0.515826 3.54218 1.42037
3696 1 8.12513 0.849903 -17.5331 -1.66852 2.70554 -3.90066
3697 1 9.43839 5.29375 6.4116 1.94898 0.825365 3.28623
3698 1 -22.3071 1.3204 14.3759 -2.20808 -1.41538 1.19854
3699 1 -9.32992 -3.61472 16.4629 3.14042 -2.09015 -3.8462
3700 1 -3.84405 -22.4211 -14.5937 2.99619 -0.130704 -5.85201
3701 1 13.1287 -3.10987 12.3372 3.70587 3.56399 1.69061
3702 1 -7.3247 1.30804 -13.9804 1.02921 0.486762 -0.0189475
3703 1 19.7621 15.0277 -22.0211 4.72358 -4.7012 6.20517
3704 1 16.1144 -4.78377 9.7406 4.21608 -3.12166 -6.21664
3705 1 3.54161 -1.21048 4.50791 6.31094 -1.58371 2.09356
3706 1 -13.6313 4.22907 -16.6489 3.86499 -2.55458 2.18535
3707 1 18.604 7.35941 -13.3541 -1.61501 -1.14734 -1.57472
3708 1 5.32105 3.37922 8.09996 2.88703 -2.53119 1.70272
3709 1 -20.8782 17.4468 9.19447 3.14001 2.25202 2.04764
3710 1 -7.64121 -3.83117 20.1846 -3.15386 -2.45058 1.49406
3711 1 -12.663 11.5177 15.5779 -0.798121 -1.42626 -1.0297
3712 1 15.4003 25.2933 -4.74253 -1.29436 -1.96249 -2.93416
3713 1 0.425724 18.7203 4.05186 -2.29245 0.754984 3.03965
3714 1 -13.1321 0.305182 22.6434 -2.83435 -4.3731 -0.0163703
3715 1 18.5184 19.9265 16.791 3.91391 1.01775 -3.38272
3716 1 6.11056 5.36591 -1.55669 -1.8339 2.84484 -0.343022
3717 1 -6.27968 18.5115 -21.075 -2.47662 -0.176479 5.20911
3718 1 -15.8579 7.40681 3.13984 -3.35312 -1.16011 -3.6336
3719 1 -0.327515 16.218 -3.85664 1.82315 -0.562163 0.293177
3720 1 15.8403 18.2956 16.2913 -1.63684 -5.65741 1.45194
3721 1 -0.858572 16.5402 -8.03942 1.19474 -3.41181 -6.07718
3722 1 18.2831 -9.72929 8.12576 1.4892 -1.1961 0.691991
3723 1 6.29014 6.74877 -15.8461 1.61599 -4.06268 0.867341
3724 1 -3.60631 -1.33645 -0.708706 1.47565 2.84558 1.47888
3725 1 -11.8785 21.6723 -2.89423 2.37575 -4.76531 -3.16951
3726 1 -8.0571 -13.2343 -15.0012 6.07962 0.210453 2.56836
3727 1 5.00583 -7.41715 -21.89 1.53553 -1.44454 3.53457
3728 1 16.71 -10.1216 -22.8929 6.62984 -0.815861 0.232722
3729 1 -22.5655 -8.76333 -13.3329 1.17363 1.12093 -2.07688
3730 1 12.0074 -4.94351 14.5595 2.25205 1.2911 0.657844
3731 1 4.65101 -17.3137 -21.0676 -5.37956 -4.64819 3.59767
3732 1 20.7264 18.7 5.96069 -1.60685 -3.34374 -3.50515
3733 1 6.33671 -14.642 -1.92939 0.013406 -2.33074 -4.38725
3734 1 14.5667 13.9138 -10.4678 -3.05634 1.99949 -1.34465
3735 1 -8.15476 18.5801 2.53565 -0.627647 -2.60452 2.4776
3736 1 -23.3808 16.7726 -9.92028 -1.77356 -0.241394 3.82258
3737 1 2.17805 5.37685 1.47877 -0.423499 1.91478 1.67246
3738 1 -5.23301 -6.01806 16.7657 0.40596 -2.54236 -0.414832
3739 1 2.20158 -4.19604 8.22473 5.89927 2.00614 -5.77089
3740 1 5.35704 1.16096 -20.3423 7.14688 -2.44946 2.91507
3741 1 -20.7137 13.4629 -4.60863 -0.738542 8.28966 -2.23192
3742 1 -1.2005 -21.987 -15.3338 5.82912 1.13925 0.187371
3743 1 7.24596 -12.5558 16.7852 -3.8084 -5.92113 -1.54026
3744 1 -15.6294 17.8928 4.8207 3.93266 -3.18622 1.08474
3745 1 4.91949 -8.50899 10.7385 -5.48846 -2.68311 -3.22565
3746 1 5.75961 -19.566 -5.02739 5.40593 6.46098 -3.73171
3747 1 -18.8657 25.9434 -19.4808 1.75976 -1.43746 0.902888
3748 1 -15.5027 -2.22927 -18.3299 -3.72998 5.50268 -0.747889
3749 1 -20.4701 0.101074 12.3807 3.63149 -3.22929 1.37287
3750 1 13.0811 24.4805 -14.5856 -1.82397 -1.07348 4.17129
3751 1 -5.45503 0.225712 2.8744 7.73856 -1.00057 -0.331755
3752 1 -19.2976 14.1628 -15.2223 2.9093 1.82637 -4.9075
3753 1 3.64184 -3.55962 -19.633 -7.08195 -3.25909 3.35312
3754 1 -11.7772 7.54941 9.41779 -3.04785 5.98024 2.00857
3755 1 17.6004 7.03644 -7.83522 -1.09092 3.32801 1.49353
3756 1 -11.3806 45.0847 -21.6114 0.935439 -3.05693 1.79416
3757 1 0.217356 23.0482 1.83778 -3.76079 0.485719 -1.43988
3758 1 22.7893 -7.47848 -11.9221 -3.08514 1.61574 -3.62514
3759 1 -12.0723 6.43615 -17.9286 -0.27488 -0.896977 -1.68567
3760 1 16.5768 21.7376 4.50869 -0.948636 -2.48997 2.64096
3761 1 18.0111 -13.4644 -19.2172 -5.56359 -2.00483 -1.59453
3762 1 8.28609 -13.3494 9.82025 -0.0947123 1.91776 -1.22705
3763 1 12.3135 9.91935 6.35528 -2.62954 -0.34674 -0.69267
3764 1 15.9497 -13.2978 20.7251 -0.25709 2.57721 -0.527584
3765 1 -23.3538 -24.7506 -2.73743 -4.43837 -3.05832 -5.18792
3766 1 -11.1836 19.6273 14.6613 -4.03808 2.56839 2.54746
3767 1 -11.7473 -22.0814 1.55837 -0.0700321 -3.52555 -2.05304
3768 1 -1.35792 7.97611 -16.979 4.52441 -0.041434 4.54708
3769 1 -20.102 -17.5326 7.73262 -6.86223 -1.43783 -4.04986
3770 1 -8.57725 -4.50277 9.1108 1.4488 -0.466401 -2.14742
3771 1 -17.1198 20.5057 19.3822 -2.00289 -2.51243 -2.85542
3772 1 16.6726 -15.5471 -2.03814 -1.4682 2.0677 -1.95861
3773 1 2.73602 -2.57135 12.5051 -3.39649 -2.24047 -3.526
3774 1 -6.3427 14.1969 5.4255 2.71465 2.56595 2.76788
3775 1 2.33618 -1.89825 -12.8632 -3.27574 -1.2402 -1.71613
3776 1 5.97274 -3.00592 19.2192 -2.1961 1.52178 -2.19136
3777 1 11.3221 -7.06356 -1.36072 1.24322 3.7941 -0.539879
3778 1 5.50705 15.0361 -9.13545 -2.54046 -2.80236 -4.62124
3779 1 -9.47274 0.117681 8.78399 0.834967 0.605838 -1.43945
3780 1 23.0385 16.2925 -16.3136 2.63131 2.69741 1.77279
3781 1 -1.41029 -2.62265 9.3853 -0.210326 5.30054 -3.64808
3782 1 0.0655221 -14.0989 -17.7489 0.574486 2.5293 -2.92029
3783 1 20.6699 21.0764 3.89852 1.81877 -3.09858 4.16376
3784 1 17.788 2.17517 2.92375 -3.0336 -5.84458 -0.990814
3785 1 -1.92263 -24.0999 23.2783 -2.33466 -2.42327 -1.88145
3786 1 19.4713 5.74644 18.4975 3.70578 4.95188 -0.0965053
3787 1 7.12551 22.5614 -15.0209 -0.556968 -2.18471 -2.37136
3788 1 4.12415 16.0554 14.6116 -0.094346 -1.87688 4.83231
3789 1 19.8433 25.8591 -12.8328 3.03015 -0.28892 6.09487
3790 1 3.26825 -17.0699 -1.91495 -0.465464 0.726997 -3.53354
3791 1 -11.625 17.4984 -12.4365 -2.72774 0.588426 2.30752
3792 1 -13.2099 -7.88251 12.325 3.49273 4.40333 -1.66837
3793 1 -13.5313 21.5114 2.37468 2.97917 -2.88759 5.06572
3794 1 -1.99846 -20.5592 -10.1756 4.12126 3.72004 0.985372
3795 1 13.0107 23.3111 19.9145 -9.75904 -1.47981 -1.6861
3796 1 -11.7297 -8.86517 -7.48774 1.17537 -1.94471 1.10659
3797 1 -15.5996 -12.9326 6.96228 -0.161862 0.770978 -1.52766
3798 1 4.72814 2.84823 -1.14316 2.02422 1.45532 -2.52203
3799 1 18.0117 20.7631 -7.46902 3.04114 -1.33204 4.49608
3800 1 15.9227 1.12802 -1.1807 1.84123 -0.17683 -2.5663
3801 1 1.39907 14.5921 -8.37736 -5.64235 2.28818 -3.23384
3802 1 6.69722 0.625816 -22.8692 4.36876 2.46146 -5.43905
3803 1 -20.2156 -5.43319 22.7304 -0.718626 -0.44391 0.0268872
3804 1 11.8426 17.8476 9.9834 7.56778 0.178639 -3.96624
3805 1 -4.48571 16.9123 -19.8849 -5.45074 -3.92299 -1.82048
3806 1 -1.11816 3.03116 -3.74134 -1.92647 0.803616 -2.64646
3807 1 -8.3017 20.5598 -17.8245 2.81346 2.63493 -3.45438
3808 1 7.71659 -12.3006 -21.6157 0.120422 1.63401 -1.20387
3809 1 5.39687 -23.9599 -22.4233 -2.56055 1.38143 0.24104
3810 1 -17.845 -3.0504 12.4201 -0.158044 -3.29354 -1.36167
3811 1 14.9522 -16.6198 23.8993 -0.523211 -0.612175 2.39142
3812 1 -5.41349 -18.8759 1.50684 2.32805 -2.10849 4.98996
3813 1 18.2265 2.33578 -2.27966 0.348301 0.0741663 -4.99658
3814 1 5.75575 11.0177 7.37349 5.56021 0.399567 2.93833
3815 1 -2.00271 20.007 -23.4632 -2.50028 -1.4005 -0.0721947
3816 1 -15.2714 -7.84089 2.53646 0.0787775 -0.0613281 -1.82065
3817 1 10.5902 8.24993 -2.98304 3.05839 -7.46736 1.13391
3818 1 11.9849 18.2081 -23.2822 0.683976 -4.03859 -4.41129
3819 1 2.83663 26.1984 14.8223 1.55421 -1.73915 -1.68304
3820 1 23.0739 15.0832 -6.73061 -0.498132 0.507917 3.44194
3821 1 10.5242 -10.6814 15.0363 8.29654 -0.0998933 -1.80737
3822 1 10.0394 6.26766 9.01934 -0.340129 1.51834 3.35574
3823 1 -5.77575 -19.4152 -9.29721 1.6315 -2.7316 -3.20967
3824 1 -7.89758 46.2815 -7.25337 -3.6514 2.94425 -3.27753
3825 1 20.1269 -13.9235 10.3927 -7.15169 -2.95101 5.17183
3826 1 -0.925065 16.8023 -13.9926 1.46375 2.93028 2.78538
3827 1 0.580001 7.50988 20.6904 -3.22859 1.40254 -0.230883
3828 1 -17.9597 20.2827 -16.8943 -0.139894 0.33301 -0.532292
3829 1 -13.6719 -19.9888 -7.65535 2.22086 0.427914 -1.78696
3830 1 17.7936 -11.8852 -11.1778 1.24655 2.13954 5.32258
3831 1 -3.62689 20.742 0.580404 -1.32938 -0.922299 -2.41089
3832 1 20.2852 -3.42345 2.34442 -5.04769 4.24546 0.546731
3833 1 21.6757 -3.86535 -11.6843 0.241987 1.20804 0.869372
3834 1 6.71389 5.36339 1.80819 1.85103 0.60736 -1.11309
3835 1 21.9353 -23.6381 -3.78519 2.11607 -1.93156 0.703304
3836 1 22.5511 12.5666 1.58669 3.65833 2.78231 1.14935
3837 1 11.2855 12.7744 3.10315 -2.91543 0.767619 -2.90926
3838 1 -5.46634 3.42531 -2.62943 3.17036 -2.1405 1.16179
3839 1 21.842 5.41095 1.93384 4.90196 3.15255 -0.25651
3840 1 -10.421 -21.846 13.8484 -0.178698 -4.51891 -4.86826
3841 1 21.5353 2.65307 9.80649 -0.938573 6.33904 4.24134
3842 1 22.6851 3.8733 21.343 -4.75676 1.75877 -0.216188
3843 1 -0.776519 -18.9053 14.5601 -8.32731 7.36403 4.95327
3844 1 -21.793 -14.6277 4.45196 1.06706 -3.84082 2.2561
3845 1 -3.89595 2.53136 -22.3139 -3.22284 -2.63977 -3.72969
3846 1 -21.7394 21.8824 19.9517 2.13911 -0.331794 -4.5775
3847 1 -14.6566 -16.888 -14.6598 -3.14171 4.07622 -3.02027
3848 1 6.40981 -16.0022 7.42068 -1.70716 -2.13666 -3.37876
3849 1 18.0157 12.7416 -19.5043 1.71705 0.086499 -0.619739
3850 1 20.268 -22.2433 19.3212 0.043443 -0.567319 5.0243
3851 1 -0.949594 6.41322 -0.485791 -3.9547 -2.35761 -3.11483
3852 1 -6.57136 20.9793 15.2778 0.634949 1.27471 -2.95915
3853 1 19.07 -14.7144 3.4179 -4.87449 -3.76534 3.20642
3854 1 18.8398 12.2522 -3.07618 0.406787 5.67977 0.0494207
3855 1 -1.33378 -6.56382 22.6561 0.83869 3.43961 -0.16889
3856 1 14.2116 -18.3488 -6.48672 -0.885695 4.65633 4.97928
3857 1 -12.2447 -24.4665 -11.8427 -0.107885 -4.77219 -0.702781
3858 1 16.155 7.5908 5.73741 -3.32229 -1.92065 0.499516
3859 1 21.1249 23.0128 10.1117 2.24954 -2.2357 0.86393
3860 1 14.5452 -19.3758 -14.6631 -4.1665 0.190183 -2.81556
3861 1 -16.7592 -12.1694 21.2657 3.55557 0.562947 1.05164
3862 1 -4.8155 -1.58678 -18.6906 0.407166 -0.398595 -3.39671
3863 1 -14.1739 -2.21501 15.1787 -5.05785 4.61841 -0.899094
3864 1 -4.73006 -3.3144 -14.2149 3.43465 -0.691883 -0.613506
3865 1 -0.351849 45.6917 14.2412 -1.38897 2.56384 -1.25465
3866 1 10.2673 -17.2675 6.46734 1.87223 -2.19583 4.64516
3867 1 -22.6877 -0.464542 2.61601 5.28788 1.62707 1.17966
3868 1 7.32214 4.48801 -3.99847 -4.19006 0.997412 -0.634086
3869 1 -9.84032 5.37823 9.916 0.569257 2.31561 1.19171
3870 1 17.5665 -20.0087 -10.3917 5.35398 -3.46166 -2.31281
3871 1 17.1596 -1.30454 21.9106 1.84579 -5.90141 4.98914
3872 1 22.591 -24 -9.55814 1.45664 -4.75098 -0.958229
3873 1 -4.27211 7.27303 14.6106 0.255054 -4.37314 -0.668174
3874 1 -18.6203 46.6365 -16.6091 0.581178 2.25387 -0.85055
3875 1 -22.4971 0.728076 6.61778 -0.429805 -0.907465 -2.79231
3876 1 -21.6121 -12.1544 19.1324 0.393465 -4.23758 -2.49451
3877 1 -22.644 4.19257 -5.01036 3.31144 2.41596 1.48037
3878 1 7.67195 -17.42 5.17495 1.09909 5.63821 -2.20449
3879 1 18.9945 -14.0546 19.9926 -0.30911 1.05329 -3.9727
3880 1 -8.02983 17.8157 -23.3184 -1.44033 -1.42471 -0.00648855
3881 1 -15.3713 3.59838 -14.4868 0.34191 -2.64045 -4.88329
3882 1 -24.0435 17.1163 -1.84308 2.10721 -2.39235 1.27407
3883 1 21.5027 16.3435 -11.0381 4.52636 1.7355 -1.89279
3884 1 11.7215 -18.8204 -8.49849 -1.38068 0.576165 -6.32876
3885 1 11.0341 24.6405 14.7692 -0.6355 -2.02841 -1.96187
3886 1 -12.4222 -15.8625 -5.06753 -1.02429 -2.62798 0.460994
3887 1 -0.0646606 -11.9743 -19.8522 3.4237 -1.30674 -0.887338
3888 1 -6.87272 5.217 -19.0014 1.50224 -0.449604 3.22782
3889 1 -16.1896 18.4291 17.4866 2.1529 1.34751 0.493184
3890 1 0.0950778 21.1723 14.9113 -4.07098 -0.540446 -0.584184
3891 1 6.31723 -15.1177 17.8486 -5.44133 -4.14028 -2.59484
3892 1 -13.6809 24.9465 7.27025 -2.83536 -3.17955 -2.23858
3893 1 -7.27997 11.738 11.3692 1.20507 -0.718304 -1.94541
3894 1 11.534 9.72967 -14.8317 -4.16465 -3.19277 0.860355
3895 1 12.7682 -7.88548 3.2357 5.38805 -0.685934 2.86038
3896 1 -7.30883 -8.50637 -2.33572 -3.49299 7.93606 -0.0341106
3897 1 4.50959 12.3198 23.5948 1.6615 -1.64654 1.18676
3898 1 17.1925 -3.29947 15.0111 -1.49366 -3.43644 1.61945
3899 1 4.7475 10.175 18.7624 -4.81426 1.92753 -0.400925
3900 1 11.4801 -17.6831 -13.6089 0.282696 -1.49612 -5.06657
3901 1 -16.7043 14.5243 -11.346 -0.558151 -0.0842168 -4.49868
3902 1 12.0519 12.9104 -6.8347 0.322608 -0.138732 0.231995
3903 1 -19.4406 -16.2666 4.00153 1.43812 1.7893 -2.28365
3904 1 12.6747 -8.74177 -6.97033 3.0467 -5.00141 -0.936846
3905 1 0.571317 -10.9508 6.7982 5.97116 0.0787649 0.526414
3906 1 -17.4532 10.1422 -6.86808 3.2153 0.22536 -0.297959
3907 1 -20.9918 -0.382712 8.81012 -2.35535 1.03474 3.566
3908 1 23.3998 -17.6444 12.8391 0.997203 1.36955 -3.58154
3909 1 0.36504 -12.7966 19.3485 -4.40274 -0.864852 -4.31563
3910 1 -6.61799 17.5352 -8.13273 4.88819 1.91505 -0.746242
3911 1 20.197 18.137 0.526909 4.50599 2.63384 1.10208
3912 1 -8.1407 -8.56626 0.548799 -1.53887 0.561383 0.0165948
3913 1 -6.20739 6.26968 1.00318 0.752838 -3.2619 -1.06321
3914 1 13.715 -12.7027 -5.55543 1.85278 2.36591 1.62285
3915 1 5.48185 -1.46666 7.4831 -0.142172 -0.369923 3.20726
3916 1 -23.8143 -13.9606 18.8158 -4.54682 0.366283 -1.62885
3917 1 1.37852 -3.56068 -9.23548 -1.0536 3.01561 -0.777036
3918 1 12.6033 11.2968 -20.6424 3.66142 0.488296 -3.9787
3919 1 8.84034 -14.4006 18.7842 2.37767 -4.07731 0.533449
3920 1 -12.7606 12.3885 18.5024 -0.215111 -2.00192 4.70224
3921 1 17.6251 8.63952 -15.7061 -3.03408 -3.10534 0.802397
3922 1 -16.9228 -13.1737 -18.0171 -5.99676 0.940391 1.48019
3923 1 -23.3084 4.2648 -8.86255 -3.13923 -5.81051 1.18391
3924 1 -11.8891 -4.40727 12.368 -4.42251 4.13187 -7.58465
3925 1 -22.009 4.42883 1.94917 -1.07682 -3.28979 -0.140173
3926 1 6.98854 -5.21196 20.8309 0.297512 -4.21258 0.33181
3927 1 13.3309 17.7225 0.736935 8.0101 0.398444 -3.80174
3928 1 -18.632 20.4029 -23.4237 -1.83858 0.710907 0.636379
3929 1 -1.79726 11.0205 -8.05536 -5.14436 -2.27546 1.91724
3930 1 11.8268 19.4047 2.84306 -0.457516 -4.07962 -0.818831
3931 1 0.194432 9.75423 0.898337 -0.414466 -3.62288 -0.759985
3932 1 21.6145 5.13611 14.1245 0.382239 -0.946135 4.17553
3933 1 -5.07551 -9.82022 21.5229 -2.68543 3.73015 -5.00479
3934 1 22.8865 5.6879 -12.1841 -1.9406 -2.61262 0.107901
3935 1 12.4512 -14.3442 -20.2272 1.25131 -0.0111486 2.13627
3936 1 0.941369 -23.5026 21.0227 -0.0714472 -0.145284 5.01585
3937 1 16.9485 -17.9293 -17.4599 0.0881935 4.36216 1.93998
3938 1 18.6745 14.6437 19.2544 -2.05264 -4.72841 -3.22507
3939 1 23.3432 -2.64284 12.7445 -4.53941 -2.1401 -0.926092
3940 1 -0.43558 23.1286 -6.50989 3.00248 -1.48253 0.844108
3941 1 -19.1142 1.57026 22.9969 -2.28615 -1.26078 0.217469
3942 1 12.0796 -23.8042 16.3007 2.40208 -0.338046 0.0692768
3943 1 -19.4631 -21.4514 3.11648 -1.8296 4.49681 3.3101
3944 1 -12.7039 -6.91205 -11.7429 -6.30421 -0.661018 -1.24616
3945 1 -22.0611 -14.328 -15.5843 -0.73845 -1.90851 1.11683
3946 1 -4.22712 17.1702 8.19742 -2.19879 4.42549 5.71801
3947 1 -22.7604 12.2124 -23.4284 7.07049 0.268207 0.487088
3948 1 10.2534 16.3573 -17.8144 0.267498 0.227926 0.64327
3949 1 4.49014 -14.2024 -12.0687 -1.77511 -3.86878 1.3816
3950 1 -7.2229 -3.15037 -19.3132 -0.433891 -0.0806142 -4.50843
3951 1 4.5414 4.70048 -14.885 -0.559039 1.33544 -4.01302
3952 1 -4.02049 -6.01905 -14.2704 -3.24336 -2.77516 -2.46285
3953 1 18.9469 -17.9637 13.5221 2.5687 2.44029 2.9991
3954 1 6.09677 2.39906 -16.4228 1.26832 -0.0558448 1.0664
3955 1 -8.03029 19.4045 11.5038 3.20821 3.25116 0.319183
3956 1 -12.5688 14.7803 -3.38269 -3.56678 1.90202 5.20976
3957 1 20.2842 -23.9213 -18.7301 1.98063 -4.21238 -1.38628
3958 1 -5.09635 8.12297 -5.83049 -3.30289 -6.20076 -1.69269
3959 1 -19.2046 -6.10592 -22.2807 3.01977 1.37742 -1.74132
3960 1 22.215 -12.464 -10.1248 -1.08143 -2.33091 2.02647
3961 1 -1.265 -21.4189 -3.88451 5.56724 0.0905038 -2.51265
3962 1 3.93449 -13.4789 4.44733 1.92784 -0.130375 2.89822
3963 1 -14.9987 -18.7754 -3.92861 4.06998 0.708385 -3.1207
3964 1 9.18285 9.58678 18.9644 0.362487 1.13155 0.578958
3965 1 -3.88618 1.40316 5.25439 0.0612387 -2.14833 4.08287
3966 1 -20.793 19.7002 7.65771 0.205054 -1.14481 2.6812
3967 1 0.940121 -6.8386 -5.33187 3.29997 -3.57957 -5.26864
3968 1 -2.34349 7.37292 -2.88406 -1.39862 -0.741951 0.223744
3969 1 16.9328 -23.9464 21.2149 -2.99172 -5.59339 -0.900693
3970 1 -9.59053 23.4105 22.6421 0.636196 -4.04778 -0.74491
3971 1 -2.01356 0.280247 22.4165 2.97161 2.57891 -0.182755
3972 1 -4.93689 -9.3175 -10.1712 4.85455 -2.71583 -3.32541
3973 1 -12.2001 -22.489 -8.04277 0.494223 2.80264 1.41446
3974 1 5.82938 26.4638 14.7773 -1.52698 -3.84604 6.09633
3975 1 1.2483 1.94039 -15.0748 3.74527 -0.686939 4.33276
3976 1 -2.22704 15.3339 5.2505 -1.47515 0.104735 5.00116
3977 1 -7.25423 -19.5273 -19.8797 1.2068 -4.07901 0.982472
3978 1 0.388969 19.2553 -9.82761 -6.28953 6.00976 3.2734
3979 1 -9.7283 -22.7357 3.53017 -2.17501 0.228763 3.29168
3980 1 -22.0569 -17.1758 -14.3912 -2.10357 1.75386 -1.87501
3981 1 12.9292 -10.3319 4.54956 3.73418 -3.39535 0.939945
3982 1 9.41225 -5.99595 -3.4375 1.19039 -0.956949 -1.50338
3983 1 -22.4819 10.918 8.33616 -4.03188 -4.94654 -1.05819
3984 1 -6.30181 14.3896 -19.9754 1.43042 3.66502 4.91178
3985 1 -13.2043 22.1797 7.44832 2.33023 1.15183 1.65235
3986 1 15.2438 21.8339 -16.7737 -0.761725 -1.82672 2.97673
3987 1 10.6968 17.7944 16.7031 0.674046 3.34432 -1.31802
3988 1 21.8913 19.7326 18.7834 -1.5922 -2.53787 3.69102
3989 1 -15.8052 -10.1683 -11.2071 -0.915545 -7.0643 3.21822
3990 1 11.2453 4.50913 23.847 0.0226468 -2.60484 -1.12429
3991 1 -18.38 6.83457 23.3887 -1.7219 -2.51 -1.03052
3992 1 21.8112 9.07772 -4.51637 -0.907848 2.91042 1.73497
3993 1 -7.51017 -8.43422 -5.53022 0.866767 1.37036 0.781132
3994 1 -14.0933 -20.1153 -20.3266 -4.89658 -0.0811256 2.73373
3995 1 6.62153 46.9558 4.39574 -0.152734 1.72208 1.73518
3996 1 3.87984 -14.755 1.96853 2.02032 -1.7818 0.101116
3997 1 19.8619 45.9455 -11.7267 -0.788542 3.54111 0.705484
3998 1 -13.307 -6.13986 1.23046 -1.03911 -2.85709 1.27417
3999 1 -8.6723 16.0107 9.84795 0.871184 -1.69982 1.85162
4000 1 -19.4313 12.0482 22.2007 -1.63622 -4.5589 1.30908
4001 1 -11.4049 25.771 -4.61506 -0.890589 1.70393 5.01838
4002 1 -10.2264 28.4038 -5.32072 4.79545 0.28551 -1.67195
4003 1 -7.75296 27.9406 -3.99165 -4.96445 0.396984 -5.79071
4004 1 -6.99459 25.6555 -5.59863 2.62373 -4.27086 1.12365
4005 1 -10.352 25.8591 -9.73669 -0.567934 -0.846612 0.110763
4006 1 -12.44 27.7559 -9.52524 2.00833 -1.86657 3.98968
4007 1 -8.1485 27.4871 -8.98819 5.93692 -2.55353 -5.08142
4008 1 -5.83943 26.1672 -8.0302 0.742011 -2.62561 -1.55671
4009 1 -11.2026 25.5307 3.42813 0.879909 -0.501001 -1.89331
4010 1 -9.9652 27.7713 2.15603 -4.74445 -3.02903 -1.64899
4011 1 -7.36225 27.7403 2.91278 -6.73077 -0.14223 -2.81459
4012 1 -6.16682 25.1409 2.31827 4.4738 1.18574 -2.95196
4013 1 -11.2824 25.5368 -1.92216 1.92771 -4.02638 -2.92704
4014 1 -9.69878 27.5986 -0.589716 5.31929 -2.43564 1.28657
4015 1 -7.13814 27.5571 -1.37582 1.41936 8.98665 -0.0812125
4016 1 -5.75363 25.1305 -0.58311 2.84482 0.352509 -2.26454
4017 1 -11.4534 25.4283 10.4756 -1.25506 -0.664252 5.15427
4018 1 -9.34326 27.1784 9.46008 2.58331 -0.162866 1.62019
4019 1 -7.22379 28.1739 11.0903 -0.786506 -1.32438 2.54077
4020 1 -5.36576 26.2226 11.1776 0.303697 -3.19098 4.90195
4021 1 -11.1049 25.4771 6.1774 -0.61443 4.68899 -0.278612
4022 1 -9.57634 27.8024 6.79622 0.124154 -1.24386 2.42727
4023 1 -7.05058 27.9978 5.70432 1.78626 2.52644 2.33256
4024 1 -5.9175 25.416 6.31628 5.1641 -0.351813 0.256064
4025 1 -11.6994 30.2789 -3.70655 -4.44368 5.4263 -2.60385
4026 1 -10.9402 32.5942 -4.93647 2.98077 2.81333 -1.83324
4027 1 -8.30264 32.8226 -4.30358 1.88299 0.255912 1.94563
4028 1 -7.07016 30.3467 -4.91354 3.74869 -2.28097 3.24421
4029 1 -10.5847 29.2032 -7.95455 3.63988 -0.349645 2.05227
4030 1 -10.6912 32.0337 -7.67462 4.63475 -2.80511 -2.167
4031 1 -7.94238 32.3212 -8.52038 3.627 0.817567 1.39504
4032 1 -6.83915 29.8661 -7.88144 0.195715 -3.68358 -1.8092
4033 1 -10.9441 30.0269 3.43704 3.52901 1.49646 0.0158382
4034 1 -9.73263 32.3385 2.57799 -1.93626 -0.93443 0.81979
4035 1 -7.14177 32.3422 3.57851 1.89777 0.520454 7.99881
4036 1 -6.11523 30.1064 2.26914 -2.62191 0.454282 -0.990778
4037 1 -11.1976 30.0717 -1.07637 0.297613 -3.07748 4.6729
4038 1 -10.0346 32.5188 -0.268782 -5.08187 2.74245 2.44462
4039 1 -7.61907 32.3882 -1.63915 0.495679 -0.154089 -0.423613
4040 1 -6.2644 30.1208 -0.507845 -1.58184 0.455913 -4.32062
4041 1 -9.93686 29.5786 11.087 -4.7237 -0.178349 -1.06632
4042 1 -9.65611 32.3378 10.3068 2.66348 1.83043 -2.67169
4043 1 -7.01888 32.3919 10.6779 -1.07111 -1.5548 0.252038
4044 1 -5.61335 29.8777 9.52811 -1.45972 0.557096 1.72356
4045 1 -10.6541 30.2696 6.33464 2.89735 -7.79496 -0.80172
4046 1 -9.6001 32.5352 7.52895 2.90137 -0.866388 0.825448
4047 1 -6.80088 32.58 6.37337 -1.14696 -4.95112 2.12818
4048 1 -5.77256 30.0295 6.80089 -2.67889 1.82573 -2.01133
4049 1 -12.1312 34.9185 -3.57423 0.916719 0.930869 0.347327
4050 1 -10.9526 37.2699 -4.87603 2.31363 2.38904 -1.6463
4051 1 -8.18951 36.9016 -4.19469 0.549068 0.0289984 -0.877549
4052 1 -6.70471 34.8248 -5.04455 -1.99697 2.34545 1.5651
4053 1 -12.2412 34.2993 -8.68462 1.82885 7.51054 -4.58877
4054 1 -10.8932 36.5086 -7.50375 -0.222318 -1.93982 2.16499
4055 1 -8.17344 37.0779 -8.38779 -2.47965 -3.84019 1.65476
4056 1 -6.72639 34.6075 -7.80854 6.096 -0.236982 1.28581
4057 1 -10.6944 34.672 3.86299 -1.97337 7.86603 0.0179029
4058 1 -9.59226 36.9069 2.88168 2.21059 -1.06904 -2.88944
4059 1 -6.9351 36.491 3.57883 -4.61073 0.927343 0.256405
4060 1 -5.71862 34.3015 2.17366 3.78008 0.843997 0.728875
4061 1 -11.5386 34.7868 -0.877002 -1.90109 4.35248 -0.672769
4062 1 -10.3268 37.101 0.048467 6.09828 3.75519 -4.49534
4063 1 -7.73048 36.8755 -1.36758 3.94249 0.893002 -4.80352
4064 1 -6.28354 34.5923 -0.565064 -0.470911 2.64379 -4.45219
4065 1 -10.9078 34.724 10.5343 1.5122 -2.08851 3.14979
4066 1 -9.3005 37.0821 10.0879 -5.5839 1.2091 1.32366
4067 1 -6.60395 37.0352 10.709 -3.10003 5.43383 -2.61109
4068 1 -5.45756 34.4898 9.76022 2.51639 -0.248187 -1.20283
4069 1 -10.5143 34.8447 6.51011 -2.49052 -0.73453 -0.265421
4070 1 -9.07628 36.9788 7.1677 0.141732 0.406644 -6.54648
4071 1 -6.3728 37.0868 6.1857 -5.30129 1.34279 -0.250504
4072 1 -5.52115 34.7137 6.95013 -1.4734 -0.563588 4.08371
4073 1 -11.783 39.3663 -3.24257 1.91103 -1.79123 -0.447516
4074 1 -10.5138 41.3275 -4.52731 0.664846 0.876426 -1.78032
4075 1 -7.80838 40.8569 -3.9933 4.53884 0.807903 0.938409
4076 1 -6.32592 38.754 -5.28815 -0.192764 3.20397 -0.465979
4077 1 -10.1095 39.0077 -9.05787 1.28869 1.86919 -4.4444
4078 1 -10.9664 41.0308 -7.26228 3.51908 1.94015 -2.40326
4079 1 -8.6236 41.4569 -8.92192 0.291497 4.03462 -1.08953
4080 1 -6.69359 39.3485 -8.04121 -2.09485 -5.40826 -5.61633
4081 1 -10.7816 39.1314 3.98822 0.55906 4.14861 0.320068
4082 1 -9.36353 41.2575 2.99197 1.09954 2.5119 1.46238
4083 1 -6.64863 41.2933 3.3653 -0.879599 2.96572 -2.02142
4084 1 -5.60782 38.7963 2.48808 -1.90644 -3.73672 2.30688
4085 1 -11.9002 39.4051 -0.382087 -0.731225 4.5147 1.9999
4086 1 -9.80535 41.2662 0.198287 -1.59767 5.35227 1.37611
4087 1 -7.45766 41.3776 -1.2761 -1.77548 3.91124 -0.972399
4088 1 -6.20396 39.0224 -0.416277 3.74454 -3.46059 -1.60266
4089 1 -10.3633 39.5104 11.046 -0.548137 -4.87742 1.00202
4090 1 -8.65931 41.4752 10.1232 2.94669 -1.7974 1.52582
4091 1 -5.88787 41.5157 10.729 2.42502 -4.48031 3.06549
4092 1 -5.06633 39.1239 9.74605 -2.70126 2.47775 2.57475
4093 1 -10.8849 39.2639 6.77976 3.90787 -0.0742696 -1.00979
4094 1 -9.11908 41.5089 7.18968 0.976229 -0.535776 -2.41955
4095 1 -6.6512 41.4285 6.09354 2.08844 -1.71886 0.482098
4096 1 -5.0759 39.3644 7.01155 1.11368 2.62805 1.47321
4097 1 -10.6511 43.9724 -3.94442 -0.884834 -3.52235 -0.663748
4098 1 -12.6001 44.8216 -5.54527 3.6134 0.57805 -1.52848
4099 1 -8.10588 45.3934 -4.56109 -1.8592 1.40579 2.28802
4100 1 -6.61341 43.0164 -5.09744 -1.76585 2.15825 0.73863
4101 1 -11.6664 43.5792 -7.88736 2.05437 4.45416 0.718534
4102 1 -9.2372 44.552 -9.11073 2.19404 3.78825 -4.04377
4103 1 -8.66134 -23.0497 -11.153 -2.95577 3.55872 -0.76947
4104 1 -6.74845 43.5648 -7.82555 -4.03612 -0.983708 1.54856
4105 1 -10.5197 43.7428 3.63135 -0.664101 4.71947 -0.738784
4106 1 -9.74418 45.9641 2.37808 3.52591 -0.760894 -0.311762
4107 1 -6.98563 45.2915 3.17959 5.64441 -0.0626417 -2.979
4108 1 -5.51756 43.4464 2.13122 -2.13507 -1.28423 6.17546
4109 1 -10.9781 43.6525 -1.25748 -1.18557 4.09019 0.780884
4110 1 -9.95637 46.017 -0.434384 -0.680724 -2.96034 -1.69137
4111 1 -7.06306 46.5418 -0.898054 1.1678 -2.57088 -3.7377
4112 1 -6.08589 43.7792 -0.360779 4.9764 2.0285 6.11526
4113 1 -8.90474 44.2184 10.2536 6.97496 1.42558 0.578513
4114 1 -6.6121 45.4046 11.523 -0.815872 1.71376 -0.385143
4115 1 -2.79633 45.977 10.1544 -3.19631 -1.24393 5.2548
4116 1 -5.03491 43.8789 9.79259 -2.90731 -0.95349 0.189877
4117 1 -9.48394 44.0155 6.1394 -2.22393 -0.0546351 2.7918
4118 1 -10.6189 45.4178 8.35871 -0.0321797 -0.161419 5.07527
4119 1 -7.00044 45.1019 5.91004 -8.34131 -2.02168 2.97818
4120 1 -5.07529 43.4117 7.1147 0.479056 -2.53753 -2.7751
4121 1 -4.77353 24.5586 -4.47894 4.33966 3.05448 0.46832
4122 1 -3.19322 27.6251 -4.76323 -4.08142 1.66557 0.0981099
4123 1 -0.461402 28.1119 -4.58626 2.20157 -3.13148 3.67907
4124 1 0.796705 25.8977 -6.13782 0.322263 4.61893 0.773216
4125 1 -3.04214 23.9904 -6.5942 2.14062 4.95372 -3.34622
4126 1 -3.00387 26.9573 -7.61138 -5.37836 -3.08937 2.9137
4127 1 -0.251754 27.2276 -8.35184 -3.12781 -0.18932 -1.45001
4128 1 0.728454 25.8005 -10.5865 4.44706 0.335894 -0.00726829
4129 1 -3.5113 25.2948 2.68088 -4.40691 -2.87527 2.55537
4130 1 -2.41124 28.0129 2.01299 -1.01979 3.52433 -1.44361
4131 1 0.178358 27.3386 2.71878 2.63985 -2.77645 -0.391653
4132 1 1.68001 25.2716 1.38045 2.03278 1.84111 3.79621
4133 1 -3.45381 25.8539 -2.28193 4.20771 0.0892592 1.13116
4134 1 -2.37231 27.8869 -0.744655 -3.22019 -0.761638 5.96523
4135 1 0.226748 27.795 -1.98481 -3.85481 1.01753 0.895184
4136 1 1.34581 25.4818 -1.32331 -0.679416 0.943443 -1.44516
4137 1 -2.33717 22.7904 8.77041 -0.278345 2.43337 3.49754
4138 1 -1.69114 27.554 9.33162 0.111784 -3.98401 1.45818
4139 1 1.10919 27.4476 9.55362 3.29021 -6.87548 -3.03474
4140 1 3.97247 24.9022 8.65973 0.786767 1.23653 0.54081
4141 1 -3.43363 25.3502 5.44562 1.8591 1.75188 4.58189
4142 1 -1.93942 27.5278 6.65748 1.68704 2.81756 0.160851
4143 1 0.749021 27.5526 5.50017 0.278901 3.66146 2.87357
4144 1 1.59593 25.763 7.36843 -2.51282 -2.27428 -0.225362
4145 1 -4.20693 30.2001 -4.59881 1.71483 3.15697 -1.77439
4146 1 -2.71823 32.2664 -5.34581 -0.869276 2.98285 0.0508841
4147 1 0.0677438 32.2693 -4.75398 -4.7278 -1.14169 -0.965928
4148 1 1.46252 30.0826 -5.57745 -2.15475 -0.166263 -1.20565
4149 1 -3.99124 29.7464 -7.56289 -2.03353 -3.72822 4.7498
4150 1 -2.78613 32.0457 -8.35497 1.78738 -0.813113 2.90359
4151 1 -0.126151 32.0816 -9.21677 -2.40433 1.49844 0.52233
4152 1 0.815018 29.7294 -8.21453 -1.75133 -2.49181 1.40998
4153 1 -3.30869 30.3627 3.35471 -0.303071 2.78598 2.81085
4154 1 -1.76425 32.2044 2.01528 0.558074 0.751223 -2.23937
4155 1 0.898451 32.1725 2.84811 -2.8251 -0.648059 0.190933
4156 1 1.72788 29.6929 1.76621 -5.13855 -2.96415 2.47902
4157 1 -3.89937 30.1883 -1.73962 -0.309889 0.948437 6.80964
4158 1 -2.11369 32.1839 -0.890615 6.53514 5.53134 1.46875
4159 1 0.332833 32.2144 -1.99652 -1.51654 -7.84765 -4.32638
4160 1 1.68569 30.0234 -1.05691 -0.50769 0.758919 6.48664
4161 1 -2.87896 29.8329 10.226 0.83361 3.76407 0.320264
4162 1 -1.41549 32.2033 9.42409 0.796121 -0.292772 4.83598
4163 1 1.29824 31.9099 9.74848 -0.00161434 2.82613 2.94458
4164 1 2.57864 29.7248 8.83688 -0.287695 1.28128 -1.64578
4165 1 -3.01896 29.888 5.93607 3.26107 2.73403 -1.09961
4166 1 -1.49277 32.2733 6.62888 -2.21627 1.47569 4.72716
4167 1 1.10253 32.224 5.69844 -4.06828 1.5289 -1.73319
4168 1 2.3133 29.7748 6.17553 2.86344 -2.34491 -1.60721
4169 1 -3.9084 34.609 -4.61392 -1.72843 5.39027 0.394028
4170 1 -2.37774 36.9012 -5.58873 -3.54114 -1.84333 1.12448
4171 1 0.272734 36.8444 -5.15248 -2.61871 -3.37096 2.3672
4172 1 1.51727 34.3181 -5.97466 -1.32497 -0.859967 4.975
4173 1 -3.90874 34.5749 -8.63326 2.62181 -4.82575 -0.508988
4174 1 -2.59103 36.9715 -8.32244 -5.06625 -6.69224 -1.34825
4175 1 -0.163482 36.9713 -9.08397 -3.59497 -1.4224 0.851403
4176 1 1.17367 34.538 -8.68826 2.06179 -1.48629 -1.54734
4177 1 -3.07516 34.5477 2.9996 -7.69547 -0.185149 -0.789848
4178 1 -1.86073 36.7286 1.70789 0.417102 0.575707 7.68235
4179 1 0.747117 36.8207 2.76599 0.573559 0.452694 -3.43554
4180 1 2.01413 34.4821 1.70503 2.27886 -0.883693 -5.23302
4181 1 -3.73381 34.1527 -1.91676 0.0444413 -1.873 1.70419
4182 1 -2.19941 36.5634 -1.05642 1.32454 1.94813 -2.11067
4183 1 0.528733 36.6835 -2.14831 3.03655 -5.22472 4.3117
4184 1 1.73315 34.459 -1.11878 -1.07921 -1.96644 6.46909
4185 1 -2.58642 34.6023 10.3566 0.772405 -1.99038 0.53201
4186 1 -1.1507 36.8817 9.66318 3.50694 -2.19333 -4.29009
4187 1 1.64259 36.427 10.221 -1.27698 -3.46413 0.576017
4188 1 2.8454 34.0458 9.25927 -3.97894 1.36496 2.41361
4189 1 -2.98127 34.6087 5.87863 1.18141 0.145178 -4.43461
4190 1 -1.63228 36.9375 6.74216 0.562436 -0.885816 -0.265654
4191 1 0.95256 36.5814 5.59068 2.94747 -1.75956 -0.155025
4192 1 2.69831 34.4454 6.18776 0.000162952 0.922604 4.14107
4193 1 -3.89313 38.8088 -4.15435 -0.844902 -0.763862 0.485454
4194 1 -2.40696 41.1163 -5.49914 8.01142 -5.68777 0.611367
4195 1 0.344507 41.1001 -4.86574 -0.069542 -5.46315 0.934212
4196 1 1.64598 38.8658 -6.01658 -3.68286 -1.76383 -0.0149701
4197 1 -4.14933 39.2206 -8.91369 4.31888 2.76576 -3.04295
4198 1 -2.42682 41.3228 -8.32102 -4.01023 -1.43021 -2.44053
4199 1 -0.0370185 41.58 -9.62451 -3.19264 1.17961 -1.89833
4200 1 1.46892 39.335 -9.14691 2.63149 -2.71731 -1.18716
4201 1 -2.94905 39.0653 2.90314 0.346569 -3.90354 -7.66031
4202 1 -1.53764 41.184 2.13494 0.530098 2.91962 -2.12238
4203 1 1.06126 41.1958 2.65176 2.56169 3.67132 1.38638
4204 1 2.38091 38.988 1.85017 1.21882 -3.85389 -1.75846
4205 1 -3.50494 39.0334 -1.54053 3.00823 -6.3394 -2.58551
4206 1 -2.1197 41.2607 -0.689022 -2.3298 4.73018 3.85956
4207 1 0.332278 41.0479 -2.07281 3.06673 2.18508 1.40461
4208 1 1.9253 38.8009 -0.933788 5.92867 -3.13381 5.1786
4209 1 -2.23021 39.2584 10.0807 -5.03933 -8.59948 2.15236
4210 1 -0.594513 41.4008 9.41025 1.65784 -3.24769 1.0198
4211 1 1.82449 40.7771 10.3412 1.90512 -0.219244 -1.37805
4212 1 2.68163 38.5778 8.9115 -2.93572 5.01229 4.39167
4213 1 -2.70623 39.2356 5.56376 -3.69638 5.21662 7.04358
4214 1 -1.1599 41.2672 6.66913 3.13305 5.12578 -1.03669
4215 1 1.17705 41.0503 5.42043 -9.52905 1.56421 3.53023
4216 1 2.58011 38.6994 6.01788 -1.09052 2.05145 -4.08151
4217 1 -3.97218 43.2911 -4.43987 -0.593284 1.43766 5.30553
4218 1 -2.70555 45.5972 -5.10666 -1.72315 -4.88434 -0.152403
4219 1 0.0115152 45.7844 -4.54703 -2.12793 -0.48594 0.246938
4220 1 1.49683 43.5837 -5.69717 2.90821 -1.84808 -2.4936
4221 1 -4.23057 43.3361 -8.58121 -1.97892 -2.52297 -0.326514
4222 1 -2.95452 45.9429 -8.06065 -0.944345 1.10783 -2.83478
4223 1 -0.125962 46.0966 -8.6814 5.58794 -3.9442 -3.43686
4224 1 1.26608 43.7599 -8.63822 -0.856288 -2.77485 2.642
4225 1 -2.91734 43.3062 3.08499 0.914581 -0.362862 -1.90844
4226 1 -1.92722 45.8666 2.20526 -3.68582 1.43149 -1.86869
4227 1 0.716259 45.71 3.05001 1.71298 4.46112 -1.41793
4228 1 2.02939 43.6008 1.73083 -3.65724 -2.73044 -1.3537
4229 1 -3.6408 43.5182 -1.5688 4.43131 -1.97217 -2.10531
4230 1 -1.91607 45.6196 -0.573835 -0.478619 -1.38847 0.043858
4231 1 0.470674 45.4193 -1.85263 -0.766231 -2.04832 0.058343
4232 1 1.8689 43.0791 -1.36175 1.38012 0.572172 0.399177
4233 1 -0.213921 44.2108 9.62134 -4.17271 3.37069 1.11862
4234 1 0.087242 46.5332 11.2453 2.37641 -4.63359 -4.8326
4235 1 2.60522 45.5581 9.79246 -0.0628019 -1.57322 0.503805
4236 1 3.23441 42.9633 9.11685 0.0572569 -0.252448 -1.545
4237 1 -2.52559 43.4809 5.72251 -0.244058 4.86152 -3.81866
4238 1 -0.665786 45.2105 6.87758 -1.93695 -4.7125 1.15666
4239 1 1.66335 45.3494 5.64993 -0.579998 -0.600318 -2.10377
4240 1 2.93101 42.8841 6.26574 2.3323 3.41628 -2.09693
4241 1 3.42765 25.7717 -5.61782 0.0282337 -1.30819 0.709506
4242 1 5.23366 27.4516 -6.55793 -0.979252 -0.540218 2.60349
4243 1 7.78011 27.4338 -5.56601 1.47004 1.09435 -4.56391
4244 1 8.72477 25.2102 -7.10085 0.204475 2.29878 2.06963
4245 1 3.59824 25.6164 -11.0532 1.33599 -1.43356 -2.32005
4246 1 4.80139 27.5125 -9.2485 0.315741 -4.53632 2.95563
4247 1 7.34348 27.5941 -10.5669 -5.05193 3.9365 2.74145
4248 1 8.79454 25.2511 -9.94745 -3.03259 -0.304451 -2.62651
4249 1 4.29252 25.0333 2.36915 1.04451 6.51996 -1.41751
4250 1 5.56902 27.2823 1.11174 -3.50024 0.957013 -2.53741
4251 1 8.38716 27.0313 1.80087 -1.96269 -0.982016 0.192378
4252 1 10.1382 25.0105 0.891759 1.21458 -3.48862 -2.7551
4253 1 3.60721 25.2255 -2.78416 -1.48653 4.9475 -1.52443
4254 1 5.45467 27.3625 -1.73111 -0.321434 -0.645063 -0.74168
4255 1 8.09566 27.2688 -2.88125 0.809034 0.92894 3.11074
4256 1 9.34113 24.6656 -1.80243 0.356571 -5.68402 -1.87007
4257 1 4.75173 22.558 7.47451 7.01822 -1.56895 0.193699
4258 1 5.88158 26.8677 8.12027 0.953043 2.94489 -2.73482
4259 1 7.53733 27.6215 10.0611 -4.71826 0.812709 -5.41363
4260 1 11.9895 28.2284 6.75812 1.17805 -0.595782 0.723887
4261 1 5.5175 24.3633 4.95679 -0.347457 1.9619 -3.0477
4262 1 6.00837 27.0772 5.53587 -3.98796 -5.27456 4.48957
4263 1 8.65692 27.0621 4.66913 1.82634 5.41322 4.65078
4264 1 11.0822 25.6792 5.80604 -2.84717 0.99893 -0.879521
4265 1 4.36262 29.9314 -5.12473 1.60446 4.22837 -0.50455
4266 1 5.78327 32.2262 -5.99693 1.36292 -5.04172 -2.61997
4267 1 8.52541 32.0113 -5.5144 3.03444 -0.143737 -0.561487
4268 1 9.25693 29.6102 -6.66006 -1.23106 -0.590509 0.209929
4269 1 3.41606 29.9774 -9.21944 -1.60808 -3.82228 -4.59289
4270 1 4.87227 32.2288 -8.70199 4.32288 -1.60021 2.59085
4271 1 7.62462 32.0311 -9.81264 0.1044 0.810741 6.50109
4272 1 8.87574 29.6307 -9.39407 1.88163 -0.327953 0.799782
4273 1 4.46013 29.5677 2.05707 0.858873 0.117958 -2.87272
4274 1 6.09327 31.7871 1.07745 1.2983 1.80794 3.64581
4275 1 8.8533 31.6396 1.8438 -1.96223 4.18844 -4.2069
4276 1 9.56482 29.2858 0.565823 5.42377 -1.32212 0.529316
4277 1 4.10891 29.7639 -2.4315 -1.63644 0.557421 -1.38349
4278 1 5.67536 32.1064 -1.71713 -0.915097 3.8243 2.67877
4279 1 8.72252 32.0312 -2.74439 -4.07711 0.86873 0.941557
4280 1 9.61901 29.5805 -2.1979 2.14726 -1.1723 -0.559755
4281 1 5.15033 29.2345 9.57499 2.02402 4.0431 -7.50913
4282 1 6.56163 31.6373 8.76157 -3.98076 -2.9528 2.80806
4283 1 9.00394 31.0078 9.95764 0.965706 -1.47727 1.75194
4284 1 10.1009 28.6484 8.97979 1.09867 -1.13875 3.87259
4285 1 4.92482 29.4741 4.79514 2.02617 -0.739334 -2.2065
4286 1 6.16115 31.6303 5.78864 -1.89812 5.84393 -2.66138
4287 1 8.80117 31.8418 4.63865 1.90451 1.55814 3.28853
4288 1 9.53566 29.3323 5.98481 2.79208 -0.290425 1.58676
4289 1 4.18056 34.3317 -5.06642 0.656604 5.04251 -2.8711
4290 1 5.47372 36.5796 -6.48696 3.61232 -0.828233 -2.19883
4291 1 8.01903 36.7364 -5.57979 3.84587 -0.998967 -2.92378
4292 1 9.5537 34.4963 -6.61866 4.0716 3.17405 -4.28895
4293 1 3.61134 34.49 -9.76015 2.49923 3.03146 -0.366271
4294 1 5.15725 36.6537 -9.33633 -1.08086 2.27201 -0.577299
4295 1 7.98189 36.7864 -9.95404 0.732416 2.85828 -1.86578
4296 1 9.27789 34.2863 -9.50443 -1.09589 -0.0414755 1.60348
4297 1 4.86043 34.5069 2.14441 -1.62302 0.00126985 3.12606
4298 1 6.3054 36.6641 1.21384 -2.18312 -0.653306 1.89463
4299 1 8.90934 36.5249 1.92105 -1.41878 -1.71884 1.06279
4300 1 9.43274 34.1617 0.857777 0.0815466 3.68795 0.308109
4301 1 4.15461 34.5534 -2.38409 -0.636797 -1.05482 -0.469096
4302 1 6.03195 36.4466 -1.48835 1.45965 -2.73341 1.00221
4303 1 8.60828 36.6538 -2.70115 4.57233 -1.33198 3.52486
4304 1 9.62858 34.3 -1.78611 6.73995 -1.38625 -3.16904
4305 1 5.45911 33.9537 9.68667 -1.4626 5.2635 0.3728
4306 1 6.73587 36.2938 8.982 2.43563 -4.21932 -1.92377
4307 1 9.48751 35.7553 9.40254 -2.62871 0.85498 4.43039
4308 1 9.99704 33.202 8.42176 -3.13433 -3.44838 -0.374034
4309 1 5.08023 34.2781 5.10567 1.60288 1.85474 -4.68147
4310 1 6.42882 36.4827 6.12223 -1.2413 0.358432 0.361654
4311 1 8.9756 36.623 4.78725 -0.803914 -4.03038 -1.14403
4312 1 9.68551 34.2114 5.72887 3.91032 0.266262 -0.0651701
4313 1 4.42076 38.8234 -4.91167 1.78975 -0.90918 0.508383
4314 1 5.46756 41.1168 -6.0782 0.342056 -1.51665 -5.75113
4315 1 8.11857 41.2654 -5.40391 -0.870085 4.76636 -3.23423
4316 1 9.13574 39.0558 -6.65373 -1.46967 -0.252354 0.732783
4317 1 4.0407 38.9328 -9.95157 -3.49998 -0.180954 -0.143515
4318 1 5.17515 41.0817 -8.83497 -0.562295 2.14662 2.62939
4319 1 7.63295 41.2024 -10.0051 4.72467 2.31059 3.61549
4320 1 9.25071 39.1171 -9.53862 -5.23064 5.93885 -0.416872
4321 1 5.1318 38.9043 2.46709 -0.912067 4.03155 -5.5311
4322 1 6.36427 41.2398 1.41616 -0.231726 -2.78535 2.3991
4323 1 9.17955 41.2673 1.73984 -2.99698 2.26827 1.45533
4324 1 9.98674 38.6939 0.809317 -2.57246 -2.00389 3.75844
4325 1 4.58797 38.6406 -2.14607 -0.230534 -2.89316 2.56629
4326 1 5.81363 40.9243 -1.35656 -0.0195788 -0.783684 0.806538
4327 1 8.26955 40.8715 -2.77487 -3.3625 -3.02939 -2.47468
4328 1 10.0844 38.7191 -1.89849 -2.37877 4.67979 -1.04247
4329 1 5.33356 38.6531 9.45206 2.96761 -0.108799 -2.70315
4330 1 7.24085 40.8861 8.90385 -1.9072 -1.02939 0.558752
4331 1 9.78901 40.5524 9.6814 -1.96147 2.08994 -2.69763
4332 1 9.93935 38.2508 8.38586 -0.182983 -0.635217 -2.74308
4333 1 5.27378 38.8031 5.29122 2.62198 -0.577699 2.63771
4334 1 6.84293 40.981 5.92381 -8.71697 3.34231 0.386084
4335 1 9.15044 41.0028 4.77536 7.05551 4.10969 5.66206
4336 1 10.3758 38.7088 5.80912 -4.34113 -0.304273 -4.4737
4337 1 4.35432 43.5722 -5.53118 -3.71666 -0.457844 -4.21011
4338 1 5.91533 44.873 -7.60971 -0.830025 0.652508 -4.46989
4339 1 9.16932 46.6553 -7.39396 3.45611 3.56483 -3.68805
4340 1 8.80002 43.9303 -6.42434 -5.78209 -0.327275 2.19227
4341 1 4.04284 43.5391 -9.46533 -0.454539 5.1646 -0.341015
4342 1 5.34283 44.8723 -11.4748 1.93821 1.3653 2.08563
4343 1 7.6968 45.7162 -9.96708 -0.773351 5.31861 -2.31117
4344 1 9.14693 43.4788 -9.304 1.35545 -1.05337 -3.93475
4345 1 5.13838 43.6552 2.06785 -1.93746 1.87765 3.80451
4346 1 6.24368 46.1306 1.53555 -1.61345 -0.679236 7.79361
4347 1 8.96057 46.3752 0.466612 -1.63091 -4.07914 -1.87492
4348 1 10.3147 43.7422 0.998305 0.410954 0.954148 -2.32034
4349 1 4.38053 43.1156 -2.55923 4.97948 2.12613 4.90105
4350 1 5.75398 45.4448 -3.73731 0.216086 1.03022 0.300212
4351 1 8.59565 44.9051 -3.68948 4.67145 -1.83938 0.322768
4352 1 9.45773 43.1953 -1.57054 -3.4003 -0.927341 -2.00124
4353 1 5.83271 43.2786 9.8359 1.18695 2.11643 -3.64832
4354 1 7.59767 45.4828 8.75333 0.834537 -4.32248 -1.9316
4355 1 10.5059 45.2469 9.25111 2.28087 -3.09837 2.36769
4356 1 11.2381 42.5471 8.48736 -0.531642 -0.393018 0.936199
4357 1 5.38015 43.1565 4.89802 -2.22032 2.5781 1.72069
4358 1 7.56678 44.9205 5.95298 1.71142 5.21363 -2.4021
4359 1 10.1887 44.9931 5.48103 -3.53349 5.14996 2.27051
4360 1 11.4352 42.4384 5.55854 -0.966112 -1.32787 -1.24138
