ITEM: TIMESTEP
6300
ITEM: NUMBER OF ATOMS
4360
ITEM: BOX BOUNDS pp pp pp
-2.4342743643461048e+01 2.3533579543505013e+01
-2.4404757493744924e+01 4.6921193093744918e+01
-2.3942261459526513e+01 2.3934059859570304e+01
ITEM: ATOMS id type x y z vx vy vz
1 1 -23.9155 -21.9716 12.236 3.25727 -6.62903 0.182062
2 1 -6.60675 14.5967 1.58268 -2.87512 2.70089 1.89705
3 1 4.82041 -6.56256 23.4885 0.495918 -2.24474 -3.57978
4 1 5.30178 -0.0141073 -6.5792 -6.78899 -3.80326 3.04052
5 1 -16.9159 -21.4233 20.9451 4.1471 -0.926413 -1.58103
6 1 0.902019 18.2691 20.0212 -5.3996 2.83775 -2.3502
7 1 7.0678 20.342 7.02446 4.8652 -2.30909 7.94401
8 1 -24.237 -12.5771 -15.0536 4.17709 2.90543 -0.594165
9 1 -10.8788 6.84482 4.6834 1.06096 -3.82782 0.149801
10 1 -0.873466 -7.84696 13.9481 1.37704 0.970446 -3.51986
11 1 10.2344 -12.1749 17.8578 -0.531231 0.417178 -2.06791
12 1 21.3212 -7.70779 -22.0015 -0.46487 -0.524378 -2.46065
13 1 -20.8158 -13.8189 13.1513 2.78212 2.23749 -0.657598
14 1 6.39444 2.72646 -9.63028 -1.26305 2.11215 0.518605
15 1 -4.87413 -0.805625 -13.6287 0.647458 -2.8541 -1.14823
16 1 -18.5452 0.729087 5.96603 -1.39433 -0.263279 -4.583
17 1 18.1917 -7.16335 16.2026 1.36198 -0.593411 1.18703
18 1 21.7333 23.7752 2.9771 2.07365 -5.28643 1.59542
19 1 -16.4096 25.3771 18.1852 -2.74089 -3.66826 5.7939
20 1 20.2666 3.13801 19.403 3.51358 -1.35801 2.13345
21 1 -20.5226 2.15367 9.59651 0.526498 2.73282 -3.27251
22 1 -13.1722 -0.545871 -15.0128 -2.38477 -3.66925 -1.58158
23 1 -8.66628 46.662 21.2492 2.86745 -1.92379 0.189303
24 1 10.1955 20.2359 -5.27799 3.93337 -5.97245 -2.56287
25 1 6.40477 25.7045 17.582 0.81236 -2.98427 -1.4543
26 1 0.370974 16.7815 9.55983 -1.09947 0.822792 -1.27342
27 1 -16.0659 10.4503 -2.97716 0.0858145 0.133268 3.05586
28 1 -20.4405 9.46621 2.13708 3.28556 -1.95688 1.06682
29 1 -9.36013 -10.3034 -9.46656 -4.30887 0.0118761 2.22822
30 1 21.3517 -3.21377 -22.3212 -1.00939 -0.00683178 -6.42694
31 1 1.70314 -16.9574 -22.6368 -0.779186 -2.25626 -0.255577
32 1 -7.6432 14.0329 -18.2545 2.00271 1.56249 0.412603
33 1 5.50039 1.80164 -13.6435 -6.80212 -2.63506 -1.49768
34 1 -18.9328 -24.1508 15.2896 6.59194 0.0263993 6.11429
35 1 18.8743 4.46091 11.5263 -2.62394 -2.16132 -1.46881
36 1 -14.2676 18.4903 -13.9794 -0.406075 -2.64178 -2.09678
37 1 -10.6619 -6.32876 -1.81815 -1.20121 -2.60217 -5.27693
38 1 18.7164 11.0063 7.31307 -3.94624 0.894852 2.60745
39 1 -1.63831 9.83886 23.641 0.376846 0.568748 0.979798
40 1 -2.60316 1.47849 -16.9464 -0.972484 -0.540489 2.07347
41 1 5.14203 -5.2087 -10.4434 0.0597292 2.40916 0.408778
42 1 -17.2989 -16.3242 1.49629 -0.0635028 0.106441 0.152178
43 1 -13.0228 -5.73066 4.59546 -2.16322 0.397218 4.46081
44 1 -3.61852 -17.8532 -9.71889 -3.61523 0.868686 1.50811
45 1 -9.79698 15.1161 -4.59575 3.45243 -0.450803 4.79467
46 1 -19.3302 -20.3726 18.1445 -0.843849 -3.64794 -1.86644
47 1 -8.30767 7.05221 20.2445 -1.41336 1.82693 -0.767212
48 1 8.28719 2.75958 -7.24115 -2.26307 0.275225 -0.575588
49 1 22.0273 12.3203 6.18587 0.695254 1.2672 -1.56356
50 1 17.0554 -21.7371 12.5479 -1.6279 0.799016 -0.124442
51 1 -10.0941 -0.71356 21.3174 1.76678 0.627325 0.981198
52 1 17.0067 2.7751 -14.8435 0.429009 -1.33063 -0.212659
53 1 -5.23543 21.8376 8.57326 -5.0757 -2.51259 -0.156294
54 1 -20.337 -8.14609 -8.74159 2.21157 3.99607 0.818167
55 1 -7.62775 -3.65043 -16.0865 2.05324 0.922772 -2.69665
56 1 -13.3953 6.1092 2.82508 1.24116 -0.56774 1.01805
57 1 -14.3936 -9.0617 -4.35984 -2.4711 0.0334144 1.98584
58 1 3.03504 -22.8023 -3.98933 2.10731 2.57467 1.28696
59 1 -23.9282 13.0026 17.9097 3.55252 -2.39705 -5.03074
60 1 1.56683 15.2161 -20.0097 -0.284618 1.31237 2.93865
61 1 -13.9877 1.0318 1.99919 -0.894553 5.87572 -0.835637
62 1 -1.81344 -9.99003 17.0181 1.66602 -2.79685 1.73441
63 1 0.914686 12.6007 -18.664 -1.93276 -1.97066 -3.99924
64 1 -11.2138 0.517747 2.03017 -0.370763 1.50104 1.22772
65 1 17.6612 -1.84541 8.36953 -6.75106 -6.18834 -2.58854
66 1 -9.97413 -16.6641 -11.8431 -1.63316 -3.21968 2.44198
67 1 -15.5563 22.3877 -11.1491 -0.798925 1.90637 -1.31355
68 1 -3.13123 14.7772 -20.7197 0.942137 -3.26796 2.43299
69 1 -6.38602 13.83 9.07196 -0.441609 -4.20636 -2.26821
70 1 -17.6044 16.9712 -15.385 -0.119881 0.126834 -1.91129
71 1 -9.15321 6.07568 0.777578 4.42746 -2.38551 -2.86167
72 1 22.1431 14.9786 18.5967 -0.826392 -0.0756598 -1.20898
73 1 -12.7686 -18.453 14.3301 1.18999 -3.59125 2.77988
74 1 -0.755262 11.557 -15.0924 -3.97913 -0.619492 2.25941
75 1 -18.4962 2.33288 -12.4561 2.77312 -6.75718 2.78838
76 1 -23.6375 -5.87977 1.2418 0.259402 4.44457 -1.87485
77 1 13.9572 -22.8721 -1.96501 7.5598 6.14762 2.5599
78 1 -17.2324 12.7315 -8.60812 3.55816 -1.20832 -2.12108
79 1 22.6743 -3.50837 -14.5045 6.26039 0.448634 1.09128
80 1 -15.3482 15.6856 -10.7722 -2.53685 -0.330671 3.51469
81 1 1.73522 -12.6773 -16.224 -1.15766 -3.38483 -3.03193
82 1 4.27144 -22.674 5.88576 3.11161 2.52679 -0.807314
83 1 -20.3191 13.4459 -0.845668 0.883427 -0.881499 1.49256
84 1 19.2764 22.2503 20.3454 0.921532 -1.11606 -2.39535
85 1 6.30824 13.0808 -5.01346 -2.38035 -9.36248 6.87166
86 1 12.3838 7.6357 13.5645 4.23305 -3.68949 4.17478
87 1 -4.85902 18.6455 -3.45751 -1.7733 1.65267 0.377296
88 1 -11.1614 22.2514 -17.3788 -1.03534 0.444793 2.6735
89 1 -10.2359 -3.31665 -23.6604 1.46556 -3.75279 2.49383
90 1 9.3473 -4.67249 6.18226 -0.778132 -6.59254 5.35879
91 1 16.6379 20.8892 -19.92 3.05974 4.32944 -1.3503
92 1 17.9077 45.982 0.91752 -6.13742 -0.0776644 2.01738
93 1 -17.6657 46.6494 17.9214 -1.63447 2.12226 -1.2752
94 1 22.2922 3.18132 -10.9285 -7.40936 -2.38748 2.23953
95 1 0.743942 -4.35038 -12.4277 4.38465 -0.742036 -0.0445867
96 1 -20.9295 -16.8194 20.5539 0.815737 -8.01435 1.60309
97 1 -6.2022 -17.1408 23.4822 -0.540038 0.820504 -2.97499
98 1 -2.01516 17.1475 10.7773 -5.06275 -0.928637 -1.88215
99 1 16.8625 -21.7959 -5.29993 8.19563 3.27301 2.20633
100 1 23.0752 -16.4677 23.1783 -4.66702 -0.380145 -0.872404
101 1 0.854175 -22.8749 -12.3587 -3.31167 -3.93562 1.75009
102 1 1.6474 3.54714 6.28218 1.88907 2.00074 -0.462962
103 1 17.8657 22.79 18.005 0.706735 -2.34115 2.83798
104 1 -15.8134 44.9017 -11.7385 -2.09249 -1.75194 2.54849
105 1 5.293 18.0608 -18.9229 3.91449 1.93017 -3.27701
106 1 13.6679 3.67259 8.04154 3.11393 -3.68277 -1.59958
107 1 20.8869 -4.43172 14.5481 -5.44289 -1.40191 4.08245
108 1 -11.2308 2.91561 23.3709 -1.481 -2.60168 -5.59909
109 1 -15.4977 15.5925 -14.007 -3.5633 -4.24773 -4.59227
110 1 10.5111 -12.2878 -8.56896 1.94683 2.11725 1.20478
111 1 20.2723 -4.80899 -13.3752 2.13875 -8.27771 1.50698
112 1 -19.2732 1.99452 -21.7709 4.49786 -0.0537147 1.45706
113 1 -5.24573 -5.11484 19.4073 -0.0501171 0.385823 3.71325
114 1 -23.8168 -20.1847 17.9175 0.0704102 -0.654037 3.33018
115 1 8.32488 9.87067 4.63763 -1.9824 1.09498 3.68003
116 1 3.06834 -13.9245 -18.5716 -4.90463 0.65459 2.92377
117 1 19.9594 17.983 -18.8323 -3.12095 0.191842 3.23501
118 1 5.04212 -17.2676 -7.23128 1.23207 -1.08733 -4.86784
119 1 13.8914 9.34451 -8.32135 -0.879593 2.4327 3.80175
120 1 1.56606 -4.0562 16.9587 -3.60166 0.533179 5.13724
121 1 -5.20321 -20.8673 22.2286 -2.40803 0.695133 -4.56343
122 1 -12.1432 6.75942 22.5608 -3.73826 -2.06669 -4.81504
123 1 10.127 17.7116 5.66169 0.644425 2.76708 3.63572
124 1 23.2881 -21.8632 -16.0813 -1.86548 1.0933 -2.02298
125 1 14.0252 9.6214 0.59423 1.6728 -0.833395 0.317207
126 1 -8.65661 1.94813 -7.16828 -3.77166 -0.318809 0.288487
127 1 10.8897 -2.33883 13.6734 0.316434 3.58852 3.25654
128 1 -20.5733 -0.766769 -9.272 1.63196 -4.36686 0.435307
129 1 15.5259 -11.203 6.1494 0.549727 -0.657475 0.707794
130 1 -12.4186 15.7143 -19.5404 -2.09864 0.776857 -2.30066
131 1 3.43194 -9.75976 -21.6623 -1.71866 -3.33663 -3.53538
132 1 -6.87492 -1.06494 -21.7739 2.93181 -5.60647 -2.79839
133 1 -14.8947 1.86275 16.2222 -2.8587 3.376 5.04094
134 1 19.871 -8.8487 23.42 0.792442 0.299872 6.25919
135 1 -16.6185 -6.91627 -18.6486 0.843912 3.11652 2.92346
136 1 -0.748096 5.73501 -4.05501 -1.32819 -4.39048 -0.596065
137 1 -12.1766 4.87396 -14.229 3.9848 3.5625 1.84886
138 1 12.7302 18.0824 6.72193 1.25135 -0.115167 0.425945
139 1 -19.2809 -20.1473 -14.8563 -0.525545 -2.83148 -7.59359
140 1 4.2447 -6.83864 19.2963 0.267926 5.16855 0.981091
141 1 12.8489 -18.7389 3.28516 -3.17472 -1.50193 -0.598256
142 1 13.6873 0.924037 23.8437 0.781013 -0.648739 -0.231137
143 1 -5.85997 -2.06709 -4.35952 -2.72487 0.103993 2.64898
144 1 -23.2314 -9.99576 -15.2224 -2.00458 0.635543 0.124843
145 1 16.596 8.25233 18.8014 -0.980831 0.0538708 3.6178
146 1 -11.0562 -9.21644 13.8925 -2.05455 2.60298 4.93062
147 1 11.1656 20.5845 5.62444 5.63853 3.43585 -1.47129
148 1 -18.4994 13.5282 10.9366 3.70875 -2.85557 -4.55299
149 1 -17.0619 46.075 -20.357 2.1363 0.00369729 -1.55114
150 1 19.5578 9.48265 21.0814 0.0292624 2.38662 2.22553
151 1 18.0772 2.36241 20.9599 3.19206 -0.128662 0.965874
152 1 -6.67725 -3.01022 17.6821 4.46267 -1.91458 -0.0777374
153 1 9.87522 -14.906 -3.99772 4.95781 0.916171 -0.590603
154 1 -8.18733 21.8921 -8.45649 -2.4591 2.48637 -6.19765
155 1 -23.4439 -22.2594 -20.1362 -1.83414 3.13476 -4.55898
156 1 15.1521 10.7788 15.9718 -0.818216 -3.7165 -2.1245
157 1 12.6787 -12.9416 -15.0397 0.229584 4.89495 6.31894
158 1 9.4231 6.22638 3.5052 -3.49451 4.26823 0.863517
159 1 -21.4006 -11.1728 11.7212 -2.55199 -1.40995 1.73188
160 1 -4.77795 -14.658 -3.38696 1.97609 1.40856 -2.63959
161 1 20.732 3.65048 -16.6228 3.08509 -2.36822 1.27692
162 1 -14.8879 -10.171 20.524 -3.16179 0.687528 1.6113
163 1 1.26143 0.98968 18.046 2.65706 -0.976952 -5.01447
164 1 16.8381 8.46073 12.8813 -1.04028 -4.35038 1.76062
165 1 -19.418 11.841 17.2163 1.2746 0.818951 -1.54873
166 1 8.21008 22.882 -23.1943 -5.80699 -0.533874 4.14053
167 1 -11.2571 0.745424 -3.20952 -3.97829 -5.50657 1.68613
168 1 20.2158 25.0807 -3.69853 1.64943 0.494275 3.51611
169 1 4.00803 24.7288 -13.7405 -2.97975 -2.20705 -1.60482
170 1 -3.18425 -20.3919 -13.4296 2.32612 6.35311 -2.82714
171 1 -16.8967 3.76471 14.9613 0.443949 0.138703 -4.13035
172 1 -18.5926 21.5226 -20.0638 1.54352 -2.43547 3.48696
173 1 -21.7856 0.65204 22.881 3.5419 4.79761 0.748214
174 1 -20.5443 6.33566 -22.1985 -0.976694 -3.31789 0.887735
175 1 9.21891 16.2994 7.81654 -0.483565 1.15423 0.345885
176 1 -5.969 23.1274 -2.43617 -0.782757 0.798197 3.85585
177 1 -4.367 -22.0157 11.2442 -3.79613 0.19795 5.36309
178 1 -17.1728 10.5649 6.03332 -0.510419 2.67176 -1.12402
179 1 -4.6731 -6.84203 -11.3427 -0.828676 -0.0968101 0.895769
180 1 21.9685 20.3089 10.2432 8.6212 -0.576353 -2.48913
181 1 -6.38259 -5.40939 -20.123 2.23741 3.26926 0.505609
182 1 -22.2498 -1.32238 17.5646 2.32478 -4.68593 -2.56437
183 1 20.7165 12.3486 -4.63566 3.83986 0.0895226 0.114857
184 1 6.78148 -23.4248 23.44 3.74494 -5.84133 1.44586
185 1 21.2422 23.5547 15.2893 -5.36299 -2.75564 -0.329696
186 1 13.7769 24.7371 -9.99189 -1.16482 0.818337 0.548287
187 1 -11.2244 9.83775 -6.80696 3.27863 -6.49443 1.10523
188 1 7.4177 -22.36 -4.32547 4.36474 -0.804459 0.455146
189 1 -4.38396 -4.67125 2.33831 1.21749 3.69842 4.11388
190 1 -15.6792 10.7944 -12.8916 1.25212 1.55369 1.55784
191 1 6.49511 -4.10005 23.6797 2.71053 3.41966 1.86661
192 1 9.75016 5.49827 -3.39563 -3.75372 -2.36995 3.7049
193 1 11.7843 -2.41734 3.32318 3.14095 -3.58951 -1.04916
194 1 0.224936 26.0579 -20.2225 -0.420382 4.22041 1.45074
195 1 5.84171 -0.0188131 -9.58275 1.29991 2.05424 1.63821
196 1 -17.7859 23.3034 7.22389 -0.604579 0.110143 3.25725
197 1 22.4335 -3.6212 22.6401 0.407994 2.54145 -0.458218
198 1 -8.74304 -22.3147 -17.8456 -4.23785 -0.966862 0.394891
199 1 22.8983 -4.80392 -11.7804 -8.30803 0.0262961 0.389632
200 1 14.2135 7.10363 -17.4438 -1.59835 -6.40371 1.05049
201 1 7.72598 2.76003 23.3838 0.47658 2.81845 0.152046
202 1 9.89085 14.3267 11.5777 2.41551 -4.3583 2.1518
203 1 -23.9861 19.8299 8.07773 -6.54772 3.46299 2.01636
204 1 -7.10261 -14.9621 -8.39281 5.09997 2.13177 -1.10057
205 1 18.8448 -6.43427 9.5934 0.186934 -0.670998 2.50654
206 1 -4.47439 -14.0425 -15.9974 -0.23117 -2.55866 -3.44103
207 1 -8.19095 8.90933 22.517 0.679681 1.66273 -4.45423
208 1 2.4631 -7.66206 17.237 -3.77893 -2.15153 1.27083
209 1 -4.44678 17.0535 -17.0663 -3.33683 1.74605 2.25199
210 1 -17.8514 12.3317 -1.60273 1.97958 -2.51997 1.37315
211 1 15.4675 1.88104 6.57491 0.116945 0.322359 -3.62993
212 1 -16.0662 22.9872 -4.33023 -1.36368 0.0921894 0.613122
213 1 -21.8836 -21.0346 -2.65949 -1.18009 0.46237 -1.7545
214 1 16.6643 -4.68132 -21.9731 0.360737 -0.988327 2.88997
215 1 7.32702 23.0906 16.8067 1.62632 -7.65064 -1.9147
216 1 -15.6075 -24.142 10.0073 -6.60128 3.41636 0.904217
217 1 2.90674 21.228 5.4166 -2.47984 -1.41364 -0.0505823
218 1 13.2321 3.37617 -3.19001 3.99002 0.841357 1.66091
219 1 -6.34507 24.5507 22.3851 1.46013 -0.450422 -1.65878
220 1 3.179 21.3838 15.5024 2.93728 1.10776 -1.83577
221 1 -15.7999 2.79088 -2.91722 1.29483 3.26761 -0.392789
222 1 -10.5901 -6.56709 1.03849 4.43047 -5.92139 -3.69078
223 1 -21.2689 -6.48712 -0.856998 3.00564 -0.383144 -2.56486
224 1 -14.2199 -4.24929 -23.0366 3.01034 -0.74013 -3.2529
225 1 0.871903 -13.4852 -4.54892 0.299066 1.61418 -3.17977
226 1 22.3205 18.5988 -12.3491 -2.61992 0.582456 1.29347
227 1 16.4207 16.3049 3.09354 0.0931878 1.55868 2.13668
228 1 -10.2655 19.281 0.682418 -0.579941 -2.01368 1.2499
229 1 11.0412 9.99409 -12.1911 0.750815 1.9469 3.72167
230 1 -8.91116 15.4114 19.4517 4.16648 2.19738 2.53083
231 1 -24.2227 -4.95956 -22.0279 1.44558 2.46402 0.597394
232 1 -1.59739 -14.3142 11.2992 2.80063 0.112674 -4.00929
233 1 -10.3257 15.7614 11.7133 0.279562 -0.483282 4.14467
234 1 -6.76263 17.648 8.75209 -5.53129 2.87681 -4.53701
235 1 23.2724 -2.57515 -9.81313 -0.639264 -3.87049 -1.61818
236 1 16.4307 -7.90975 10.6946 -0.435488 -1.36515 -3.59494
237 1 -17.5418 19.3256 0.305405 -1.04278 6.20112 3.88567
238 1 16.6923 -2.21628 -23.7651 -2.42432 4.45112 -0.832141
239 1 -20.986 18.8598 16.1023 -2.66888 -1.08152 -0.562548
240 1 11.7287 1.69366 14.722 -3.45849 -2.49106 -3.90884
241 1 -22.6141 -14.4439 9.41189 -6.18471 1.00291 4.50044
242 1 -10.0068 -4.20938 -13.9361 3.02329 0.0741181 0.039733
243 1 -6.84996 -9.01446 12.4991 2.85583 -7.05564 2.05188
244 1 -20.7697 13.1883 -23.5067 -2.32144 -0.709792 -2.75494
245 1 -11.0352 24.5641 -12.3519 -0.0685442 -3.04123 -3.32501
246 1 12.0472 3.4569 20.8981 -2.32241 -3.32515 -1.33559
247 1 -23.2085 -6.94593 12.7236 1.19044 1.56402 -1.30673
248 1 -17.2244 7.52067 -13.0112 0.987458 2.14531 -2.87722
249 1 -1.36359 -18.8233 11.3334 -1.24449 0.863902 -2.2009
250 1 0.10892 -1.58179 6.72248 -1.2417 -4.95642 -3.67234
251 1 -22.9425 -2.36309 -20.8344 -0.172877 0.922838 -0.187196
252 1 17.9556 17.7944 -11.7457 2.08161 -0.64077 -3.20655
253 1 0.454195 -3.79759 22.4032 1.30826 2.51182 -2.53668
254 1 4.49921 -11.052 -9.42824 -6.72516 -1.8621 -1.27982
255 1 -22.6958 -23.2855 9.64927 -0.330409 4.0156 -0.749
256 1 -12.4487 -4.30159 -12.4211 0.576133 1.4455 -6.87681
257 1 -2.37991 4.22968 -20.3082 -4.06001 1.58172 -3.47199
258 1 -6.83277 0.371013 -5.71958 -0.242036 3.13372 5.48074
259 1 16.663 -18.783 -22.1675 -3.91442 2.81766 2.52714
260 1 12.2083 7.22164 -7.2002 2.44721 -6.7828 -2.15898
261 1 -2.16276 -23.5941 12.4061 -0.918151 1.38398 2.15863
262 1 17.1064 19.9605 10.9916 1.63533 2.38456 1.48345
263 1 -19.7683 8.69383 -12.5269 1.27535 -3.45191 3.62467
264 1 18.6232 0.648036 16.9978 -4.06808 -0.976572 -0.182625
265 1 14.7597 -18.3088 -8.59047 -1.27755 -2.64354 0.307677
266 1 -23.7223 4.94994 -14.2492 -0.250074 -0.807441 -0.910184
267 1 -11.6826 19.428 -11.3884 2.83306 5.30466 1.32022
268 1 -22.4519 22.0207 -11.4189 -2.86597 -5.41934 -3.57257
269 1 -19.7769 -7.83491 -12.9678 -2.34658 -0.315437 0.874676
270 1 -21.2589 -17.1105 14.3813 -2.92612 1.55348 0.489439
271 1 1.59612 23.2792 -14.1968 -1.22485 0.0374127 1.47947
272 1 12.4507 -18.3106 11.0267 0.22985 -2.71049 0.547431
273 1 -18.0811 -8.80131 13.7561 -5.52349 -1.08539 2.11763
274 1 10.1675 -14.9728 8.82242 -2.27836 0.286832 2.05501
275 1 12.2366 26.2486 -21.777 1.58452 0.793094 3.61584
276 1 21.5988 7.41146 -6.9829 -2.49363 0.368731 -0.00104573
277 1 11.8027 -12.0117 -17.8601 -5.0404 0.122492 -1.7144
278 1 19.1291 11.0263 16.5452 -0.156814 -0.676436 -0.00778966
279 1 -23.0939 -3.19568 0.0345443 3.24265 -2.09446 3.95183
280 1 -0.332301 -20.9761 -14.0786 2.66282 1.71153 0.973933
281 1 13.1669 22.7038 11.0644 6.75994 2.58959 -1.36909
282 1 10.4695 11.6458 11.5404 -0.293829 2.66048 0.575627
283 1 -2.92893 -23.9873 -22.5081 2.12504 -3.957 0.289233
284 1 2.16444 11.7492 0.546643 1.34665 1.69503 1.18872
285 1 -13.9692 19.6405 13.4532 -2.24759 1.63035 -2.11193
286 1 -6.26459 17.4564 0.559718 0.268371 1.19056 0.0111185
287 1 2.36581 -7.27302 -8.15146 2.58901 -1.3568 -1.46758
288 1 15.8875 24.2075 5.17979 -4.8362 -0.318987 -3.96326
289 1 -7.94836 -20.9408 11.6379 4.50014 2.32624 1.23198
290 1 -7.33597 -10.5186 -16.0517 0.590885 7.9561 -2.23462
291 1 -14.4383 -17.8094 11.9398 -1.61311 2.64727 -4.31484
292 1 14.5156 6.93972 0.726203 -3.03273 -0.717286 0.062042
293 1 14.338 2.33327 13.1679 1.32268 4.22517 -2.76894
294 1 -7.24729 1.77444 1.01444 0.315275 -3.6836 3.4729
295 1 0.337308 8.88906 8.72529 0.482024 4.32234 -1.06457
296 1 2.50719 15.2165 -2.43971 0.953288 0.251892 -3.70279
297 1 14.8574 -4.75473 -5.36412 1.97791 2.37289 -1.26001
298 1 18.4371 -18.9946 23.2998 -2.99358 -1.16124 1.93049
299 1 5.96564 -23.3732 -14.3577 0.840928 2.78356 -3.62225
300 1 20.7149 -5.30549 21.114 -0.412406 0.690177 -0.941287
301 1 -7.15554 22.4638 -20.1596 -4.91906 -1.77934 4.57019
302 1 -0.490654 10.3315 -2.15808 3.92827 1.38125 -1.18986
303 1 -18.3455 -17.6851 -9.88036 2.39416 2.21956 0.58856
304 1 -19.3226 -15.9942 12.4468 -1.56727 5.50815 -4.93171
305 1 4.38087 -19.9172 19.5515 0.342398 -0.518723 -5.69767
306 1 14.4502 22.1087 -10.5906 2.88085 2.1029 0.217864
307 1 13.5343 13.6219 -22.0021 0.948428 4.63566 -1.27981
308 1 -16.5863 -21.3551 3.87715 2.61706 -3.67491 1.533
309 1 7.22137 -20.5139 17.4982 -5.60578 -2.33567 -3.24419
310 1 0.713287 14.1999 13.4662 1.29005 0.0280297 -0.210331
311 1 12.9216 -10.7207 0.722087 2.04019 -0.721808 -1.91385
312 1 -5.26181 2.65741 -9.24778 -2.5409 4.59922 0.00811199
313 1 -14.7308 -15.993 -8.3388 2.93925 -2.85502 -1.3506
314 1 -16.3965 5.92422 -8.02231 3.07047 -4.23487 -0.586777
315 1 -14.2925 -22.1641 2.33562 0.221194 0.421876 1.44616
316 1 -23.2118 -6.65503 3.73903 0.0547994 -3.26127 0.80833
317 1 -11.6607 -10.3117 23.7176 2.03027 0.969739 1.81391
318 1 18.5727 -19.4003 19.6583 -2.82407 0.0554819 -3.17686
319 1 -14.0124 2.57803 12.6863 0.934767 -1.97602 1.55557
320 1 -2.95748 1.30015 9.22635 4.75961 -0.679785 4.44984
321 1 -17.8014 -11.4807 -12.3667 0.603761 -1.31506 -1.97479
322 1 -11.9623 13.7647 -0.68691 -1.96232 -1.979 4.14294
323 1 -13.3385 5.22461 5.59474 -1.75858 -0.173262 1.07912
324 1 22.5494 0.635706 2.47798 -1.42621 -2.67031 1.9395
325 1 0.35821 -20.8755 16.2691 0.342131 -1.51843 1.74146
326 1 -19.0609 6.9896 1.68078 -1.04205 -2.73767 0.605157
327 1 -7.60271 -7.25127 20.4337 0.523605 0.24164 -0.906745
328 1 9.74409 20.7387 13.6413 1.83323 -0.0198475 0.291435
329 1 0.518187 3.85994 -9.8864 -1.86061 -3.92131 -0.483798
330 1 -10.8917 -23.7049 22.5587 -6.36389 -1.10822 -5.93411
331 1 13.568 7.15492 3.39342 5.07789 0.418658 -0.452715
332 1 8.89571 -2.99111 -7.9972 -1.02265 -0.161308 0.792714
333 1 8.11597 -11.49 -14.731 3.22463 2.93054 -2.82569
334 1 4.85135 -23.8227 -1.84657 3.5801 4.50636 -1.05925
335 1 -24.1825 -23.6204 5.10507 1.32354 -0.119296 -0.504704
336 1 18.3621 17.9715 -22.4663 1.04167 0.560043 2.50642
337 1 -20.108 20.4186 1.37366 -3.21751 1.7536 -1.42699
338 1 7.82506 -7.97461 15.7253 -5.65599 2.31149 2.60065
339 1 -2.63433 -19.8736 -23.2132 0.39125 0.12856 2.85272
340 1 -15.6346 2.58702 -17.9863 2.60019 0.116905 3.00982
341 1 -11.0067 2.42659 -12.7996 -2.02912 2.92665 6.7429
342 1 -0.229769 -17.8763 -14.4693 -4.59567 2.20513 0.0347541
343 1 -2.13879 -14.0914 -7.43072 -1.89561 1.13651 4.15176
344 1 8.23592 -16.3455 -13.0205 -2.11554 2.30785 -0.395665
345 1 -10.0287 -2.5965 19.0497 4.00661 -0.294438 -3.58246
346 1 16.1489 4.10274 4.70274 -0.0995951 1.66856 -1.87568
347 1 21.056 -7.57375 6.83846 -1.73632 2.26363 3.57683
348 1 -11.544 -2.03471 10.9702 -0.955129 2.3121 1.99606
349 1 -4.89527 12.5851 23.4119 0.20128 3.24234 -0.696268
350 1 23.2176 20.8073 21.1595 -8.16396 2.61422 0.472469
351 1 -15.4618 4.00863 9.26829 -1.04529 -1.44698 0.886288
352 1 12.9628 4.56318 0.205178 -0.188717 0.0141483 1.21865
353 1 18.9676 -23.6913 -15.5273 -2.89056 2.75177 -1.71565
354 1 7.60263 23.4766 -10.3772 1.70889 2.95779 -1.24903
355 1 -4.40363 -1.39305 9.15432 -1.39334 0.385669 0.696497
356 1 -1.07852 -17.4213 -23.4675 -2.53105 -1.64582 -0.243163
357 1 -4.58591 -14.5899 2.48037 -0.394199 3.21113 -1.66141
358 1 17.7752 -14.6056 11.0135 -3.67565 0.155239 -0.0698202
359 1 -16.0053 -19.3627 -10.6859 1.83941 -1.52698 -1.29645
360 1 4.28585 15.517 -0.217059 -4.11724 -7.13569 1.27553
361 1 -22.4798 -21.6155 -5.53968 0.352995 1.2678 1.86867
362 1 -19.5494 13.0965 7.06947 1.42869 4.20655 -2.40456
363 1 -17.7461 -19.0809 7.99668 0.966108 4.21981 -3.79136
364 1 -9.86707 7.30976 -6.26197 0.920822 1.63779 -3.54376
365 1 0.477584 -17.2635 17.6892 4.02766 2.12894 2.86634
366 1 -20.7992 1.68477 -10.9665 3.09571 -2.97908 -2.96495
367 1 5.32074 16.7586 -16.35 -8.01328 -1.32557 -5.27134
368 1 4.23915 -5.89034 12.5663 1.61113 1.30002 -0.256722
369 1 14.3562 5.52981 -13.8503 -0.860763 -1.55404 -1.5763
370 1 1.86606 -14.2495 23.7925 -3.02125 1.55108 0.200213
371 1 -11.6637 -24.3151 17.6677 3.86552 -4.28007 2.43192
372 1 -9.25468 23.6396 9.16973 -1.12293 3.04463 -0.91566
373 1 -16.0074 5.90934 22.1962 4.2177 -0.569979 0.272121
374 1 -5.60345 18.9484 -12.7833 -0.323943 -3.37189 2.07196
375 1 -23.0943 -5.47745 23.1099 5.43716 -1.70647 -3.32826
376 1 -4.931 -11.4148 -14.4622 -0.492671 -1.9217 -5.9842
377 1 13.7373 1.31394 9.85142 -1.44004 0.486826 0.0173006
378 1 17.0611 -14.3643 -4.4446 -0.664416 -1.28918 -4.56514
379 1 22.5194 24.5056 0.475899 -2.73287 -1.10897 2.09764
380 1 9.89702 19.5378 -17.9714 4.29549 3.80541 1.64174
381 1 -21.6518 -14.6654 15.8458 -3.7713 1.38296 -1.17295
382 1 12.0984 14.8647 -4.50452 -0.156852 -4.30523 -2.59475
383 1 12.2961 46.8581 7.4052 -2.9918 0.720719 -2.50984
384 1 -9.9603 11.5603 -8.73287 0.976349 2.88005 2.53447
385 1 -8.08354 4.17023 20.5654 -1.67507 5.47898 -1.2483
386 1 18.9203 -3.21306 -18.3107 -0.058418 -4.5249 4.44567
387 1 4.60933 -20.3659 -0.296038 0.133149 -1.59573 0.45327
388 1 -18.4876 -23.6085 23.7354 -1.17266 -2.15348 1.26729
389 1 -15.0104 7.9674 10.6263 0.749764 -0.907995 2.26395
390 1 12.22 7.58181 7.48647 -1.61623 -0.463032 -1.5927
391 1 16.1083 -0.333712 19.5165 3.63547 1.15073 2.38687
392 1 20.8357 -10.9312 13.9992 -0.947272 -2.67958 1.91169
393 1 -12.4254 -17.6082 -13.0197 3.63597 1.03053 -5.05191
394 1 -10.755 12.7172 -6.21093 2.99202 -0.13859 -0.836866
395 1 -9.01444 46.1869 18.3148 -2.0994 2.49959 4.11239
396 1 11.0747 -20.994 -0.0758668 -6.30948 -1.9919 -0.287852
397 1 4.72742 -21.1534 16.7937 -1.12437 1.91131 -1.44915
398 1 -22.6814 -23.0746 -8.08711 -1.34848 3.04515 4.51185
399 1 12.9073 14.19 0.975879 4.04382 0.489735 5.59255
400 1 -19.8804 -17.0248 -3.19997 -1.14399 -0.416805 -0.962119
401 1 -24.0215 -16.1783 -4.86276 -0.559503 3.08567 7.49962
402 1 -0.0911851 7.4063 23.5839 3.13107 7.04887 3.70923
403 1 13.8049 -2.02032 -23.8234 0.110325 4.35052 -1.17364
404 1 -14.4291 -0.91611 3.96952 0.78654 -1.64286 0.704898
405 1 6.03183 -23.8073 -6.52416 -0.293372 -4.61407 2.22264
406 1 -9.25253 -20.9556 -21.8358 1.46267 3.87848 -0.0967074
407 1 2.83632 -10.4063 17.9316 0.0942067 5.66747 -2.07825
408 1 -2.14208 -1.40851 -17.5141 -2.94145 -1.61693 -0.727358
409 1 0.36655 2.10818 -6.00466 -1.06351 1.5421 1.93752
410 1 -12.7699 10.1599 1.89234 0.0314847 1.24351 -0.268764
411 1 -2.10557 -1.17375 -6.77316 1.3498 -2.35334 0.835316
412 1 -17.702 -5.36142 9.45356 -2.90703 4.43141 1.80061
413 1 -23.4224 23.6117 -1.31856 -0.443801 -0.743845 -0.0696153
414 1 5.22526 19.1275 -11.4761 1.1825 6.08496 0.992911
415 1 -19.5497 7.60277 -9.44407 0.696602 -1.9252 3.72833
416 1 23.2891 0.735936 11.3522 -0.314436 -3.2543 2.30433
417 1 -13.4316 1.79435 10.1432 0.77011 0.882445 -0.749933
418 1 22.1118 21.1266 6.17688 -5.52471 -0.817237 -2.38319
419 1 -23.4125 3.00022 23.7256 8.2696 -9.29163 -1.73468
420 1 -2.14702 -3.15059 12.466 2.65912 2.68941 -0.455299
421 1 -13.9337 46.347 -16.6764 -3.01736 -0.290285 3.75121
422 1 -1.28074 17.6915 -21.4934 3.50857 -0.621006 1.41272
423 1 -9.19171 2.42477 3.03604 1.64693 3.86015 1.13614
424 1 6.49594 -7.43117 0.206615 5.20828 0.157505 -2.9898
425 1 -22.2255 14.0241 15.7702 3.3994 -1.26125 -5.24949
426 1 -16.6998 -1.47684 -9.57165 -2.77453 -3.81571 0.149927
427 1 -13.4762 46.7935 21.7792 -6.40206 -2.62586 -0.283862
428 1 9.81669 13.0334 -8.77632 -1.77169 -1.47355 4.8311
429 1 -6.18728 8.75948 -15.4998 -0.927005 -2.41108 -2.69183
430 1 -22.6106 -1.74105 -23.875 -1.78411 3.93841 5.03244
431 1 8.97683 -6.37852 -14.3058 -0.668708 2.13969 -1.40509
432 1 5.87948 -3.63263 12.9325 4.53772 -2.40707 3.57652
433 1 -21.0857 2.33958 -16.48 1.88256 2.5487 -5.22989
434 1 -13.232 -2.20511 -10.7011 1.7094 -1.87718 -1.69626
435 1 0.814337 22.5791 7.09413 0.318018 2.36884 -0.446623
436 1 -15.8353 -10.4422 -8.05852 -1.79332 -2.96492 -0.547219
437 1 19.6859 18.5269 -6.05055 4.45464 0.136821 3.1344
438 1 -17.0781 6.11219 -4.4179 -6.13447 1.02899 -4.42161
439 1 -4.00079 21.4838 -5.74322 -2.64948 -3.0298 -1.52492
440 1 -8.9341 12.6227 -14.8063 -0.152069 2.69167 7.84908
441 1 18.1467 -0.246127 -7.52674 -9.37944 1.87486 -1.61797
442 1 4.89383 3.13854 14.3718 -0.998448 -3.42507 0.604081
443 1 19.4049 24.4717 13.3852 -0.646867 -2.61424 0.357998
444 1 -23.0155 7.18532 -18.9208 1.54354 -1.79117 -1.08245
445 1 15.293 -10.3143 -11.7716 3.26822 -0.847617 -2.34474
446 1 21.7194 -14.3525 -5.94118 1.11997 -0.993305 -1.69747
447 1 5.85279 22.1309 14.5706 1.42111 -2.06619 2.44448
448 1 -13.7522 0.159514 14.14 -3.07087 4.04438 2.10424
449 1 13.4236 -7.76836 0.717938 -1.20904 -1.48808 -6.07577
450 1 15.9595 -21.7079 7.39961 4.38259 0.803193 -3.06856
451 1 -23.6989 -12.937 -19.3738 -3.76626 3.41068 1.95938
452 1 22.8898 15.0152 2.16241 -3.64964 2.25043 4.28466
453 1 -16.614 15.0815 9.54789 2.69173 0.278606 -1.19487
454 1 -5.14149 0.150583 -16.3969 -0.92676 1.2331 2.4416
455 1 15.1062 -10.7694 18.6434 -7.47573 -1.47706 -0.552207
456 1 -4.3197 18.007 23.7889 0.688074 5.43548 -3.4371
457 1 5.88151 21.5664 18.7592 -2.58117 -4.79772 1.385
458 1 20.4879 20.9239 15.3245 0.0672836 1.48438 -3.78689
459 1 0.406546 9.00706 -14.7092 1.61585 -2.97743 5.12216
460 1 3.22186 8.88114 -22.6223 2.78251 2.12731 0.229455
461 1 2.37863 -0.431083 -18.3706 2.894 0.0543652 2.85129
462 1 -4.76251 -18.1948 21.3171 -2.23201 1.69851 3.43371
463 1 6.69736 12.1766 12.7822 0.893224 -4.17121 -2.76942
464 1 -14.1875 -22.174 5.27113 -1.33969 -4.18746 -3.78144
465 1 -1.07462 -13.2582 5.96756 0.0896076 -1.06421 -0.896525
466 1 14.4009 16.1458 -20.2515 -3.34646 -0.645402 0.485837
467 1 -7.06798 -11.914 12.987 1.47126 0.141648 -3.91913
468 1 21.1375 16.9567 -8.12261 1.18589 -0.847578 4.55119
469 1 -23.6391 -14.5796 12.2588 4.07048 -3.71872 0.833354
470 1 -21.4846 6.47524 -12.8627 -1.99868 4.74337 1.99795
471 1 18.4083 -9.17557 -9.39359 -2.43539 3.19686 5.78842
472 1 -15.2582 -4.32172 17.7519 -0.761358 1.40542 1.28903
473 1 3.81599 12.7931 12.1187 -2.4083 1.14683 -0.726818
474 1 2.46926 -5.08998 -10.1445 3.71704 3.84451 -3.69126
475 1 20.7766 13.8407 -20.2411 -3.24322 1.46369 -3.09221
476 1 -12.1956 -4.11861 -2.67323 -2.08158 1.96309 0.924579
477 1 -12.4244 -8.84615 -14.2304 0.923747 -1.76521 3.16857
478 1 3.05325 -0.076407 -23.0121 2.59925 -3.742 0.0896622
479 1 14.6013 -20.0948 16.0664 -1.68564 -0.2748 1.47178
480 1 1.67896 -9.84351 10.9504 4.66882 -0.0891941 -1.61037
481 1 -2.20392 7.0111 -20.6669 1.03924 4.97552 -0.57922
482 1 -23.1769 -2.51241 21.2246 4.56809 3.22974 -0.617849
483 1 6.84552 -17.0555 -0.811673 -1.05856 1.38256 -0.461809
484 1 22.9169 -12.9093 -12.2504 -5.86048 -0.116874 3.97132
485 1 22.0345 -22.0396 -18.6426 -3.85599 -0.164123 2.78786
486 1 15.8402 3.31683 -5.17904 3.42527 8.94769 2.31275
487 1 2.22805 26.5623 17.8913 2.5911 0.0633578 0.856873
488 1 -2.8909 -13.8228 21.0815 -2.86408 -5.33861 3.58739
489 1 -12.7187 22.0912 -12.3904 -2.76914 -2.86504 0.574106
490 1 15.9002 -17.424 -13.0189 1.60695 0.391136 -3.83197
491 1 -19.7736 -12.0714 9.38714 1.10846 0.131535 -4.59135
492 1 -16.6669 -16.9538 -12.2338 0.850784 1.8578 1.05465
493 1 14.6495 1.09842 -15.1528 -3.33578 0.196172 -1.97446
494 1 7.20281 1.14605 4.01745 -4.3943 3.74656 0.783693
495 1 -3.74396 -7.74174 -4.39882 0.281474 0.323707 2.46642
496 1 3.88901 8.94327 -11.1638 4.11833 3.58916 0.00318171
497 1 10.9779 16.7103 22.238 -2.12953 1.54962 -0.587606
498 1 20.6534 -1.33431 23.5585 -4.96786 -4.01218 -0.896887
499 1 22.2488 0.825372 -9.19423 1.20553 -0.110342 1.71342
500 1 -5.36154 -17.2296 9.36627 -0.0687682 2.6531 -4.03011
501 1 -13.2326 -11.6539 -7.66047 2.23685 3.7663 -2.70557
502 1 12.6883 -15.6481 17.9605 -1.39314 -2.5574 -1.96593
503 1 9.64609 2.13182 -13.5107 -0.736086 -0.613967 -3.15135
504 1 -0.763945 6.80685 5.04414 2.50922 -4.0395 -2.85367
505 1 -4.18701 9.73739 -23.5702 -3.17509 1.9027 1.06835
506 1 0.860834 -24.016 -16.8985 0.983064 1.24226 1.36251
507 1 13.5442 22.2075 -15.3267 -0.310479 4.59482 -4.33032
508 1 -2.06287 22.9747 -11.0901 0.376308 -3.25821 8.33374
509 1 21.9366 12.7356 -16.9942 -1.52795 2.05833 -2.7367
510 1 10.3111 -16.8409 16.4527 0.146018 -4.79663 0.464404
511 1 8.52847 -15.1679 3.4646 0.386905 1.92092 -0.33671
512 1 3.36788 -2.52062 19.6865 1.11803 2.82809 6.14278
513 1 -17.3842 -14.5704 21.1992 3.82813 -6.34951 1.31871
514 1 -14.9132 22.1789 19.3101 4.82671 -2.06853 1.89068
515 1 -1.63863 6.98333 17.4414 -1.33595 -0.114586 5.45338
516 1 9.53701 -23.5793 -3.16868 2.82124 -2.51756 4.40239
517 1 -17.3381 -1.44249 -21.3243 1.76006 -0.0853171 -0.198217
518 1 23.0345 -23.6545 2.38258 -3.5155 0.105491 1.79594
519 1 -19.7411 -12.3708 -9.23259 -1.71286 -4.46317 0.14393
520 1 -4.58953 -24.3338 -14.2701 -2.85476 -5.63865 -2.17504
521 1 -10.1107 23.8049 -8.15 -3.72621 -0.0997429 0.635817
522 1 3.14851 -15.4769 6.86429 -2.27892 0.748491 8.10656
523 1 -8.91301 -16.54 -5.56884 2.86614 5.61543 -1.84463
524 1 -1.28312 -3.05407 18.3747 2.00804 3.5901 2.82824
525 1 -7.80856 1.80555 -3.39942 -0.263096 -0.210509 -0.497113
526 1 -20.0176 16.5211 -3.82818 -0.551778 -2.22679 -5.00948
527 1 -3.14472 14.7444 -8.00622 0.695208 -3.47323 -8.24634
528 1 -18.9033 15.7951 -11.6988 -3.13177 1.04766 -1.72634
529 1 -7.99282 -12.6474 6.78824 -0.646975 2.1783 -4.21952
530 1 -10.2986 2.45375 12.4191 3.14051 2.83844 -2.5536
531 1 22.8832 -9.02817 12.8754 4.26775 -2.91502 -4.45091
532 1 -10.22 -1.67285 0.613298 -0.0474141 -3.45914 3.91602
533 1 -8.54016 -19.9455 15.5783 4.5311 -2.35303 0.203922
534 1 18.3199 9.6016 -10.9887 -3.71629 -6.54251 0.616566
535 1 6.27755 8.01634 8.37022 1.77017 3.68638 -2.04459
536 1 -2.63768 -7.99531 3.35442 -0.723148 -2.33529 4.83914
537 1 10.4573 -7.7238 3.67158 -2.86308 -4.66715 0.38616
538 1 -21.9178 -3.54606 13.5385 -0.00561163 2.80962 0.79529
539 1 18.5616 9.026 -8.25332 -0.578952 -1.49461 0.83093
540 1 -13.8583 -9.15681 1.28081 4.46497 -1.0025 -2.11855
541 1 -12.6573 2.47787 18.3382 0.886201 1.1417 -1.43226
542 1 -23.5974 6.47891 -7.20831 -3.15884 3.74806 -0.190595
543 1 21.5475 -17.1356 -15.3963 -2.15786 2.58183 0.734893
544 1 -1.84648 -21.178 -20.8688 -0.717371 -3.14998 -0.726432
545 1 21.4385 -19.1368 14.0917 -2.03149 -1.0538 2.2753
546 1 -5.54105 -16.6902 -14.7288 4.14232 0.654145 -3.38699
547 1 15.7703 -16.5279 -20.2033 0.491929 -2.11795 -5.21614
548 1 9.89747 1.88122 16.7719 0.351281 5.11107 3.29522
549 1 -20.3726 -4.88206 8.26832 2.68754 2.33362 -2.27728
550 1 2.27272 -22.4125 -14.8455 -4.77316 3.05337 0.806376
551 1 8.07273 6.84214 -18.387 -0.573413 -7.94703 -1.2979
552 1 0.74361 -15.9453 -2.40116 -1.24768 0.143947 -0.7035
553 1 -11.8528 7.57006 0.821356 -4.03698 0.856072 -0.885519
554 1 4.4864 21.7443 -17.6829 -1.45928 1.09208 -1.42116
555 1 -13.1184 -14.9196 -0.507841 2.64329 3.28094 -0.767732
556 1 -11.0087 18.1443 -1.91497 -0.562081 -4.50246 1.06846
557 1 11.2369 -22.7188 -10.7663 2.75377 3.2543 -0.6649
558 1 -5.80106 -10.3354 14.8509 4.25885 4.37392 -2.24696
559 1 -8.83567 -19.0433 7.59434 -4.82446 -1.7084 2.55975
560 1 22.3568 -21.4383 -4.50458 -3.66636 -2.95703 0.920598
561 1 8.34197 46.0292 19.3105 2.73593 1.7734 2.16192
562 1 5.91613 8.06797 -23.0995 1.23017 -0.632439 -1.29168
563 1 4.92278 -19.9745 5.85941 -0.8672 1.64423 0.767671
564 1 -11.646 -17.2542 11.3422 -3.81207 2.31173 -4.56152
565 1 12.9612 -18.4438 21.5445 3.50425 -1.3224 4.20442
566 1 18.604 14.6161 12.7054 -9.46837 0.107213 1.53355
567 1 -19.9746 25.6686 -4.15636 -5.0454 -2.15603 -0.516113
568 1 4.51451 -8.8948 7.95144 -2.83603 0.29687 0.503613
569 1 -4.28466 23.0948 -14.2655 0.166376 4.39557 2.13359
570 1 21.113 12.4857 14.9456 3.09992 2.39848 -2.16511
571 1 -2.9872 -12.1529 18.7362 -2.42863 -1.046 0.367744
572 1 10.6612 -24.028 3.53936 -5.54298 1.76256 -0.753335
573 1 18.7591 -6.73701 5.30457 -2.5412 0.455288 -1.77713
574 1 14.0123 -21.3838 -6.13016 2.88586 -5.74042 1.54844
575 1 -14.8031 4.49677 -4.92731 2.74225 -3.51162 2.25524
576 1 20.4434 -1.58312 17.2419 6.64097 1.25527 -0.908527
577 1 -7.95694 19.8268 -0.7315 -1.53617 -3.44836 1.22882
578 1 23.0941 20.8719 -19.6572 -0.0303913 0.470727 -1.68216
579 1 1.66667 -21.3794 -10.0819 1.92788 -4.21356 1.19488
580 1 -5.07296 1.55502 -19.3387 -0.50925 0.401277 -2.35993
581 1 -16.3578 -8.95716 16.5961 0.71452 5.37199 -0.0816852
582 1 -2.72075 -12.5788 -17.7471 5.72347 -2.40912 -0.433768
583 1 -22.9783 24.4424 12.3748 2.30048 -2.72378 -0.985683
584 1 16.0429 1.26257 -10.1934 -2.11653 2.19452 1.26461
585 1 -7.41171 12.3728 15.8867 -0.380761 0.623596 -4.54949
586 1 15.7167 23.6943 -20.2806 0.715592 0.933399 4.26057
587 1 -20.8231 -24.0949 -12.3246 3.58482 2.69705 2.83483
588 1 -20.5777 23.4163 7.02499 0.359744 -0.306523 4.34911
589 1 -0.274002 3.30096 -0.928539 3.74624 3.52959 -0.649449
590 1 -5.81513 18.4316 19.9673 2.74312 -4.06712 1.03568
591 1 20.8306 -21.0675 11.6966 -0.0187923 0.833595 1.14882
592 1 -15.8387 -13.2128 9.92527 -0.0262926 -0.167578 1.01112
593 1 -13.6818 -19.9192 18.6901 1.80683 1.78559 -3.06666
594 1 -18.7941 0.587946 3.06577 -0.0324575 -1.94456 3.94478
595 1 10.1166 -16.8586 -23.3517 4.61823 1.63371 -2.50157
596 1 -11.1312 -19.0048 5.56421 -0.776738 0.186025 -1.37222
597 1 -23.4108 45.7219 -12.9716 0.860964 -1.77418 2.44308
598 1 15.2384 -15.6684 5.55082 4.24199 0.804559 -0.80318
599 1 12.3876 -14.1345 12.1302 -1.28616 1.20621 -0.303636
600 1 -23.5702 22.3294 17.4265 -2.06535 -2.57815 -1.15523
601 1 0.652284 -2.10147 20.2446 3.47291 1.63181 -1.55304
602 1 -11.2497 6.20452 19.6551 1.64743 2.81511 3.58182
603 1 -5.01077 5.85866 -3.26862 2.69587 1.94857 -4.15975
604 1 0.365537 25.6114 -23.1946 1.84619 -3.43478 1.70636
605 1 -18.491 -1.46031 17.7766 -6.55337 -4.75483 3.1872
606 1 2.45191 -1.98963 -20.7679 -0.561941 -0.643527 4.69531
607 1 -0.147151 -1.20882 15.3807 0.527668 -5.25028 -2.09661
608 1 3.4443 9.26236 -8.38744 -5.43902 -3.40733 5.04597
609 1 11.3783 -21.1081 22.1492 2.84964 -3.69864 -5.97264
610 1 14.273 -5.1361 16.2363 -0.0556349 2.81411 -5.16158
611 1 -2.59493 -4.32329 -4.35967 6.7905 0.541529 -1.57063
612 1 -4.53965 12.3226 -17.3395 -2.58727 0.419567 -1.87458
613 1 12.4126 8.12772 -21.9929 4.00551 -0.720002 0.64685
614 1 -16.6334 -10.2688 -5.29832 0.340906 0.0870473 1.45274
615 1 10.0138 -4.47102 20.9443 -5.57223 -1.1059 3.23093
616 1 15.2998 -4.35724 19.6504 2.62948 -4.70738 -4.68072
617 1 -14.1048 22.2328 -16.6034 -0.591896 2.08305 -3.1041
618 1 14.2589 6.5553 9.10642 -1.20088 0.568995 1.28975
619 1 16.2702 1.11165 11.1158 -2.19933 -4.13294 4.00263
620 1 19.5481 -14.5252 -8.00374 0.534082 -3.71568 -0.105806
621 1 -8.6641 16.5228 -13.3734 4.17829 -3.70817 -7.39257
622 1 -21.4739 -9.76801 3.04238 0.180747 1.01622 -9.43379
623 1 21.6913 -14.9869 5.02866 -1.73075 1.21794 2.38743
624 1 -6.58085 3.22227 -21.0679 -4.60573 -0.0988395 1.314
625 1 -1.15091 -7.89783 -3.0271 -0.211711 -2.10118 1.4088
626 1 -4.04617 3.81017 -18.1 3.96928 3.8564 6.3713
627 1 20.4187 12.871 10.8033 -1.85087 -0.589661 2.26794
628 1 -20.8022 -16.0951 -0.541377 3.73366 0.0198108 1.31258
629 1 -6.74431 11.8751 -4.72112 3.07176 2.23566 0.287983
630 1 23.3416 23.8802 9.77701 0.00372919 2.39893 -1.62063
631 1 -5.47947 -16.14 18.2248 5.61978 0.768985 0.797655
632 1 -13.6112 -19.3542 1.56947 -1.51498 -1.30402 -0.768818
633 1 9.10923 6.66404 22.5565 -2.04059 -2.16644 3.27285
634 1 -7.70465 -0.222708 17.5325 -1.00288 2.48375 -5.57253
635 1 9.60927 15.434 -5.81939 -0.457515 3.03171 -3.44186
636 1 -23.5793 2.04758 -15.0697 2.60252 2.84224 -2.05362
637 1 -7.68826 -23.3708 -21.8276 1.05954 2.15717 -2.78239
638 1 13.6117 21.3535 -6.61962 -4.40202 -1.01238 0.420806
639 1 -10.7 -18.198 -21.9528 -0.624572 0.613237 6.80488
640 1 1.92016 0.699686 5.78619 -1.32353 -0.320179 -1.88384
641 1 -15.0443 19.8901 6.01272 0.10259 1.61135 -1.02437
642 1 -7.49812 -1.94853 5.64511 -1.46962 0.0329763 -5.56551
643 1 9.00216 -19.633 6.04102 0.334348 -1.6821 0.958877
644 1 -7.3138 11.6901 -1.95363 -3.67043 -2.41991 1.10712
645 1 -10.8877 -11.6256 -17.8321 -3.30227 0.54517 2.97364
646 1 13.6957 23.9421 13.6255 -3.28776 3.8348 3.77478
647 1 8.096 1.59183 -3.09525 8.24317 -1.25905 -4.32684
648 1 21.4449 -15.0361 21.3893 2.47101 -1.89327 -4.13403
649 1 10.9832 -19.3419 18.1577 6.15017 -0.670699 -2.77266
650 1 -10.9854 3.51831 20.5621 5.19668 -3.93914 -1.95018
651 1 -21.7715 4.82474 -10.3206 -0.326287 3.71993 0.784062
652 1 -9.12771 -5.12807 -18.9096 5.7924 -2.69492 7.02748
653 1 -22.2085 -20.1772 -15.7765 2.15425 -3.00698 3.63501
654 1 -12.0182 -0.776211 -19.9799 -2.70142 1.72175 -0.502112
655 1 -2.71592 -10.3495 -10.7153 -2.15416 -2.69375 1.8954
656 1 0.367756 22.5376 -9.48832 2.08242 -5.63625 5.55053
657 1 -1.17603 -4.07424 -10.5016 -2.50178 -2.25259 2.50713
658 1 17.3595 10.8057 11.5145 6.2021 -0.554463 3.57016
659 1 9.78603 1.73884 21.6937 -0.14569 -4.06526 5.47919
660 1 7.82106 2.7338 6.52427 -0.372384 3.97219 -0.0764583
661 1 -19.3322 -6.82141 -17.6619 2.49569 0.00305387 -7.00638
662 1 4.16413 -6.22238 9.61581 1.03033 2.99715 -2.76544
663 1 -11.5264 -18.91 -10.4174 7.61132 2.22858 0.330011
664 1 -16.2686 -19.3483 10.5782 2.39213 -1.24462 -0.286243
665 1 -2.45801 -5.50916 16.8505 0.78301 -5.95252 4.08894
666 1 -8.61261 -5.84174 -11.9206 1.26346 2.4818 -0.392051
667 1 -20.9622 -20.622 23.6113 -0.834459 0.97444 -1.20291
668 1 -11.2336 14.644 18.1292 2.50125 -4.05151 2.23814
669 1 10.234 -15.0866 13.9743 5.13052 -2.24382 -0.9275
670 1 0.953805 -11.7969 -2.31483 3.84919 -0.729222 2.18298
671 1 20.0398 14.518 3.00875 4.63931 1.08286 0.309034
672 1 23.2742 7.95094 -11.4013 1.68958 -1.36031 -2.01976
673 1 -2.42157 22.2736 -22.7518 -1.39808 2.3543 -1.70874
674 1 -9.41671 2.21182 -20.9122 1.06316 -1.46016 -5.21826
675 1 -22.0322 -11.3985 -7.55972 2.50968 -0.206745 3.14278
676 1 6.00631 1.39563 17.4943 3.12607 3.65034 0.716222
677 1 -22.5422 -10.9697 -11.5636 1.76131 -4.8091 -1.92365
678 1 -19.3915 -5.51418 0.898704 4.93431 0.512314 -0.888638
679 1 -19.6635 3.49714 -8.9975 -2.92938 -0.634783 0.987121
680 1 8.36165 21.5013 -8.50969 0.348802 -2.47379 7.12438
681 1 -2.69542 1.18042 -8.2839 -0.0877583 -6.53762 -4.32515
682 1 -3.27319 19.8167 -8.42305 -0.546331 -0.727412 -7.39598
683 1 1.9407 10.4045 -17.0703 -0.0728535 -1.77913 -1.4156
684 1 10.7162 -20.1228 -11.8392 -0.819463 2.19221 1.05299
685 1 22.5163 -0.533133 5.90254 1.78487 -1.46661 -0.112152
686 1 -12.7181 -0.0892284 19.9871 1.70577 -0.855032 2.62235
687 1 -17.1236 5.9967 10.9928 -0.276894 0.320963 -1.46248
688 1 -11.6642 -12.997 -13.7061 -0.215819 -0.79585 5.6716
689 1 -0.138297 -0.974124 -3.75648 1.0941 -1.61325 3.42631
690 1 -3.23219 18.3299 -5.81193 -1.47029 1.54448 4.09244
691 1 0.113591 7.97075 15.23 2.53317 1.51741 3.53309
692 1 -9.79248 -3.16568 4.77638 -6.23077 6.37714 -4.39012
693 1 -9.49929 23.0051 2.42603 2.85714 3.64634 -1.2171
694 1 10.4522 -19.2542 2.02162 2.33267 1.92909 -4.4892
695 1 6.27677 -10.545 -7.48029 -0.0165989 -2.83831 2.37844
696 1 -7.97948 -21.292 8.78681 4.98992 -0.233538 2.33174
697 1 -20.1424 16.51 -19.1173 -0.664867 1.57573 0.457367
698 1 -23.7955 -13.2783 -4.51833 1.86444 6.85438 -1.28482
699 1 -15.4872 -11.5504 16.1293 -1.88579 0.187095 -3.10417
700 1 4.04099 4.74311 -21.2106 3.24856 1.39213 -2.19433
701 1 15.1228 -0.428032 8.14411 -0.544212 -2.13795 -3.20031
702 1 -15.357 -2.50958 13.4378 1.77616 -0.804732 1.56229
703 1 7.56667 24.4378 -21.0365 -0.241944 -0.145408 -2.91235
704 1 -10.4584 -10.5273 9.34721 -3.45675 2.13821 -0.0426455
705 1 5.66864 20.3672 -14.1185 -4.81321 -0.436555 0.724127
706 1 4.8561 2.52538 20.1817 2.40356 -2.23677 0.400014
707 1 -18.082 -0.722454 21.7759 -1.95771 0.201073 -5.22655
708 1 8.93583 -5.13548 -16.7409 0.909738 -1.08946 1.20964
709 1 -10.1868 -1.73902 -5.90342 -0.471325 -0.0812861 -2.97208
710 1 -3.43831 -9.63041 13.2585 4.28526 6.36773 2.6731
711 1 -15.3022 -6.47232 -13.9614 -0.129568 -2.75295 -1.95111
712 1 4.99187 -12.4567 15.2502 -0.809484 1.53234 -1.62318
713 1 2.34055 3.35809 3.20229 -3.31008 -1.50587 -7.93989
714 1 17.0998 -7.87745 -15.0996 2.028 -3.23012 2.10259
715 1 2.05991 16.2731 11.8645 1.81186 4.90566 -1.5673
716 1 0.832776 -22.8212 10.1438 -0.974512 -4.12583 -0.955596
717 1 -13.3654 -4.90457 -15.3017 -4.4475 2.84069 5.03498
718 1 -11.0646 -6.95603 6.5788 -1.75247 -3.30833 -0.864149
719 1 13.0749 -9.54776 11.254 -3.42165 2.35104 2.00039
720 1 3.65778 -5.76906 -20.6041 -0.289392 2.5474 1.54284
721 1 -10.1473 -10.7309 -14.9554 -1.08025 -2.58633 -1.702
722 1 8.16642 -22.9039 -12.8428 -0.64666 1.25542 -0.499327
723 1 -21.1741 15.6379 -6.42333 0.999629 -5.53331 1.05071
724 1 -7.68579 20.7775 -12.0802 2.09035 -1.28187 -3.3463
725 1 4.53842 18.9476 -23.0928 -0.100766 1.60289 4.34226
726 1 -4.62093 -7.09504 21.7631 1.02364 3.55248 1.40292
727 1 7.25746 -2.2953 -12.2835 -2.132 1.98632 2.16319
728 1 -8.61167 16.0141 -8.51919 1.44835 -2.72965 2.23518
729 1 -15.6725 13.463 15.4637 0.586394 -0.487099 -0.432351
730 1 17.3025 -20.9264 -19.3723 0.982514 5.58765 2.27105
731 1 -12.9378 12.9677 -22.8656 1.86172 3.29819 0.176925
732 1 13.235 -23.045 -8.54337 0.760604 -0.61893 -3.55261
733 1 -15.6452 -16.8373 5.44699 3.11695 0.637036 -0.601798
734 1 -19.9394 21.4046 15.6096 4.55793 4.63936 0.584877
735 1 16.5562 9.55329 6.21321 -0.447891 -1.98055 -0.124471
736 1 4.07178 23.0957 -6.54843 -1.0795 2.603 -2.77403
737 1 21.9208 -17.6988 6.7958 1.44169 2.31423 1.26558
738 1 -12.8106 7.43171 15.7872 -0.772041 5.99037 -0.778582
739 1 -16.1615 -20.0226 0.180684 0.765218 0.562772 0.673558
740 1 16.1997 12.9992 20.0275 1.39814 -2.6763 4.38871
741 1 -14.2378 -20.3549 -15.2989 6.11975 -0.116709 5.46193
742 1 -4.43499 -23.6977 19.6727 -0.680042 3.35428 2.95874
743 1 22.9798 20.3324 1.48607 -0.328838 5.10289 -5.63493
744 1 8.63891 -13.4067 -12.4821 0.407911 -0.690164 1.84611
745 1 -23.8579 3.00565 19.5032 -7.64331 -0.45504 -1.33259
746 1 -17.2964 -5.9443 -21.9289 -2.73977 -2.09739 -0.223701
747 1 11.4959 -11.4315 2.91138 1.63776 2.99587 -0.988495
748 1 -10.0467 -21.3504 21.089 -3.5515 3.74719 0.259229
749 1 0.408517 14.4696 7.87509 -2.70417 0.958913 3.82959
750 1 15.3263 -6.32676 -13.2859 2.56993 -0.0945612 -0.396641
751 1 -18.8282 9.12327 -16.2798 2.52066 -5.46096 1.27607
752 1 -23.5945 -20.7149 5.19419 -0.144505 -1.24837 5.32116
753 1 -13.8564 -17.7992 22.6567 2.05956 1.13884 -1.15924
754 1 -13.788 25.6794 14.7492 1.99245 0.11045 -1.63108
755 1 10.3466 10.1171 -22.7304 2.49842 -2.79851 0.758226
756 1 -6.59104 -2.09991 -0.678697 1.32512 3.46035 -0.0340398
757 1 -18.2216 14.2626 -4.02161 2.42455 -3.83516 -1.1824
758 1 -14.3209 -15.1982 20.8195 2.35641 3.03009 0.21076
759 1 0.889204 14.7837 -10.6589 -0.386065 -0.307913 -3.49174
760 1 1.73055 8.94527 12.0722 4.49788 3.24316 -0.177408
761 1 -10.3041 -12.2146 -7.36826 -1.36661 0.392629 4.83229
762 1 3.0112 19.7014 22.4763 0.793932 5.92978 4.64851
763 1 15.9931 5.26267 7.46319 5.73005 0.12896 5.96733
764 1 21.27 1.6925 7.0153 3.0616 -0.741995 1.77481
765 1 20.3675 8.87048 8.19899 6.98568 2.30334 -1.18363
766 1 -12.4865 18.0675 -16.4948 -3.11164 1.79852 1.66088
767 1 -1.06915 -12.8806 -0.732417 2.82506 -0.0675969 -6.28741
768 1 -8.93682 9.86585 10.1202 -1.20523 2.43255 2.65405
769 1 13.8045 25.597 17.8897 -4.57139 -2.21836 -2.54479
770 1 -4.96203 22.1412 23.775 2.38762 -0.912129 -2.61621
771 1 11.1244 -18.2211 13.7134 -1.96359 -4.93424 0.291211
772 1 7.24332 7.59329 5.9323 2.4536 3.5908 -0.940025
773 1 12.3033 -21.1574 11.54 0.650426 1.16599 1.25897
774 1 15.7043 18.8043 13.6389 -0.441114 2.91872 1.35558
775 1 22.3525 -17.3382 -12.4028 0.0618336 -1.76744 -3.14906
776 1 9.14076 0.635447 -20.2387 2.25994 3.88127 -1.33223
777 1 21.1452 -9.81773 -9.14505 -1.60032 -2.64686 4.72826
778 1 3.00483 -18.6928 -17.1672 4.13082 -3.5906 8.03541
779 1 8.01449 0.0146282 -7.5884 -2.20617 1.96989 0.35526
780 1 -7.34364 -9.59554 -18.8422 -0.830117 -5.25356 5.48014
781 1 -19.5888 4.30646 5.75757 -3.26116 0.483846 -3.64608
782 1 19.4007 -9.5654 -14.7682 -1.79775 -3.48608 2.12358
783 1 2.17356 -15.6852 21.3658 -0.424105 3.16136 3.53859
784 1 12.0858 17.3779 -2.47228 0.842743 -2.62781 0.157754
785 1 -3.9988 21.8531 21.0492 2.20493 9.76144 -1.09781
786 1 -21.1936 23.0801 21.8607 4.92187 -0.393862 -1.613
787 1 9.57423 12.2327 -13.9986 -1.03365 3.216 3.00111
788 1 -20.8217 8.73497 5.06858 0.643763 5.2422 2.43883
789 1 -14.6123 19.3821 -0.23068 -2.21162 -2.06872 4.66181
790 1 2.28164 -1.48052 17.0851 -1.32846 1.46214 0.291188
791 1 -3.64302 24.0111 15.3076 -2.22949 -0.320724 0.429085
792 1 -22.5717 14.2502 -8.39604 0.744783 2.50311 0.804828
793 1 -23.7221 -9.47878 1.60329 -0.854906 -7.12998 1.56466
794 1 7.18679 17.406 -23.1016 -0.601387 -0.211659 0.37738
795 1 21.1512 -8.18693 20.698 -1.14419 -0.798505 -6.45358
796 1 -8.7149 -16.2522 -14.207 0.557856 0.752676 -2.85338
797 1 -19.2547 -11.6053 13.7572 4.0314 -0.915661 -0.444275
798 1 -16.2134 1.3851 -6.34483 -4.93847 -1.28002 0.295124
799 1 -10.7206 17.774 -8.06769 2.61047 -1.56557 -3.01653
800 1 -19.0252 -10.2325 17.1627 -4.24489 -3.57012 2.22041
801 1 19.9849 13.9206 -2.24733 1.62181 1.42652 2.43367
802 1 -18.2475 -21.2739 14.1768 -0.603998 -0.341703 -4.29159
803 1 17.0053 -12.7819 -8.08762 1.96487 -0.42644 -2.71253
804 1 8.18431 -19.1293 -10.6737 2.36987 -1.56434 -6.23054
805 1 9.44395 24.9403 23.0788 1.97362 0.355386 -2.39839
806 1 0.139225 -12.1848 12.3214 -3.14218 -3.99783 -4.68188
807 1 15.8163 22.8116 -23.3011 -0.27553 0.958987 1.61348
808 1 0.250603 -19.3618 -11.6048 5.38874 1.05052 -6.10818
809 1 -5.73188 24.085 -16.7992 0.203276 3.76005 0.120487
810 1 -19.5401 -14.0822 -3.27559 -6.09135 5.81784 1.02272
811 1 -13.1318 -5.56964 -5.79202 0.991307 -3.76286 -5.0224
812 1 2.35384 -12.641 -8.28092 3.74088 2.61013 1.90316
813 1 -16.136 24.4162 -16.6215 -0.120173 -1.54112 -4.7878
814 1 -20.4337 -0.621326 -2.43544 5.59278 3.62206 -0.396471
815 1 -19.8834 7.08802 -17.9506 1.48945 -0.451288 -1.52
816 1 22.412 -17.6752 18.413 0.193546 1.92369 -1.25761
817 1 9.86064 -9.5082 16.9952 -1.9569 0.847241 0.0041553
818 1 -10.6437 10.5377 21.4696 -3.75722 3.71763 -6.98941
819 1 9.3812 12.1802 20.0768 -1.37207 -3.78329 0.365095
820 1 3.11526 14.3578 7.46456 -0.451862 4.35372 0.375752
821 1 -23.1907 46.4545 -22.8443 5.67896 -4.39887 1.85413
822 1 19.6686 -14.9486 15.0677 -0.491792 -2.92185 -0.398187
823 1 6.37757 -10.0101 4.84118 -2.18022 -2.89323 0.798256
824 1 4.60464 -20.1736 -7.02079 3.31188 5.88485 -2.65971
825 1 -23.2978 2.61133 3.02678 1.35868 -5.05976 -1.05151
826 1 -12.9463 6.37939 -3.98156 -2.40858 -4.6637 -0.0574463
827 1 -2.45517 -0.754924 5.28389 2.58222 1.61351 -4.21047
828 1 -6.94007 -18.9322 13.3499 -5.89654 -2.14281 -0.467234
829 1 20.1613 17.3014 21.7644 3.16426 -0.63441 1.40005
830 1 -10.1916 -9.03612 20.3234 -1.10183 -1.16131 -3.21505
831 1 -0.429207 -13.0264 -22.836 1.75563 -6.58026 -1.00009
832 1 -7.60371 -3.71571 12.4872 1.17409 1.69214 -0.477394
833 1 -10.9801 -5.27533 -7.92087 -4.17395 1.29268 -0.875406
834 1 2.32661 9.47591 -1.43581 -0.463955 -0.705777 4.22421
835 1 2.40038 10.7756 -20.5437 -1.11513 1.39178 -3.41666
836 1 4.07755 -12.6305 19.6328 1.3743 1.2766 -1.11474
837 1 -19.6142 -14.7028 -6.24339 3.11259 -7.03099 3.62686
838 1 23.1411 -20.7452 2.38167 0.631397 -0.427424 -2.04491
839 1 20.9931 21.8181 -6.64514 1.57071 -1.4121 -3.53608
840 1 4.19089 -17.4338 12.306 -2.59769 -6.2191 -0.503418
841 1 18.3263 1.54003 6.97733 -0.118523 -0.310001 -5.93557
842 1 -6.80291 -24.2867 -3.50511 1.56562 -3.09261 -2.03142
843 1 19.6242 -4.60381 17.073 -2.97125 5.8996 1.02803
844 1 20.608 -19.7763 -22.743 -1.60879 6.89234 -0.963535
845 1 18.7503 7.64768 -1.43389 -1.19901 0.870633 -1.29599
846 1 7.05637 6.23405 -12.8903 -4.29139 -2.97904 -0.898029
847 1 -14.4783 46.2399 -13.8134 -2.72663 -1.89071 -2.30691
848 1 -4.00776 17.1629 -14.1701 -1.20488 -3.11353 -4.90652
849 1 -24.1408 -13.3199 -7.95983 2.82326 0.0958037 -3.89622
850 1 14.7171 -20.344 -20.8127 -3.22769 -1.55256 4.91364
851 1 -22.9677 19.4059 -13.1687 1.46236 1.21722 5.32062
852 1 13.9021 -4.95732 -0.0609412 1.7639 2.6034 -2.98044
853 1 12.8176 11.2251 -16.8435 2.18869 5.52288 1.02966
854 1 -20.477 -12.4907 2.64091 -1.65154 1.58418 1.10079
855 1 -16.8177 23.5774 -19.3826 -2.3299 1.65429 -2.40527
856 1 -20.8188 -3.7733 -8.66308 0.288498 -1.58642 4.93802
857 1 -24.0245 -4.91439 11.0946 -5.80425 1.384 -3.62044
858 1 16.7537 -14.1446 13.9855 -4.93528 -3.11464 0.0247631
859 1 -13.2243 -7.05867 -0.685414 -1.67787 -1.26499 -0.645673
860 1 9.46501 -9.16239 -14.3741 -3.10645 1.33739 2.84031
861 1 22.6272 22.5571 -11.8753 4.32856 1.94267 2.4855
862 1 -0.744034 13.4283 -6.56224 -3.30906 1.03184 -0.921683
863 1 18.0573 -18.3403 6.47195 0.849339 -0.329122 -2.30488
864 1 -16.8316 4.75526 19.5416 0.149613 1.11516 -3.60168
865 1 -0.490062 -21.3706 12.2633 -3.23485 0.411018 -4.82815
866 1 13.2738 -2.81727 17.9395 0.133505 3.4832 -2.38344
867 1 -1.74052 14.5375 19.4522 2.65729 -2.03732 -2.01888
868 1 3.01123 18.403 -4.4805 -2.05625 0.687133 0.773699
869 1 2.31774 16.4537 2.04244 0.962249 0.0588222 0.988684
870 1 13.1267 19.0709 17.7826 5.41122 -2.63494 1.34519
871 1 6.56327 9.96724 -20.7466 -0.318559 -4.63174 -0.668121
872 1 -3.98234 -4.09984 -20.865 -0.141017 -1.52848 -3.86099
873 1 -5.8083 1.25042 23.567 -0.558421 0.983625 -1.24211
874 1 10.8713 -0.484656 1.19177 -1.61956 -2.32429 -5.9132
875 1 17.9679 12.6488 9.54299 3.51193 -2.57258 -4.07593
876 1 14.0551 -15.6274 -8.7565 -2.07213 1.67276 -1.70359
877 1 3.23595 -18.65 16.8975 1.00294 -1.98763 2.41847
878 1 8.98155 12.6053 -23.6423 -3.28194 -3.19672 -0.867635
879 1 16.9842 6.62351 -18.2363 0.0793424 3.07573 2.84879
880 1 5.13318 14.8306 19.8089 -0.564675 -0.116494 -0.219453
881 1 -3.17502 -7.32806 18.986 2.91894 5.05254 -0.252264
882 1 -12.7208 -2.72016 0.186616 4.26082 2.50075 2.72627
883 1 17.021 16.2158 -7.31723 0.719174 -0.486937 7.86368
884 1 18.4893 -19.3478 -17.1443 2.86934 1.30812 -5.04227
885 1 -5.71043 -20.6405 -1.08282 0.145829 -3.22009 -1.97249
886 1 -7.21686 23.1795 4.41819 -5.99059 2.02057 1.56352
887 1 10.8989 -24.2396 18.9325 -1.44615 0.726318 2.47786
888 1 -7.09742 16.8812 -17.2364 -2.12713 -1.93314 -2.44159
889 1 -15.9077 -0.419717 17.5491 -3.21045 0.7952 -1.65921
890 1 14.6573 -21.6112 13.6332 -3.44642 0.706294 2.73779
891 1 -23.1293 -1.96003 4.62342 1.38314 1.22256 -1.05805
892 1 3.49302 -10.5777 -4.92489 -2.03331 -1.51688 1.89661
893 1 21.2264 -6.17855 1.19592 -1.39814 0.886748 -1.65015
894 1 2.09586 16.1815 22.7171 0.171442 4.08078 -0.0134651
895 1 2.19456 -23.7824 7.4642 5.39306 2.18407 3.97617
896 1 11.497 -0.499692 20.7469 2.03515 -3.80966 0.297961
897 1 -11.9759 -21.8611 10.8057 -1.113 -1.75659 -3.46653
898 1 16.3597 1.66863 -23.0252 0.961126 -0.742681 1.20774
899 1 16.3566 -22.2505 17.1949 -2.98453 3.00127 0.616888
900 1 -15.0462 -14.7676 -10.8849 3.39346 4.14158 3.77085
901 1 5.23964 -22.2889 8.5595 -0.568797 -0.773904 -2.56844
902 1 -9.51094 15.7969 1.55307 3.09379 -2.64096 0.226752
903 1 -8.13752 25.2518 -18.1392 -1.36462 -2.17857 -1.69189
904 1 -8.74906 -5.41328 -5.80458 -2.52298 7.17736 2.99202
905 1 -24.0067 -7.96724 -23.1994 -5.60866 -2.88925 -1.92139
906 1 -6.84922 -21.2053 18.0211 -2.27176 0.239941 -3.19654
907 1 -16.5078 2.55517 -10.1292 2.14366 0.940638 -3.2484
908 1 -7.9903 -16.1225 13.2525 4.80292 0.793913 -6.66098
909 1 16.3639 -24.0884 11.2756 0.803194 -4.41731 -2.8881
910 1 -10.1573 5.7191 -3.84992 1.30574 1.16854 3.46006
911 1 -0.649301 14.9365 -22.3365 1.95258 -0.398895 5.52336
912 1 -14.9336 23.5143 -8.423 1.44319 2.66362 -2.10165
913 1 -4.56476 21.6042 16.8955 0.276433 -1.54148 -3.08998
914 1 -24.1815 16.1325 10.4024 -1.01219 -2.64799 6.46613
915 1 13.012 -7.79733 -15.5664 1.43027 2.11814 1.40248
916 1 -15.8101 -16.1508 18.2857 0.851374 -0.676115 0.774215
917 1 22.8332 3.95936 -21.8177 0.904218 -2.38403 4.49007
918 1 -3.85746 7.80002 1.99515 -4.79899 -1.91044 -2.37025
919 1 -9.64232 16.8671 14.4313 1.3055 -0.703697 -1.51108
920 1 3.8122 16.0509 -22.518 1.11307 -1.49944 -3.3068
921 1 10.1382 -8.14328 -19.1513 4.21697 -1.74752 -3.37927
922 1 -11.9569 2.90692 -17.5261 2.81086 2.53618 8.3389
923 1 0.897678 -11.1351 2.43641 1.27465 4.88058 5.76221
924 1 -7.45871 17.3156 5.08892 -3.5035 3.55188 -0.0331532
925 1 2.64151 10.0245 -4.16847 -4.09856 -1.97733 0.849934
926 1 1.51518 -14.293 8.92087 -1.77886 1.52607 -2.38984
927 1 8.00241 14.3854 19.1885 6.75041 4.52674 -1.09672
928 1 10.1601 -17.8077 9.54056 -0.606603 0.73114 0.716279
929 1 -5.17865 -13.9884 -6.31988 -3.67273 -0.17068 -2.20376
930 1 -19.4561 -17.5752 -13.3247 6.34272 -0.158034 0.422457
931 1 18.5335 -4.46301 -7.77063 3.87833 0.272158 2.23092
932 1 -18.9968 17.0638 15.2087 -3.51376 0.505833 0.667438
933 1 -15.3901 -21.4637 -23.4703 -2.68056 -3.50106 3.07927
934 1 1.54811 17.5272 -21.4301 -3.90363 4.54337 -2.26168
935 1 -24.0291 -11.8644 -0.16394 -2.40258 2.27731 1.43586
936 1 8.52714 11.7811 16.184 0.370361 6.84136 -2.02698
937 1 3.90499 17.3561 20.6794 -2.24865 3.19078 4.90818
938 1 17.5673 10.4798 3.78795 2.34637 2.83431 -2.19863
939 1 -7.30177 -13.399 -16.9392 4.90879 4.64823 -4.58632
940 1 19.3409 3.92598 -10.1351 1.85373 0.295366 2.443
941 1 -22.2585 22.0373 8.77335 2.14887 -0.195749 -0.193242
942 1 -4.61812 -16.5289 -17.5873 -3.27804 3.0042 -0.291387
943 1 16.1342 -7.17687 2.32327 -1.32668 2.16942 -4.49455
944 1 -17.0056 -3.43189 -23.5726 1.04465 -4.06426 1.82441
945 1 6.67286 46.1994 17.1615 0.39668 -4.00562 -5.33237
946 1 -14.457 -8.21309 5.76985 3.99576 5.94585 -2.14198
947 1 -13.0623 18.3203 19.6681 -0.951692 -1.53457 -3.86086
948 1 -21.567 5.36298 -5.61918 0.522898 1.20269 -0.0827394
949 1 -3.15296 15.0449 21.9454 0.282738 4.57108 -7.78491
950 1 -20.788 6.58603 10.4316 1.98373 -4.24432 -1.6208
951 1 -9.66936 45.6966 -15.3568 0.262204 -2.76253 1.06426
952 1 11.4857 -15.595 -10.7916 0.430224 -2.27195 -1.94174
953 1 17.2687 -2.6708 2.04295 -5.87869 3.20529 0.986037
954 1 15.906 3.54135 -12.4655 2.37516 0.536467 0.95556
955 1 -12.578 18.5127 -19.296 2.16451 1.90088 -0.0277875
956 1 -10.9276 -6.7039 -10.5181 -4.35141 3.38173 -2.3719
957 1 -2.67622 -2.79687 15.4273 4.92963 -5.45285 -3.14563
958 1 2.7012 13.9682 18.3576 -2.38861 -2.27195 -0.494599
959 1 -13.2737 -15.1077 23.9099 3.34703 4.93299 1.74771
960 1 0.0265124 -21.0507 4.73 -3.29069 -1.34535 -2.62016
961 1 -7.06476 12.0294 2.94305 0.0742249 -1.83285 0.020398
962 1 -3.00381 7.34228 -8.23103 -6.50775 -2.84506 -4.79192
963 1 -16.2991 25.2123 -11.9155 2.60968 4.67399 -5.42679
964 1 12.6945 -15.7106 -22.3011 2.77954 1.2876 3.42645
965 1 -13.9137 12.6824 7.62155 -1.16976 -0.306545 -1.10176
966 1 -17.1967 -5.11753 14.9569 3.88184 1.67705 -1.18957
967 1 18.0505 -4.89473 -15.7276 3.38149 -3.63298 2.65179
968 1 -2.0999 25.0605 -14.9805 2.95304 1.23276 -3.21165
969 1 15.4929 45.773 2.47977 -5.93138 -3.50004 -1.9093
970 1 -3.01004 -23.3219 -10.4026 -1.14247 0.165919 -0.0720709
971 1 13.8101 -6.34315 21.6456 1.83997 1.50329 -4.4511
972 1 -7.05182 -18.1215 -0.0192209 -2.02698 1.67752 0.518362
973 1 -11.6776 -0.867288 17.4444 -3.7887 2.45786 -1.9514
974 1 -0.454559 24.7089 -12.8551 -2.31787 2.93773 -1.13276
975 1 -8.06777 -9.84723 8.17426 1.44561 -0.31028 1.10615
976 1 -19.5101 -4.97762 12.1083 -4.14951 1.24456 1.39046
977 1 5.24458 46.9141 12.7998 -2.87013 3.38487 1.63845
978 1 5.03869 15.3547 22.7322 5.09179 1.95269 -3.7157
979 1 8.41439 23.7102 -18.601 1.22175 -0.575376 5.03846
980 1 3.21334 23.6234 11.4728 -0.667803 1.92197 1.98533
981 1 6.52346 -6.51955 -2.52134 2.34022 -0.596412 -2.92835
982 1 -5.67266 -5.97693 5.94489 -3.19106 -3.07985 -0.573604
983 1 -21.7745 8.58285 15.4744 1.48926 0.619626 0.0703172
984 1 -14.8301 18.3665 -5.0539 -3.53964 2.66274 -1.75543
985 1 -17.7314 18.9421 12.085 1.53512 -1.60135 -0.738443
986 1 -1.55965 6.7492 12.8083 6.04134 -6.10364 -1.12258
987 1 -20.5054 -19.5094 10.4021 5.54194 -0.108461 -1.69966
988 1 -10.3997 -22.6506 8.56776 -0.702535 -2.07878 -8.32899
989 1 9.27614 -0.401175 -4.94193 -4.69712 4.62371 0.987272
990 1 11.9925 -7.36703 12.6372 2.93632 -1.94762 0.269361
991 1 -6.67116 -5.84967 8.56857 1.30083 -1.06618 5.26583
992 1 -21.6377 11.7961 5.32838 3.1823 -4.34919 -4.04632
993 1 -23.8906 0.510092 -22.8115 -4.6774 0.855028 -5.55233
994 1 22.1683 -16.6303 15.611 1.66519 -0.102327 4.43661
995 1 7.05365 2.76701 1.23539 1.85161 -0.330407 -1.25461
996 1 20.8324 10.2122 -17.5106 1.3186 -6.74481 2.50039
997 1 -23.7061 23.7362 22.5384 5.6029 1.53341 4.87548
998 1 -1.79878 11.7414 12.3749 3.46452 3.62028 -2.48151
999 1 22.7694 9.6206 6.53605 0.189534 -1.54125 1.7558
1000 1 17.1856 18.512 -9.16376 -0.135804 0.137861 -5.04422
1001 1 -19.1741 -1.09606 -6.54423 -1.68101 -1.29868 -2.25647
1002 1 -11.3902 -15.1808 1.90581 1.23744 -6.73362 0.0221631
1003 1 13.0193 -15.3595 9.6586 -3.39313 -5.24355 1.29001
1004 1 23.0851 25.6506 7.65144 -2.13074 4.67564 3.79948
1005 1 -14.7719 17.0194 1.21951 1.54691 -4.14427 -2.76744
1006 1 23.3629 10.6961 15.7248 -0.396046 -1.49838 1.27969
1007 1 14.7695 -0.618486 16.8815 -0.497806 -2.41893 1.0739
1008 1 4.33925 -4.87555 16.7229 -0.811271 4.0417 1.12028
1009 1 8.32369 -20.8312 2.76289 -0.966891 1.15605 -0.67057
1010 1 -12.5721 4.42593 -9.3611 -1.01229 -3.24885 -6.54132
1011 1 -18.5245 2.53527 -1.70688 1.35517 4.40483 6.73437
1012 1 2.58698 3.6863 0.185707 -0.814768 1.58455 4.80997
1013 1 6.3543 -16.7291 2.09327 -3.48286 -4.62403 -0.393161
1014 1 -19.5709 -23.927 3.9925 0.246053 -4.70139 -2.19203
1015 1 2.63564 6.02823 -23.2623 2.37431 -1.15414 -4.73209
1016 1 22.8492 4.92176 8.88181 5.18496 -0.983445 2.11535
1017 1 -7.85722 4.50411 17.6897 -2.9664 -0.702979 -0.436549
1018 1 -21.2584 -21.732 7.69221 0.709012 0.759685 -2.1478
1019 1 7.81873 17.907 3.71143 4.6192 -0.623911 0.179143
1020 1 -17.7132 -24.2188 8.43696 5.6915 0.928484 0.875424
1021 1 21.8972 -18.3637 -4.90241 0.644854 -3.28837 -1.67964
1022 1 -9.94061 -21.5802 -13.5408 -1.09517 2.60128 0.0183735
1023 1 11.0143 -0.680221 5.57924 -1.20455 1.17458 -0.875781
1024 1 -3.12537 7.30953 21.451 -3.64093 4.63552 -6.80932
1025 1 10.4614 4.67245 -20.633 3.93245 0.222887 0.764849
1026 1 1.87019 12.0371 -10.7117 -4.76937 -5.36997 0.403085
1027 1 -21.9874 -0.0628098 10.7044 -1.73311 -1.64384 -0.90738
1028 1 -6.69859 -12.4727 -12.4661 3.87146 -4.63211 5.29894
1029 1 12.5082 9.66705 -2.83778 4.95061 -1.58871 -0.803554
1030 1 -17.4662 -15.6079 -23.7001 -0.595824 6.90475 -0.392727
1031 1 -5.79939 -11.322 -5.26888 0.14196 4.56762 3.30316
1032 1 14.1521 6.98206 18.5247 0.165967 0.378464 -2.03783
1033 1 -3.10833 -17.1307 2.57508 -0.852872 -1.50558 0.207763
1034 1 -13.0329 11.7661 -12.1017 -2.81268 0.697959 5.12818
1035 1 9.5598 18.5881 -2.89849 -2.93807 -1.85591 -2.53584
1036 1 2.35788 -14.8142 18.5259 0.0790917 -2.93279 -2.76232
1037 1 -12.1743 -18.1449 17.1022 -4.69281 -2.80881 -1.31645
1038 1 -1.02785 9.16646 11.184 5.89902 1.50337 -2.25646
1039 1 19.1245 22.7592 -9.8036 -4.39327 -2.43775 1.49023
1040 1 10.431 -3.65213 -23.1968 0.40224 2.05784 -6.98369
1041 1 -2.3268 8.4749 -13.7057 0.827986 -2.64615 1.8691
1042 1 11.2249 -8.50006 23.8187 -5.36194 1.06152 -4.48379
1043 1 15.7953 8.97568 -4.6482 -4.83794 -0.782952 -2.15822
1044 1 -3.23514 20.835 -12.9263 2.32656 -2.30018 4.7696
1045 1 -3.463 -2.43903 22.9927 0.67544 6.2744 -1.88088
1046 1 16.9768 16.2439 -15.8527 0.344743 0.800442 2.77378
1047 1 -19.0878 0.744959 19.4661 -1.90536 1.91516 -1.61533
1048 1 -0.224971 0.70671 20.4757 0.364808 -0.764353 -0.0893868
1049 1 23.0274 -1.16584 -12.3797 1.11519 -2.44812 1.31988
1050 1 14.2651 21.4073 16.4109 -0.516192 -4.18361 0.878303
1051 1 -0.00504455 1.36965 9.58716 -0.983689 2.45356 1.04125
1052 1 -19.6488 -4.34828 -19.4166 2.16999 4.08921 -1.11818
1053 1 6.82011 6.18592 -21.0455 1.31581 -3.52747 -4.06112
1054 1 -16.843 22.0942 0.489855 -0.910556 0.587854 5.08933
1055 1 -7.06902 18.1187 13.7902 1.3308 -0.943326 2.09853
1056 1 -10.6444 20.5696 6.54668 1.19678 0.422036 -0.0959741
1057 1 -7.39286 -18.6522 -15.7534 3.54444 -2.62094 -0.345247
1058 1 0.993708 -0.821218 -9.65364 -2.12773 0.691983 -0.716676
1059 1 6.18507 -22.7016 -17.3169 1.37213 1.7205 -5.28979
1060 1 -18.8868 -8.83312 6.70961 -2.3458 2.40896 3.35201
1061 1 6.77168 8.37793 -14.9055 -1.80936 -3.4146 -0.944652
1062 1 -6.58179 -1.22129 11.3173 3.39698 -4.63827 -4.33788
1063 1 0.554453 20.4164 11.1499 -5.08644 -1.21157 -1.14973
1064 1 15.177 -18.3551 6.62125 4.67878 -2.37021 -0.111959
1065 1 12.5622 20.7342 -18.0264 0.913263 2.60589 0.991135
1066 1 12.2837 -4.1331 22.5958 -0.13719 -3.68753 -4.54352
1067 1 -22.6459 6.32196 8.27698 -0.883557 1.23185 -3.68997
1068 1 -3.00204 14.4508 1.62773 -3.42384 -1.94218 -0.410009
1069 1 -22.1632 18.3201 -17.9076 2.35942 0.790723 -1.88292
1070 1 -8.73322 7.49368 11.6637 0.502402 -0.75607 -3.11233
1071 1 -18.9003 24.212 -12.7066 1.16698 2.07094 5.52915
1072 1 13.1639 9.41768 -19.1914 -0.460663 -3.77759 -0.384192
1073 1 -1.00769 46.6184 -11.6003 5.10687 -4.74494 -0.780843
1074 1 -9.22923 11.4684 -17.4966 -0.970454 1.73895 -1.13616
1075 1 0.595266 12.7399 16.6302 -0.816917 1.15275 6.0242
1076 1 20.8442 5.97169 22.7129 0.204992 1.01677 1.8142
1077 1 15.9751 -7.92211 -8.365 5.15703 -1.14937 -3.26231
1078 1 7.39252 -8.88723 11.2303 2.53375 -2.98675 4.42084
1079 1 -14.1717 -0.782144 11.2823 -2.1474 -2.83145 5.45863
1080 1 -18.855 -5.71691 -8.2394 3.82497 -2.53898 -2.68552
1081 1 8.43384 -5.25064 15.8208 4.61752 2.3331 2.25834
1082 1 -17.2218 -17.3737 -7.39322 1.84717 -0.80854 -0.932844
1083 1 -0.209591 21.4473 -18.812 -0.949305 2.5966 -2.78926
1084 1 -2.65579 -17.1601 -4.32212 -0.56151 2.39676 -3.28177
1085 1 -9.17139 -14.8608 -1.83096 -3.80895 0.571386 3.49854
1086 1 -13.3863 8.86332 -5.49823 1.48032 -2.32063 -0.962566
1087 1 8.0672 -1.96963 -19.27 -3.35685 -0.285424 1.95676
1088 1 -21.6479 22.8084 4.43224 -7.443 -2.62902 -4.59721
1089 1 -16.0121 5.97744 16.817 -2.34527 -5.50038 3.4288
1090 1 -21.6629 -17.8086 -11.246 -0.647824 -4.38583 2.21143
1091 1 -14.9128 8.99278 6.7226 -0.85648 -3.01084 -2.27508
1092 1 -19.6166 -17.6258 -5.76174 2.90811 -4.31275 -0.721531
1093 1 23.4683 9.28025 3.50146 4.69008 -0.447955 5.36084
1094 1 -23.7718 18.6002 -23.5928 -3.01438 0.20987 0.196073
1095 1 -6.52143 23.3486 -12.6196 1.9657 2.41936 2.8101
1096 1 8.28232 17.7053 -12.7465 4.46369 -0.467624 0.525639
1097 1 15.7209 25.8528 12.7997 -2.14867 1.68449 -4.38626
1098 1 -12.2718 -4.17513 20.017 -2.90413 -0.75551 -0.524489
1099 1 16.7562 12.547 17.2482 -3.93201 -0.304371 2.73463
1100 1 8.66544 -8.44103 19.4685 3.73146 -2.13115 -4.9154
1101 1 7.76267 -15.6674 12.5892 1.78127 0.94256 -0.36992
1102 1 15.2446 -14.7882 16.5955 1.09675 1.7934 -5.12164
1103 1 20.9847 7.29412 16.247 0.744717 -1.59985 1.43545
1104 1 -22.3704 -2.75041 7.56271 -0.783913 -0.983805 -2.10955
1105 1 22.3535 0.364743 -0.428933 -2.6935 -0.906722 3.11088
1106 1 -16.1704 -18.5813 2.99995 -1.64227 -2.7819 -2.18872
1107 1 1.92061 -12.6444 0.169453 -0.403139 -7.09693 -6.02758
1108 1 13.4789 15.1022 21.897 7.71038 -0.591694 -1.06555
1109 1 -18.3912 -6.96879 4.57629 -1.38795 2.32429 2.74099
1110 1 -13.7448 25.9 9.41684 0.325928 0.238387 -2.16629
1111 1 13.4101 -8.89363 8.56072 -2.75411 -1.94236 -2.8104
1112 1 -1.38726 -18.8313 20.2413 -0.742115 0.245199 1.64364
1113 1 -19.2309 22.1545 23.7521 -1.44783 1.72355 -4.37973
1114 1 -19.0838 -1.10182 11.4112 2.31564 0.370967 1.12488
1115 1 23.1859 21.3073 -23.7609 -0.18003 -0.344544 -1.07047
1116 1 -15.7782 0.307176 6.22962 -0.841002 4.3606 -1.0508
1117 1 -3.74898 15.0118 9.75734 0.241329 -3.51683 -2.44897
1118 1 19.2806 -2.07703 -15.4792 1.58015 2.26248 0.709209
1119 1 9.66546 -13.1769 5.54818 -6.18997 0.0305615 -2.65533
1120 1 -4.8988 -12.5406 -1.50508 -1.98601 -0.512578 1.69483
1121 1 12.1204 -5.0093 -21.0889 -4.67655 -2.24908 0.610816
1122 1 -9.29326 23.3002 -1.70519 1.78804 2.08156 4.10937
1123 1 16.0731 -7.7397 -1.82216 4.33759 0.352764 -0.578893
1124 1 -1.89026 11.2643 -17.6224 -0.666391 -0.54124 -3.75861
1125 1 -23.3572 7.30671 5.56894 -0.562319 2.67357 -4.36188
1126 1 -1.29357 -14.2993 -11.7385 4.44392 8.39735 -4.53722
1127 1 13.0505 17.9454 -9.14726 -2.66251 -0.41567 0.898604
1128 1 0.651735 13.4971 -1.05075 -2.59765 3.11507 4.47761
1129 1 2.79481 -8.81575 22.4775 -0.667422 -0.600214 0.578508
1130 1 -3.15087 14.722 -16.6078 -8.05621 3.8153 -2.22576
1131 1 18.8473 -7.99692 -5.18484 0.958487 -1.54563 -2.90959
1132 1 22.1564 -5.09864 18.3705 1.4409 1.11827 0.531955
1133 1 10.7696 12.6395 17.6021 2.20309 -4.89913 -0.315857
1134 1 15.1461 -22.0862 19.825 2.02023 3.19741 3.71985
1135 1 5.3887 -1.45002 23.4716 3.82927 4.38203 -0.534708
1136 1 -18.0419 -20.5673 23.8045 -0.425329 -4.35761 1.94586
1137 1 5.25342 3.5532 3.67189 -3.7194 -2.82975 1.92375
1138 1 -21.5386 -24.2464 6.03702 7.19897 -1.33864 2.71646
1139 1 -6.98069 9.5776 4.70665 -1.99138 -5.77057 -0.992152
1140 1 16.4522 -9.34204 -20.0387 -2.06186 1.97411 -0.798631
1141 1 -21.7441 9.54887 10.9586 -1.56855 0.333623 -3.53992
1142 1 8.16366 13.9781 9.23087 1.18181 -0.890401 2.78546
1143 1 3.05465 -9.534 -13.5152 -2.02135 0.78746 -1.57913
1144 1 18.6032 0.220797 -12.6894 2.78818 -0.661403 5.47572
1145 1 2.53916 22.3796 22.8291 -2.58659 2.21846 1.94685
1146 1 9.58942 18.8172 18.6478 -1.76376 -2.13117 1.98924
1147 1 -4.96585 10.183 -1.59025 -3.987 -1.20142 -4.27651
1148 1 -11.1195 10.8326 13.3688 6.30813 -2.56833 2.54105
1149 1 1.89707 -16.0587 11.0744 -1.3308 -0.737745 -1.44438
1150 1 -13.7997 14.9148 9.34876 -1.14503 0.775217 1.82141
1151 1 -20.066 -23.1284 18.1038 -1.44466 -0.82374 1.77679
1152 1 -15.8419 13.9576 18.3307 3.96652 1.7264 -1.68808
1153 1 -3.34871 -21.1399 0.576662 1.71193 0.464759 -0.92861
1154 1 3.61784 13.4269 -21.3329 3.25349 -2.13477 3.89242
1155 1 7.90901 -22.0804 15.0164 5.74492 1.20973 3.28168
1156 1 -16.9197 -11.9537 -23.9173 3.3965 0.347426 -3.30984
1157 1 3.92779 0.429363 -11.6578 -1.47169 1.18651 2.81725
1158 1 -16.4783 1.80864 19.0488 -2.94045 -1.0227 -3.57051
1159 1 20.9092 -6.95662 13.5923 -1.87605 0.0827805 0.952331
1160 1 -9.76591 6.32906 -10.2542 -1.72803 -0.0104997 0.379564
1161 1 -7.87051 46.8058 -19.2245 1.69977 -0.225309 -5.26123
1162 1 10.1957 8.75287 2.76874 4.54982 0.542981 0.561548
1163 1 -18.8277 44.9535 13.5644 -0.799175 0.30063 0.0756251
1164 1 -19.9132 -14.8927 9.63869 1.32298 2.15233 3.23623
1165 1 15.3452 24.0215 0.0117855 1.66832 -3.96474 -4.03201
1166 1 -16.6762 25.9496 15.2884 -1.89209 -4.94953 -4.03605
1167 1 0.941662 15.4133 20.27 -1.45973 0.384506 5.21128
1168 1 11.9952 -10.6337 -1.80963 -2.75571 6.55429 -3.968
1169 1 12.8732 -8.96458 19.9265 2.4166 -3.26537 6.54228
1170 1 4.10797 15.1566 10.2576 3.01628 4.85653 0.158365
1171 1 20.626 -1.65031 -9.12581 -1.78941 -1.44902 2.80957
1172 1 -23.4554 -16.6488 -16.9671 3.90977 -4.76923 1.94599
1173 1 7.06693 -20.6666 20.3309 -3.67368 2.30704 4.96474
1174 1 -21.871 -20.5615 -18.5356 0.7993 0.42952 -0.742254
1175 1 -10.452 15.2759 22.1071 4.18143 1.94604 2.96631
1176 1 -1.84579 -11.5441 14.568 -3.93431 -2.25022 2.59914
1177 1 11.2525 2.14197 -17.5325 -3.10911 -2.84114 -4.84841
1178 1 -4.11651 7.5342 9.6122 -2.1977 -1.6145 1.44627
1179 1 7.51508 -8.715 -9.38424 -3.1776 0.216001 -1.94306
1180 1 -10.2715 45.5907 -12.24 -3.04208 2.56229 -4.69549
1181 1 10.435 18.994 -10.1509 0.101427 -3.97149 -0.669912
1182 1 20.9655 7.67092 0.370752 1.67123 -1.76725 0.820489
1183 1 4.06638 -5.66108 -14.7286 -0.404303 1.16075 -0.840825
1184 1 6.5417 20.9102 23.1842 0.540799 -2.54734 -2.58322
1185 1 14.8853 10.7203 23.3223 0.648519 2.26002 0.0246357
1186 1 4.98637 -9.98386 0.0126413 0.572988 4.58527 4.56965
1187 1 -13.5961 17.0355 -7.27761 -1.69329 -0.603883 1.53238
1188 1 3.43768 -0.99875 0.189325 1.12219 -3.51007 -0.632617
1189 1 14.7433 14.1408 3.51961 -0.259819 0.982982 3.36521
1190 1 15.2446 -1.9877 -17.2345 1.03704 1.94942 0.453708
1191 1 -2.39853 -1.61833 -20.5393 -0.903554 3.37659 -3.55894
1192 1 -14.8701 0.270942 -11.1777 1.96534 -1.94617 0.715766
1193 1 10.2274 -0.545245 18.2311 2.73026 3.71668 1.27281
1194 1 9.50951 18.2539 -7.29813 2.67834 0.54617 -1.06182
1195 1 13.6543 -10.0322 -14.0771 -0.450839 5.46308 6.70241
1196 1 5.90633 14.1813 -12.1191 -0.0105381 2.86369 -3.97101
1197 1 -19.0295 18.103 20.2247 -4.49459 6.18504 0.816645
1198 1 20.0922 -23.6092 10.4953 0.50068 -0.901853 -1.07666
1199 1 -12.1283 7.79903 -13.7403 5.61886 0.314951 -1.90043
1200 1 11.3824 -11.6408 11.8792 -1.71961 -1.47838 2.71365
1201 1 -23.8951 -18.7319 20.5729 -0.204378 -2.86116 2.70376
1202 1 -14.8026 -0.73516 -5.29197 -6.18577 -7.15564 1.29703
1203 1 -15.122 -12.8301 -15.36 2.03287 -1.58739 -7.28034
1204 1 -2.03391 23.4023 1.37662 -4.03648 1.07544 -0.94332
1205 1 -3.94741 -17.6963 12.7793 3.55618 1.0344 0.364967
1206 1 -23.1281 -20.8027 -22.5642 -0.335833 1.44449 0.796721
1207 1 14.048 -5.91492 -17.3935 0.327534 3.46199 2.50024
1208 1 22.9801 -6.71435 8.98644 0.174205 -1.79119 4.96149
1209 1 1.72101 -6.10375 23.453 2.88372 -1.40976 -0.943672
1210 1 -3.90857 21.0833 -2.22037 0.0203828 -4.77399 1.35787
1211 1 -17.8561 -11.5028 11.3589 -1.98791 -1.09119 0.801511
1212 1 19.554 6.98158 -11.0245 1.71887 -1.22947 0.348607
1213 1 -22.4047 -16.5994 18.2547 -5.49265 3.26319 -3.92938
1214 1 14.9258 -1.29711 -1.17868 -3.76916 -0.0151038 3.91162
1215 1 7.60301 10.9638 -8.12618 -1.13658 1.43328 -0.640426
1216 1 12.6804 -4.6174 -9.08151 3.42201 0.672573 0.949165
1217 1 16.347 -15.5549 2.74895 -3.8031 0.715957 -2.99764
1218 1 16.0949 -4.24562 -11.2244 -1.94572 0.925287 -0.73457
1219 1 12.1769 13.3122 9.66439 -0.983451 -2.7134 -3.71427
1220 1 -21.6103 23.6423 16.0234 -0.371066 -0.923214 3.11466
1221 1 2.2619 22.3061 -20.7493 1.44206 -1.1909 -1.38997
1222 1 18.4828 22.1793 11.6356 -0.241525 -0.649163 -5.23067
1223 1 -23.668 8.6981 9.09668 8.38169 3.94472 -0.535149
1224 1 13.7066 -8.82251 14.617 0.760089 -1.00645 -2.00749
1225 1 1.17791 -19.7121 18.8598 -0.905965 1.13563 -1.07465
1226 1 -21.7174 14.2231 2.18175 -1.85 -3.96065 -1.50578
1227 1 -2.39934 -7.56487 -0.200349 -3.0589 -0.0833234 -2.72926
1228 1 -24.0139 -20.9659 -11.8498 1.84865 1.11852 3.22535
1229 1 20.0103 -18.6932 -1.17815 -2.23961 -3.53092 -3.53458
1230 1 -13.8143 -18.5335 -9.02965 0.0978681 3.64717 -1.41083
1231 1 -20.1285 -9.50612 -5.10612 -1.54728 0.313508 -0.0374497
1232 1 -20.4478 17.462 22.6633 -0.527544 0.850626 -1.53582
1233 1 -4.34594 0.488629 -22.0136 -3.12071 -2.82839 -3.7947
1234 1 14.4776 13.9015 6.75128 2.89982 4.17937 -0.986597
1235 1 11.1533 16.3408 1.5458 1.24208 -1.57401 2.48153
1236 1 -5.5078 -19.9458 15.7698 0.277725 3.81469 -2.44096
1237 1 -17.5389 23.6645 13.4832 -5.95006 2.37844 2.01349
1238 1 9.93942 -2.07158 -13.4091 1.78961 -3.71978 -3.06138
1239 1 -2.42887 -23.7213 6.95061 -0.123656 -2.56455 3.41345
1240 1 -5.36332 -23.8517 2.93406 1.45918 -3.09599 -2.79014
1241 1 12.0775 14.4546 -19.498 1.39972 2.81102 1.74732
1242 1 6.74824 -18.5972 -14.344 -2.46557 -0.30421 -0.0750279
1243 1 10.253 18.9019 -20.6485 -3.75657 5.44332 4.16237
1244 1 -18.0692 2.14104 8.50442 -0.995886 -2.08617 -0.549989
1245 1 -18.3666 11.6875 -22.4175 -0.619482 1.30145 -2.76376
1246 1 -5.47597 -15.7187 5.03833 -0.504503 -1.00143 6.56077
1247 1 -4.35536 -0.88404 -9.4786 -5.21107 -1.63557 -5.0843
1248 1 10.3193 4.06666 18.8374 -0.222446 -3.70932 2.22768
1249 1 8.2894 14.2235 -21.061 -0.288529 0.488091 0.813552
1250 1 7.7632 3.44357 20.4177 -0.167315 -1.5836 2.22708
1251 1 21.6317 1.21196 22.9915 -1.23768 -2.35783 -3.86616
1252 1 21.7762 -20.5077 -0.168753 0.164373 1.992 0.660236
1253 1 12.482 21.7581 -2.4678 1.41436 -0.975482 0.912955
1254 1 -20.7416 -20.0911 5.4498 0.00328625 -2.70618 -4.06626
1255 1 -5.52852 -10.1477 9.11886 -1.00162 1.56673 -0.693072
1256 1 6.57078 -19.6086 -21.0455 0.398706 -0.190572 2.28249
1257 1 -5.7482 -23.5212 -11.8034 0.774432 -1.83112 2.93774
1258 1 -17.2188 9.61404 21.4785 -3.68249 2.47113 -1.5131
1259 1 20.6515 -11.3039 7.03754 0.818985 -1.27991 0.927076
1260 1 4.03022 -10.9483 -15.8563 -1.21729 -2.03018 -2.12741
1261 1 11.266 -7.32753 -9.03319 1.29257 1.63879 -1.69191
1262 1 13.0699 -15.5572 -5.89771 -6.44461 3.07838 0.368465
1263 1 -14.2724 -6.34412 -3.33592 -1.59268 -1.9448 -0.930803
1264 1 -21.8331 -11.2637 -2.0671 -3.89198 -2.22886 -2.46209
1265 1 -6.23802 14.5093 -11.2879 -1.20771 2.7549 -2.34169
1266 1 16.9395 -9.18324 4.67046 2.54638 -0.830884 -0.780826
1267 1 -23.9405 -15.2107 3.14934 -4.47595 -1.52658 1.02585
1268 1 -21.7943 -14.3322 -17.4203 -7.09609 -2.05128 -5.07565
1269 1 10.8078 -7.3137 21.2248 -0.000149014 0.373462 -0.615866
1270 1 21.4034 15.2098 12.1604 -6.86285 4.90289 -0.986587
1271 1 -1.1776 4.18782 17.3437 -2.76913 2.19919 0.59077
1272 1 22.816 10.0005 12.9493 1.38241 0.447215 1.67469
1273 1 17.2119 5.33889 19.8767 0.433364 -2.22308 1.4429
1274 1 23.1535 19.5106 -17.1172 -3.57382 1.60016 -4.41182
1275 1 2.04626 4.84851 10.8791 1.69609 1.06378 -3.10866
1276 1 -0.63984 -7.48222 -20.3155 -2.09649 3.51658 2.18099
1277 1 -9.41319 24.4571 -5.32513 -2.68057 -0.682604 -5.9504
1278 1 15.0086 -7.22135 -21.4739 2.32711 2.88451 -0.576849
1279 1 -21.5595 17.0461 -12.104 -0.291008 0.725468 -1.8015
1280 1 1.84114 -3.28047 -3.40586 -3.83483 0.557333 -1.00322
1281 1 16.8605 -10.119 20.9742 1.72472 -0.219359 -4.26652
1282 1 11.9905 -20.0466 -2.78327 -6.35542 -5.05359 2.68717
1283 1 4.42664 -21.6178 -10.6794 -2.64804 0.918992 4.97087
1284 1 6.79048 -11.3584 2.29569 0.229366 -0.225361 2.26526
1285 1 -12.4496 24.1658 16.88 1.42801 0.204767 3.33675
1286 1 -3.72002 4.60944 -15.3508 -0.312103 -1.2127 0.44659
1287 1 9.58295 -19.7243 20.5636 -2.96754 -1.39242 -2.90483
1288 1 0.262283 -4.90786 -15.1189 1.42882 -0.734029 -0.352823
1289 1 20.9393 -10.0476 -6.03617 1.286 1.08231 -4.62839
1290 1 1.39429 6.89443 6.93123 2.19786 -1.05846 4.46484
1291 1 -19.35 15.5006 1.19024 1.20019 1.27124 4.33836
1292 1 -5.63612 16.3697 -1.98854 2.28509 -0.199528 1.6145
1293 1 -8.33836 0.00484077 -1.05687 0.269851 1.89478 -5.71785
1294 1 14.3513 -11.8664 -7.64208 -3.65983 -2.14976 -3.19539
1295 1 14.3841 5.85637 -2.24499 -0.745914 -1.37708 5.85378
1296 1 -7.87858 -11.3958 4.24806 -2.65856 -0.608562 -0.646051
1297 1 14.9655 16.2625 15.4823 0.468423 -3.84131 -0.225795
1298 1 1.59374 -7.40439 -2.00996 1.5961 3.24304 1.67492
1299 1 -9.77914 -10.2958 -5.53235 3.60838 -0.869438 1.48934
1300 1 4.28629 -2.0837 -2.33047 -3.01421 1.1709 0.415317
1301 1 9.95518 16.1579 -11.1631 1.85249 1.57867 2.25652
1302 1 -1.68818 -4.20037 -23.7554 -2.65245 0.0451176 0.230032
1303 1 -6.44521 -7.73786 -15.4223 2.98692 4.80711 0.815425
1304 1 5.81448 0.117578 -3.68393 0.93212 -0.894045 2.61281
1305 1 -6.67338 4.05391 11.8229 6.61236 0.753898 -6.86904
1306 1 6.74467 -21.7477 -1.58011 4.74371 -1.58318 1.48179
1307 1 -14.8615 45.8137 -4.02945 -6.88604 -3.57498 -0.768467
1308 1 -18.5882 -2.3431 8.66134 0.655771 -5.37509 -0.3513
1309 1 -2.31704 -9.69442 -6.1191 -1.97425 1.43424 -0.154571
1310 1 -0.78108 -18.4243 -2.63287 -1.26452 -4.40124 -6.41011
1311 1 -0.390207 19.6633 -12.4934 5.51568 2.65546 -1.31335
1312 1 -16.7774 -6.58939 7.06759 4.10591 1.61462 0.483265
1313 1 16.5146 19.6614 21.2376 -2.35331 -3.06783 1.74343
1314 1 -17.1432 10.8237 -18.1587 -1.26051 -1.01117 0.138491
1315 1 -19.4636 -12.8083 -20.2058 -2.73583 -4.03383 -1.81549
1316 1 18.8228 -12.2589 -14.8779 1.87591 -2.39384 -4.82133
1317 1 -9.94874 9.26098 -14.1916 4.14092 3.19959 -0.572069
1318 1 22.3258 18.8549 -1.14434 2.98579 -0.333345 -0.255853
1319 1 12.3801 21.6436 0.55091 -0.930456 -0.785498 -1.23675
1320 1 17.1055 -8.27987 -12.2967 4.0402 1.37908 1.77959
1321 1 9.27236 -21.1391 -6.2172 -1.77751 0.11297 -0.997515
1322 1 0.676723 -14.9504 -7.08138 -3.5976 3.67864 -2.0604
1323 1 14.6275 -12.4531 13.275 0.311031 -1.66075 -1.38199
1324 1 -9.91676 -20.0916 -19.1216 4.32665 -3.8207 -5.27505
1325 1 -4.52502 16.4365 4.88934 -1.88068 -1.62095 2.4895
1326 1 -16.7829 -18.1032 22.9472 4.29064 -0.246682 -2.39096
1327 1 -9.38543 21.526 -23.3459 -0.995514 -5.59867 -4.45539
1328 1 12.2579 14.6208 5.17334 1.12841 0.663471 3.20626
1329 1 23.3123 -14.291 -1.78359 -2.40585 0.192294 1.61978
1330 1 -8.11865 13.713 -6.49952 -0.36573 0.548046 4.80048
1331 1 -17.954 5.32994 -1.91994 -1.50855 -1.40305 1.44456
1332 1 12.4658 -20.6569 -22.9272 2.46832 1.63607 0.49468
1333 1 -1.72668 9.88785 6.94278 -2.55353 0.893742 2.31501
1334 1 13.7328 -9.45899 -9.44821 -5.91205 8.86386 3.64994
1335 1 -14.8767 25.7332 -14.455 1.8563 2.15008 -0.157649
1336 1 1.52324 18.5028 -7.90543 0.154914 2.52027 0.351783
1337 1 6.83514 -19.9035 7.99268 -5.65002 1.78418 1.87721
1338 1 2.39824 6.36351 -0.87223 3.19327 2.0794 2.20549
1339 1 2.52661 -18.4799 21.1603 0.561783 3.4537 -0.797488
1340 1 -20.4713 18.5869 11.5539 0.00972026 4.34349 -1.09492
1341 1 4.37571 10.1012 11.1319 6.59308 -0.48029 -2.12869
1342 1 3.33041 -23.0029 -17.6876 -2.80033 -2.88203 2.58426
1343 1 -12.0586 -8.23436 -5.72296 -4.66842 -0.180456 1.78937
1344 1 21.77 -8.73477 2.85248 -2.40436 -2.42245 2.11413
1345 1 21.8167 1.15197 -15.7207 -1.81767 4.51845 7.3393
1346 1 15.2668 -4.39023 -15.4789 -4.27848 1.25604 -0.181348
1347 1 -16.6965 -12.092 -20.3723 1.99097 1.22772 4.04742
1348 1 4.20256 11.7368 -15.4943 5.7664 0.0196365 -1.84558
1349 1 2.53525 -11.657 8.84393 -0.336278 -1.59879 -1.62046
1350 1 -14.1296 0.644132 -2.76204 2.52561 -2.84685 0.556596
1351 1 19.4329 -15.1789 18.1487 -3.74969 -2.7673 -0.248747
1352 1 5.18313 25.3069 21.7852 0.390187 2.73186 -0.508785
1353 1 7.98029 22.867 -0.978203 1.61822 0.548 -3.7766
1354 1 -1.17035 -7.57741 -13.526 -2.9442 -1.65578 2.93535
1355 1 -6.05339 24.2288 17.221 0.427947 -4.01314 0.0926365
1356 1 -20.0846 -13.0165 -0.476772 -1.38948 -2.42344 -0.147998
1357 1 -20.0066 -9.97096 -11.1074 -3.44561 2.33248 0.510843
1358 1 -12.48 24.5193 23.4617 -1.0473 3.47727 2.92982
1359 1 -21.356 -23.5788 23.3044 2.85665 2.88926 -1.91628
1360 1 18.754 -13.2955 7.0572 -3.73276 5.28362 0.541749
1361 1 -7.46955 -22.4334 4.43409 0.272648 -0.311893 1.84794
1362 1 19.8072 22.2743 7.1416 -1.60034 -0.682244 -0.56424
1363 1 -14.3796 -10.3548 -19.8802 -4.41535 -0.233888 2.6072
1364 1 11.336 -12.8475 -12.4752 -0.43454 -0.0708797 -3.44446
1365 1 7.42766 -4.68977 -19.6405 5.52468 4.29402 -1.68963
1366 1 21.0369 -16.5236 0.220096 4.35017 0.236991 1.29734
1367 1 -9.76685 -12.4019 11.2043 5.0763 -3.60818 -4.09174
1368 1 -18.4698 16.9323 -1.10247 -0.505356 -1.80195 -2.93329
1369 1 22.5111 2.61052 -4.75172 1.22389 2.13729 0.125885
1370 1 -1.71446 -11.7832 22.5249 2.72106 -1.72276 4.05799
1371 1 -20.1406 10.3262 -4.70548 -2.25497 -1.67951 -1.49346
1372 1 -9.26995 10.9546 6.06929 9.7638 -0.0878617 4.29623
1373 1 -15.0559 -6.74105 15.8498 1.73354 0.89209 -0.221315
1374 1 -18.5212 23.977 16.5275 -0.0965697 -3.38675 -2.85046
1375 1 19.8451 -9.58272 5.01128 0.599639 -0.716508 0.571481
1376 1 6.00657 8.84994 -7.41782 -3.63675 -3.0971 -1.24872
1377 1 -14.7674 23.3788 -23.4354 1.84306 3.72691 1.18694
1378 1 9.24529 -11.1351 1.26314 3.31116 0.472448 -0.980889
1379 1 -18.1774 -18.6993 5.05266 0.42948 -0.478914 2.40885
1380 1 16.3059 21.9656 -6.33615 1.95568 1.95032 -2.44088
1381 1 18.4081 17.7309 9.81846 -0.652905 -3.06038 -2.97549
1382 1 16.9971 -12.667 9.22399 1.17762 -4.22935 -2.18755
1383 1 -6.92625 45.7386 -15.5828 -0.151917 1.94935 -3.55529
1384 1 1.7092 21.6814 -11.7686 0.699913 -0.64742 -2.81505
1385 1 -18.2138 21.686 11.3751 0.165372 -3.31417 1.99219
1386 1 -9.30051 8.65887 2.02374 -0.162164 -1.08571 1.31093
1387 1 -18.9696 0.401979 -0.297448 2.1674 5.18775 -0.651298
1388 1 10.5819 -3.609 18.4989 3.09504 -3.6718 -1.94471
1389 1 19.6096 -6.03089 -1.07946 -0.462422 -0.299572 -4.08074
1390 1 4.41809 -1.73969 11.2613 5.41961 -2.22583 -1.62387
1391 1 -12.9585 20.9282 21.0024 -5.04392 -0.482196 2.41421
1392 1 20.2469 2.55552 1.91063 0.65621 4.0152 -5.60258
1393 1 -0.674976 -6.14194 1.8734 -2.71897 -1.61711 8.38515
1394 1 5.13161 6.59807 0.218483 -0.141862 -3.61989 0.746432
1395 1 0.876311 9.86575 -6.69065 -1.00863 1.91531 -3.60303
1396 1 -18.5094 -7.97218 9.35848 3.06251 -0.0823501 -8.69056
1397 1 2.85309 21.2306 -8.426 2.65921 -3.81843 0.490489
1398 1 2.87444 21.3225 -4.47419 -0.499373 1.23887 0.239243
1399 1 -2.51412 -22.9014 -1.54228 1.2807 -1.78164 -2.02054
1400 1 -13.5113 15.73 -22.3453 -2.08488 -0.807844 0.840566
1401 1 23.3235 -21.6017 21.588 -3.73045 -0.183904 -2.53466
1402 1 -19.0363 -4.80732 -15.2932 -1.3262 2.79889 -0.390613
1403 1 16.765 45.8547 15.4803 1.70158 -2.9115 4.39627
1404 1 20.066 -10.6396 11.063 0.121004 -0.508136 1.42267
1405 1 20.1494 21.4949 -23.1172 -0.571221 2.96993 -2.31738
1406 1 -8.0405 2.74449 -12.0452 -1.86592 -0.698638 -0.853608
1407 1 -20.7361 9.16828 -2.20708 3.60549 -1.81494 2.59948
1408 1 -6.09287 -4.21079 -11.5262 0.765433 -4.02535 2.04429
1409 1 -0.306079 4.96352 -22.3614 5.48021 1.03579 -0.205044
1410 1 2.23674 -20.7168 -19.1082 1.88557 4.36193 -2.13965
1411 1 18.6635 -0.0886793 -22.5649 0.220267 2.41485 2.1325
1412 1 -19.6484 13.05 -12.9034 -1.13426 -2.38989 1.26387
1413 1 -15.0917 4.17837 -20.6273 1.72449 1.96367 2.1537
1414 1 6.54286 21.3029 4.60787 4.07702 -3.11827 0.302766
1415 1 -6.75076 -22.4287 0.695864 3.67386 -0.0218226 1.65488
1416 1 -22.4656 -8.68091 8.69816 1.87929 0.834915 1.39724
1417 1 11.224 4.96861 11.123 -0.207725 3.26057 2.12877
1418 1 15.946 -9.68822 0.446739 -7.40857 -6.9623 -1.73142
1419 1 8.63278 22.2813 -4.40443 3.16387 -1.45615 0.851078
1420 1 -10.4714 20.13 -20.7892 0.85766 6.45308 -1.96465
1421 1 23.3697 -11.3225 5.33257 1.71194 2.29119 -0.433894
1422 1 -11.3604 -19.607 -14.7273 1.20491 -0.646294 0.0165378
1423 1 7.48007 21.141 -17.7735 -0.36549 6.09565 -2.9363
1424 1 20.5813 13.1924 -7.31381 -2.8574 -0.642457 2.40943
1425 1 2.40661 5.51763 -12.8198 1.21993 -5.01384 3.68802
1426 1 4.04307 -19.5905 2.26727 3.5282 -1.43864 0.11034
1427 1 20.5263 -14.4293 -1.44229 0.668118 3.92686 3.13295
1428 1 -4.33451 -14.9849 23.4553 -4.01212 0.898993 -5.39273
1429 1 -21.3138 -17.1692 5.74355 3.80219 -2.39054 0.824334
1430 1 2.4065 15.4304 4.69247 3.5246 2.87272 -0.147413
1431 1 -7.57631 0.965174 -9.83165 2.67449 0.0682283 2.71014
1432 1 -12.951 9.2142 22.1609 -0.467169 -2.27369 2.31505
1433 1 -18.2248 -11.9936 -15.1062 -3.40537 -1.41353 -5.8527
1434 1 -24.2816 6.03804 20.301 -0.321104 -1.06335 0.395152
1435 1 16.9255 21.6158 -3.64818 -4.75459 2.50944 -0.376001
1436 1 -16.8504 -4.0646 -13.9176 -2.57962 -2.52582 1.61002
1437 1 6.08038 16.0767 -20.6553 -3.6814 0.557096 0.887999
1438 1 -2.66844 -1.71528 -11.7076 -3.24949 -4.48157 -0.491882
1439 1 -18.2375 10.7546 -13.8916 -1.20781 -4.3211 3.87016
1440 1 -22.0514 14.5233 -2.83702 -1.34893 -2.16173 0.185607
1441 1 -18.9316 -17.2339 16.3793 -2.6438 2.21909 3.3476
1442 1 -20.2025 -3.51623 -5.78209 -0.449616 -1.97444 1.59051
1443 1 17.381 -12.8612 18.079 1.90006 4.11128 2.67256
1444 1 12.2421 21.6628 -23.8351 2.48042 1.88881 -1.13423
1445 1 13.3979 -21.1187 9.05893 0.270919 -1.93159 0.778559
1446 1 3.42319 -8.75549 -10.7939 -0.223281 1.8706 -1.58063
1447 1 22.4525 -8.30877 -19.4749 3.97716 1.50135 1.97327
1448 1 -15.3085 3.26445 5.04924 -1.92842 -0.785834 1.36304
1449 1 10.363 -4.92574 2.70513 -1.59967 -2.06354 1.99646
1450 1 -6.12409 -3.20756 -8.76517 2.94483 -3.37894 -2.60858
1451 1 12.1889 19.7843 -12.6744 3.55578 3.31501 0.913356
1452 1 -5.62155 45.9172 -18.0707 1.42745 -1.45596 2.96029
1453 1 -1.54028 -21.3515 -7.68947 1.20444 4.26032 3.37102
1454 1 8.81997 -12.6626 -1.07714 1.32709 -1.96363 -2.11347
1455 1 -12.2671 -18.5756 -5.04107 -1.91738 7.39267 -0.763634
1456 1 -15.918 16.3851 11.9764 0.229032 2.18627 2.76086
1457 1 -22.4438 0.994371 -18.5524 -6.81709 2.54338 -2.5627
1458 1 -20.7892 14.1644 9.62497 2.75664 -0.693561 2.27602
1459 1 -11.7087 -13.9615 -2.99309 3.04686 -1.92454 1.96012
1460 1 -14.3539 9.55485 -14.9599 0.366495 0.610775 2.76689
1461 1 -15.2397 16.8744 23.0288 0.608839 1.714 -2.83864
1462 1 -9.69028 -16.9785 9.2556 -1.42941 -1.1549 -0.80943
1463 1 8.12112 -0.878002 13.4219 0.20065 0.097729 -1.37527
1464 1 2.83639 -18.2001 6.70702 -0.73862 0.114961 0.668198
1465 1 -21.6595 24.6569 -12.5958 1.91074 -1.04477 -3.24205
1466 1 -17.1226 -6.07232 -3.32508 -2.79869 1.94689 -2.62902
1467 1 20.7954 -14.9793 -13.2564 4.6567 2.24073 2.15776
1468 1 17.3307 25.6038 15.1499 1.94956 -1.46775 0.832194
1469 1 19.4221 12.4275 5.09689 1.51759 4.29003 3.33682
1470 1 -3.22217 -11.7201 5.23259 -1.33023 -2.13188 1.5487
1471 1 -2.25981 -7.4472 -8.11421 6.89488 -5.15666 -0.453946
1472 1 21.7866 2.77821 15.0958 0.707793 -1.71511 -5.38765
1473 1 16.5519 -21.2695 -13.9269 2.37034 0.962665 0.128895
1474 1 0.601554 22.6872 -23.0248 -2.93029 4.73061 -3.77947
1475 1 -21.2989 -23.7163 -3.39176 -1.35304 1.0656 3.41747
1476 1 -19.8964 14.0079 -18.2296 1.17819 0.641923 2.62009
1477 1 19.8056 -1.18277 0.0215893 0.916126 -2.55244 -4.17997
1478 1 0.540332 1.16707 3.18836 -1.02126 1.87569 5.63094
1479 1 10.1243 -10.8909 9.44896 4.68859 -1.84943 -0.748681
1480 1 1.81035 12.4208 -5.25066 2.09727 6.59608 1.76286
1481 1 -7.47971 14.5071 -1.1389 -2.97582 6.30096 4.22345
1482 1 4.72986 23.5812 -21.2529 1.39242 -0.075356 1.33684
1483 1 11.8415 -23.9386 -18.2202 5.22828 -6.43533 1.15906
1484 1 -5.02449 11.2051 7.65004 -3.03381 0.743016 -1.5972
1485 1 7.56974 -11.0049 23.8839 -5.01223 0.0599884 0.745949
1486 1 -18.1195 -4.55722 17.7605 0.398005 1.21812 3.11297
1487 1 -1.06394 4.74126 -16.4478 -0.222559 -4.27267 1.71481
1488 1 -17.6569 -15.3304 14.7272 3.00571 3.39885 -0.887177
1489 1 22.455 14.3451 -0.611104 -2.69759 -1.87704 1.06522
1490 1 -20.6281 6.27687 -3.0519 3.11204 -1.17986 1.17299
1491 1 14.6664 5.63234 -8.68549 0.576296 -1.17184 2.08194
1492 1 -12.7144 14.3544 11.7203 -0.650938 -0.558426 -1.89817
1493 1 -2.01208 -6.71071 -11.0179 0.372838 3.66183 -4.22235
1494 1 -9.36407 4.16646 -18.6658 0.16467 -4.8247 -0.205185
1495 1 -19.0342 -7.89065 21.5327 3.40047 1.76148 0.348184
1496 1 -3.30072 9.73661 -9.76268 -1.26516 -2.17258 -0.836106
1497 1 14.4259 -11.1604 -19.2508 2.06695 -2.92889 -3.42915
1498 1 -13.5171 7.82113 13.1315 1.65197 0.713878 -1.12872
1499 1 17.9392 6.28479 22.5123 2.40596 -0.594533 -3.55528
1500 1 -17.8528 19.8873 14.7827 2.98034 -1.56026 2.6326
1501 1 8.87237 16.406 -15.3409 1.6129 1.03556 -4.9928
1502 1 -22.5765 -5.77907 -7.64468 -3.29101 0.161747 1.45314
1503 1 9.34029 26.2596 -22.1003 -0.235403 1.61811 5.24281
1504 1 -3.90753 -22.6658 -6.83369 -2.75303 -4.54015 5.64023
1505 1 18.453 -23.148 -20.4429 -1.07598 0.00879188 4.41274
1506 1 14.6715 13.0941 -3.62679 -5.25461 -2.45636 0.412672
1507 1 -20.0402 21.5663 -6.40307 2.79785 1.57029 -1.62802
1508 1 22.7242 -10.8745 -4.09716 0.395179 0.673684 4.7184
1509 1 11.4532 21.7554 -10.6646 -1.56155 0.177962 1.07964
1510 1 -16.2818 -10.7442 0.776634 -3.29504 -2.19656 3.82022
1511 1 -22.5634 -5.86828 15.4307 -6.78439 -1.22232 -2.13207
1512 1 -11.6714 -11.1924 -1.45293 -4.73685 2.54369 -0.65366
1513 1 -20.9262 1.45713 16.9734 6.83241 1.94197 0.911445
1514 1 -14.4971 -3.27804 -8.33017 0.891258 1.94034 -5.33561
1515 1 -4.88068 -19.0189 18.4986 4.31582 3.08931 -2.73033
1516 1 -10.5562 23.9332 -22.2591 -5.2531 -2.09029 -3.0706
1517 1 -22.8234 -15.4296 -9.17068 0.0299277 -6.59868 3.27031
1518 1 -0.279862 14.059 22.6782 0.226969 -1.31422 3.94858
1519 1 -11.456 -17.9558 2.84071 -1.10222 -1.92561 -1.21666
1520 1 12.6691 3.62692 -15.6653 -7.21716 2.53496 2.816
1521 1 -8.75838 -8.72963 17.7944 4.41855 -0.321593 6.11142
1522 1 -15.3107 0.930645 -13.8897 0.651484 0.465904 -3.40306
1523 1 -7.08495 7.08011 17.0217 2.26859 1.73157 -0.102245
1524 1 -0.0942288 -19.454 8.91267 2.14663 -4.66577 2.1968
1525 1 -10.1491 -5.84475 4.01822 0.728166 -4.83883 -0.555
1526 1 18.0463 24.424 0.778997 -3.76142 0.577305 0.524565
1527 1 2.8685 1.25283 -7.34633 0.023542 3.6774 0.993361
1528 1 11.2807 14.9761 16.0077 -4.01208 -2.62389 0.527431
1529 1 -8.36128 3.46555 14.1007 -2.22267 -0.467084 -2.40093
1530 1 17.9121 17.5582 5.06346 -3.24186 -2.46402 -0.587285
1531 1 9.31357 -8.16278 9.15367 3.35743 2.71757 -1.70694
1532 1 19.6199 -6.83681 -17.5296 4.83409 -2.08889 0.0153615
1533 1 10.3184 22.4327 11.3835 0.130444 -3.19981 1.86589
1534 1 -17.017 -6.48515 12.4736 -1.57594 -0.685938 -0.474382
1535 1 1.25546 -10.0186 13.9223 -0.755625 3.09782 3.27406
1536 1 -8.84259 1.60995 -23.8976 0.542321 -2.19497 0.0466279
1537 1 -3.5399 26.0836 -17.1371 0.825041 4.77779 1.82133
1538 1 4.87815 18.0618 17.9433 -4.90976 -3.91566 -2.08782
1539 1 1.64718 7.43429 -19.1943 -3.48397 1.44741 -2.14701
1540 1 -21.2606 4.9415 23.2076 1.19808 -2.19144 2.75144
1541 1 7.24492 -19.8612 -8.08066 0.97952 1.71818 0.85864
1542 1 -20.8758 -4.06633 17.186 -0.932588 -3.4911 2.58009
1543 1 3.252 1.26395 15.7263 1.99296 0.735991 3.98682
1544 1 -4.73792 22.2409 -18.8852 0.106469 3.65548 -3.10324
1545 1 -6.29137 -14.2451 14.221 2.11551 3.85393 -0.0217517
1546 1 -13.3049 -12.6409 21.1231 -0.46863 -2.58707 5.0018
1547 1 17.4016 -2.9883 -0.849468 -3.93313 3.34908 3.25414
1548 1 18.7572 -23.5714 -6.30403 1.56314 -0.467024 -0.215241
1549 1 -2.30136 -4.09982 -15.184 5.239 -1.95776 -3.09006
1550 1 -0.124854 -9.05042 -10.5189 1.70715 -0.648609 -0.660308
1551 1 10.9351 -2.83538 -5.81208 2.60693 -1.3517 -2.21016
1552 1 18.2163 10.7746 -18.8236 -2.05757 -3.54639 0.132888
1553 1 -10.2572 19.5509 -15.8681 1.27371 -0.912658 -3.85374
1554 1 -9.75156 -7.96615 -18.336 -2.45984 -2.19917 5.02839
1555 1 -19.5119 -3.02871 -3.0764 -5.05241 -1.6502 -1.73797
1556 1 -24.0859 -18.8114 -10.0237 -0.678892 -4.13977 -3.13121
1557 1 9.10457 -21.9641 -16.631 1.46362 -4.82449 -0.59504
1558 1 9.36043 -17.2794 0.012813 8.3466 -3.3376 -1.2994
1559 1 21.0178 17.1051 2.50437 0.0928824 2.11878 -0.765056
1560 1 -18.2663 -18.8125 20.3748 1.22756 0.898824 -6.14322
1561 1 21.1194 18.4805 -3.75376 -2.85191 -3.12013 -0.0736972
1562 1 -0.29584 -3.73123 0.0134546 -0.642045 3.67745 0.371517
1563 1 -4.74009 -4.64169 12.5365 1.4079 -2.68792 1.98505
1564 1 8.72004 15.7409 -8.62023 4.13793 -3.06473 -2.65674
1565 1 -3.82585 15.0548 -12.197 -2.47807 4.93766 2.06088
1566 1 1.37486 -5.97844 8.07342 2.56826 0.993501 -1.34214
1567 1 1.16064 -10.5125 -23.6249 5.47338 3.53635 2.4618
1568 1 17.3215 22.1351 -12.0037 -2.74122 -2.38643 -0.201804
1569 1 8.42343 12.4654 3.25926 2.93952 -1.65471 6.16822
1570 1 -23.0738 2.96312 -12.1626 7.01387 -3.03301 -2.44284
1571 1 -1.93356 -10.6344 -2.73092 -0.75172 -1.75272 -1.45338
1572 1 -0.276673 -16.6027 12.6843 0.167965 0.40352 2.9738
1573 1 -11.7594 -13.2688 17.6699 -2.70738 3.83101 -2.36355
1574 1 18.6103 -18.5319 3.74203 1.401 -0.455988 2.79923
1575 1 -16.3806 14.7712 4.80628 5.38219 2.43669 -1.42124
1576 1 13.1093 18.9143 -20.2699 -0.866025 7.99169 -5.36459
1577 1 16.8095 46.8816 4.71627 2.30864 2.26906 3.48805
1578 1 16.4289 -1.41002 -11.612 4.44609 -3.18848 1.01026
1579 1 -4.71905 14.0193 -5.58507 0.713709 2.34008 0.753941
1580 1 -16.4705 -23.3342 -7.53664 4.37136 -1.80299 -3.62445
1581 1 -9.9479 -5.56051 11.5319 -0.51867 -2.58973 2.14578
1582 1 -13.6844 7.23141 -1.34648 0.909395 1.24167 1.31743
1583 1 10.9501 -3.01781 -2.61727 0.426824 1.4494 0.361556
1584 1 -5.59322 -3.32625 14.9976 -0.525228 -1.10554 0.445721
1585 1 -7.86255 -13.5691 20.7871 0.538161 1.2152 -2.73857
1586 1 -18.5804 -23.0426 -0.302207 2.9867 -1.25942 0.42762
1587 1 18.4894 -5.80269 -11.4495 -2.59466 7.01798 0.35423
1588 1 3.32309 19.6791 -20.5274 -4.80361 0.86729 0.744765
1589 1 -10.5853 -21.7006 -3.04518 -1.43199 -1.34885 -0.64298
1590 1 19.9205 9.67742 -14.6974 3.65314 3.09787 3.72742
1591 1 15.3442 12.7967 -0.0436186 1.03076 -3.13006 -4.82006
1592 1 19.0797 8.72007 14.8336 2.66484 -4.10186 -4.74817
1593 1 -0.26503 22.9767 -16.207 -0.782121 2.10905 -0.586884
1594 1 10.6315 3.60495 -1.52142 -1.14344 -3.37076 -0.452386
1595 1 7.85965 14.8362 -3.32616 -1.73257 0.961215 -1.20991
1596 1 -3.23176 -4.60448 -18.0216 3.43455 0.160519 -2.57786
1597 1 18.6199 46.0694 6.74393 3.6924 1.2656 0.936418
1598 1 4.84329 13.0756 1.59242 3.66452 -0.814532 -1.7824
1599 1 -21.7303 -3.10264 10.5577 -4.2961 0.556677 0.184203
1600 1 14.693 -16.5555 -15.4202 -5.73856 -0.668198 -4.13702
1601 1 6.99155 14.5783 -16.7497 -2.74145 -5.67421 2.1097
1602 1 -20.0107 -12.1049 -17.5871 1.26059 0.557175 -1.62312
1603 1 5.99027 -10.2321 -13.5977 -5.71157 -8.63369 0.378717
1604 1 19.5223 -14.9288 -18.3452 0.717367 6.07189 5.09224
1605 1 -1.34408 0.517742 -10.741 -0.0459161 6.30872 0.60815
1606 1 -20.5793 18.4808 5.31941 5.25178 5.48036 -2.05864
1607 1 11.5859 -22.7943 -15.5369 -1.99222 -0.579866 -6.22251
1608 1 -23.9804 3.31031 6.49093 3.26107 -0.334563 0.880635
1609 1 -21.5801 21.0166 -19.05 0.723165 1.73151 -1.24766
1610 1 -10.2125 21.1113 -13.4232 -3.55355 -0.927433 1.17148
1611 1 7.02922 10.7723 -3.55713 2.45584 -1.04637 -0.655203
1612 1 -22.2506 -19.6649 12.7797 1.48268 6.93454 2.81893
1613 1 0.256309 -15.4789 0.423955 -1.82366 -6.28981 2.60575
1614 1 -13.8095 -10.4125 3.71009 3.9945 -2.51158 4.61137
1615 1 -2.92408 -17.1146 -13.6871 -1.17739 1.33174 0.0925744
1616 1 15.1916 -13.703 -19.9574 -0.961785 -1.86728 0.166855
1617 1 -13.6259 -12.109 -10.5395 0.249522 2.14853 2.96216
1618 1 8.6576 17.208 14.588 -0.589736 -2.1846 1.8777
1619 1 13.5824 15.1498 17.5772 0.246216 -0.710887 -2.28308
1620 1 15.4958 -9.48739 -5.8863 0.362135 4.03089 -0.61103
1621 1 -17.0333 3.20698 12.0065 -3.53211 1.43185 0.79046
1622 1 -15.6759 21.5529 14.4033 1.31064 -1.44804 6.03484
1623 1 -10.7283 -16.2222 14.1819 -1.51294 -1.09973 0.0217805
1624 1 5.94016 20.8503 -20.4084 2.1993 2.09496 0.0508767
1625 1 13.4155 12.0751 -11.6351 4.92521 -4.29771 0.235306
1626 1 15.6106 -1.51566 12.5681 -1.63783 9.6758 -4.72126
1627 1 19.1047 -6.21595 23.406 -3.20678 -1.01689 0.399535
1628 1 20.2876 2.50682 -1.24224 -3.79722 1.9079 0.84975
1629 1 -6.48609 -24.0738 17.4932 -2.20043 -7.22025 0.653868
1630 1 10.5174 -10.8523 20.6001 -0.0600416 1.24727 -0.895976
1631 1 -23.0073 -19.5297 8.7717 1.97581 0.792125 -1.97034
1632 1 -4.64939 7.40143 -21.9145 1.1119 2.1852 -1.61347
1633 1 19.3687 20.1917 -20.7049 4.21633 5.87871 1.70692
1634 1 -17.2576 -9.62249 -22.1668 1.1686 -1.38759 -1.52978
1635 1 7.12416 -16.2783 -10.3627 1.7565 -1.07541 1.89793
1636 1 17.2539 -11.4125 15.668 -2.56457 3.19479 -0.0701679
1637 1 -1.35162 21.7125 -2.42559 -7.02592 1.7791 -4.18448
1638 1 16.1302 -4.12276 -19.0504 -0.203613 -1.45229 4.65552
1639 1 12.6565 10.4711 17.3257 -0.121029 7.08984 -1.78011
1640 1 -16.3888 -23.1375 -13.2407 -0.506212 0.771515 -1.74012
1641 1 20.0379 -12.5413 16.4767 2.34533 0.792924 0.807181
1642 1 -1.88618 22.5197 6.11141 0.973509 -4.04107 -0.560769
1643 1 -6.24688 23.6482 -9.69673 1.02946 2.52882 0.993456
1644 1 -16.8949 0.304166 10.6578 -4.45762 -0.821568 -3.99864
1645 1 -5.11378 -4.13693 -5.98485 0.731886 1.52535 2.62038
1646 1 -21.9956 -7.28503 -18.7362 1.58428 -1.61775 -4.34172
1647 1 17.2277 12.6395 -16.7574 -2.05148 0.525081 4.46066
1648 1 -20.4693 -15.7027 -23.0628 1.37892 0.180806 -0.506142
1649 1 -16.673 -6.0978 -9.78586 4.17764 0.124916 5.03615
1650 1 12.5971 -3.37533 -14.2771 -3.0811 -1.68834 -1.43452
1651 1 15.3655 -18.8641 -0.460095 -2.22941 -1.00491 -5.63873
1652 1 15.1271 3.71147 -21.0948 -3.95392 0.0897659 1.77413
1653 1 13.4385 -23.9076 3.09533 -4.7246 0.936131 -3.82786
1654 1 5.80489 -19.7341 12.1476 -1.43666 1.43415 2.28756
1655 1 -3.4257 14.2554 12.724 1.84701 -0.935425 -2.40512
1656 1 -4.71523 13.7455 19.7629 -0.177374 -0.604552 -3.43772
1657 1 15.6882 7.62366 -12.5371 -3.95295 5.68519 4.09103
1658 1 -18.4958 20.9541 8.53874 1.65691 -3.33313 1.76577
1659 1 -6.70391 -23.3672 7.17622 1.69129 0.142593 -1.55711
1660 1 5.2182 -11.8664 22.2774 5.70906 -0.0637406 2.70841
1661 1 23.1274 -0.974386 16.6693 0.710407 5.10505 -0.219833
1662 1 -9.14927 -23.1023 -9.01365 -2.46477 -0.986595 -3.18258
1663 1 -14.5026 -0.616 -0.32172 -0.374404 -6.69506 0.442172
1664 1 3.47441 -14.7038 -14.8158 2.63634 3.52491 1.35049
1665 1 -6.37184 8.98534 19.0087 3.3106 -1.48382 -1.847
1666 1 15.2837 -9.56168 -16.8088 0.524894 -5.12336 -1.21279
1667 1 -13.0169 -2.65657 8.32425 -3.15216 0.825713 -2.794
1668 1 -9.14779 18.689 7.78609 0.0240358 2.32884 -1.09986
1669 1 15.507 -23.4098 -12.5385 2.4495 0.30058 4.22662
1670 1 3.90081 14.4566 -4.78061 -5.42061 0.207082 -0.916132
1671 1 -15.0167 11.4932 22.3587 -2.83883 -3.5489 4.4763
1672 1 2.74972 10.8861 23.1252 -2.30657 2.43598 2.97133
1673 1 2.64085 -16.9989 1.23803 7.53675 3.88316 0.916976
1674 1 2.49437 -3.22062 -6.35243 -4.08484 -7.08548 -0.481004
1675 1 2.70013 9.33426 14.5946 1.86232 -2.81741 -0.389743
1676 1 -18.0366 2.6606 -4.63625 -1.37815 -0.24506 2.35031
1677 1 23.2032 -16.5953 10.4159 -3.34572 1.01746 -0.597296
1678 1 3.96454 24.6826 -18.3767 -0.987182 -0.414738 0.86098
1679 1 -10.0572 23.4506 18.4635 0.445827 2.81721 1.96075
1680 1 -24.1338 -16.7531 -20.6548 0.799501 0.434073 -3.97385
1681 1 -15.2802 -7.8383 -20.9369 0.981086 -0.963676 -0.45536
1682 1 8.61735 8.13627 -0.0831261 6.23607 1.28015 -2.38807
1683 1 14.486 25.8119 -16.9318 -4.54529 4.47305 -0.957948
1684 1 5.47034 15.5152 16.8179 2.90217 2.10175 2.9207
1685 1 -23.1373 16.3052 18.5031 -2.05627 -3.25084 -1.69031
1686 1 10.4883 -11.29 23.5189 0.85853 0.744492 1.61314
1687 1 17.799 -14.9926 -13.9855 -0.00382977 4.00238 -2.97968
1688 1 -17.9309 -2.02247 -12.2656 -3.67387 -6.99728 1.36486
1689 1 1.92004 -23.3945 -1.13239 -0.0351568 2.3697 -1.66707
1690 1 -6.60594 -23.1752 12.7759 -1.23842 0.395338 1.03256
1691 1 -16.3372 -10.5467 5.84393 0.609502 0.515149 -0.356162
1692 1 -6.60418 21.0416 -6.22436 -1.88513 -0.728219 -5.72289
1693 1 22.7957 11.8808 22.3108 -1.89373 0.674218 -2.78067
1694 1 -14.3046 4.4033 -11.6758 3.50327 3.72237 1.47472
1695 1 17.8333 46.6451 -8.81198 -1.80901 -6.45488 1.00523
1696 1 13.6494 0.335384 1.90524 2.8664 4.22619 3.98505
1697 1 -11.6083 -21.8428 6.11106 -6.79497 -0.949875 0.159117
1698 1 -9.73724 9.88472 -1.86 2.02349 2.68294 -2.6153
1699 1 12.9535 -0.434012 12.9592 -1.30251 -0.961873 0.618087
1700 1 15.0072 -1.68627 -14.0978 -0.819774 -1.46547 -2.1296
1701 1 10.895 23.7725 -3.48033 -4.50799 0.445281 -4.60439
1702 1 3.47144 -21.092 10.3912 1.18986 -2.31357 2.82366
1703 1 3.81699 4.79926 -16.484 -2.30257 1.73773 -1.67662
1704 1 -8.96889 -9.10068 5.50612 -1.83399 3.61004 -1.39554
1705 1 -1.8768 25.3013 19.5187 1.64941 -8.13762 -0.130467
1706 1 9.09183 9.27567 -20.0213 -5.03745 -1.0844 -7.52075
1707 1 -11.5726 -8.73659 16.67 -1.32791 3.82683 1.82761
1708 1 -7.63148 25.63 15.2707 -3.05779 -1.36966 -1.24514
1709 1 15.7294 18.8471 -0.662859 -4.91147 -0.744847 -0.839065
1710 1 -7.66368 -20.1169 -13.4467 0.39307 -2.07226 -0.344621
1711 1 -1.67757 2.9103 3.39102 -0.802094 0.01243 -2.94073
1712 1 9.67523 16.2912 -22.4293 -1.60977 5.12822 4.65173
1713 1 21.0902 17.404 9.97366 2.33978 2.63322 1.17366
1714 1 7.65009 0.527959 -12.1356 -2.50462 -3.24743 -2.54723
1715 1 11.1857 26.4291 17.1226 2.46423 -3.76354 -4.80988
1716 1 15.4186 46.7552 23.8578 -0.118716 7.02627 10.109
1717 1 11.1115 -17.0849 -2.45521 1.57594 -3.18399 4.29753
1718 1 5.56025 -19.4241 -11.7858 0.633126 0.417734 -1.93063
1719 1 22.5829 8.41711 -2.27696 1.2835 -7.63505 -3.24496
1720 1 -4.23848 -23.7196 8.86322 3.45931 1.55257 -3.50203
1721 1 6.55762 2.42238 10.6568 0.356767 -4.18023 -0.616313
1722 1 20.29 -23.9682 15.0172 1.16637 -2.70588 -2.05598
1723 1 -23.6734 17.6105 2.6506 -0.406639 -3.98267 -1.22196
1724 1 -17.3461 46.5543 -5.06105 -2.80536 -0.224971 -4.73332
1725 1 -15.1209 8.32305 -21.6563 -0.497534 2.20235 -4.71369
1726 1 17.8458 21.5904 22.7646 1.80123 0.904639 2.28796
1727 1 -24.2909 -5.60889 -18.9867 2.78419 0.273555 -3.59706
1728 1 -22.9616 -9.89656 -19.3968 -3.08205 -3.80275 0.552332
1729 1 -14.7218 10.4574 14.1641 0.701243 -0.0941024 1.26134
1730 1 -5.12721 -7.64511 -22.9403 3.79282 -2.6384 1.4098
1731 1 21.9317 4.36369 -2.36995 -1.64682 -1.26882 0.627212
1732 1 14.3893 -13.7593 7.59898 -1.03114 1.84389 0.757558
1733 1 -10.0686 -14.2929 5.70848 1.77436 -0.469813 2.0506
1734 1 -8.38233 25.0918 -21.1167 0.686885 1.78319 -4.60151
1735 1 2.20083 19.9739 -17.9508 -1.37704 0.870806 -0.134225
1736 1 18.7442 2.16223 9.7938 0.710707 0.315093 -2.01273
1737 1 -18.0728 0.733774 -8.53788 -4.6936 2.51032 6.85271
1738 1 6.36216 12.4195 -22.2681 -1.48143 1.50821 -3.08072
1739 1 -9.49648 -17.3476 16.3934 -4.38428 -3.29446 4.36711
1740 1 3.06691 22.6551 18.4294 1.68233 -0.0768336 1.53615
1741 1 11.7318 12.7798 21.4871 -0.656621 -0.730889 -2.06937
1742 1 0.4245 -7.95933 21.1227 -0.496558 3.97492 1.47787
1743 1 19.5721 -16.052 7.06757 0.565956 -2.5034 -2.53382
1744 1 13.8247 24.4719 -7.01419 -1.2658 2.61286 -0.875051
1745 1 8.77012 12.6744 -6.12225 -2.41509 -4.08905 -0.44953
1746 1 17.1339 24.3915 -13.4598 4.36928 -3.1719 2.39869
1747 1 4.45526 -14.4468 -7.46402 -4.79813 0.210475 1.9927
1748 1 14.7661 0.364341 -4.7755 -2.75023 -1.01013 -0.609346
1749 1 19.8097 10.9857 12.9127 3.01538 1.05996 2.33906
1750 1 13.5629 25.6724 10.9756 -0.216073 -2.02609 -3.50915
1751 1 0.602528 -11.6104 16.1366 -1.83994 -1.57672 -1.95254
1752 1 -23.7685 16.0288 -18.8727 -3.11208 -4.4686 -0.338467
1753 1 -22.4158 -14.6812 -21.1237 1.18563 -1.89707 -1.50388
1754 1 -24.1709 10.6505 -21.0954 -1.86828 1.63562 -2.55604
1755 1 -10.0003 -0.867668 -9.85919 0.390006 0.0539085 -0.914064
1756 1 -17.1133 4.63247 6.98028 -1.155 7.70338 3.67955
1757 1 16.8379 -17.5804 -6.79805 -1.37938 3.10331 4.54297
1758 1 21.1926 -24.1787 6.51233 -5.03114 -2.1244 -1.26036
1759 1 21.8545 8.41172 10.9015 -0.445607 -2.32205 1.37761
1760 1 -15.6275 -14.0207 -22.2532 -3.75317 -0.312638 1.12255
1761 1 23.0409 -18.3889 -22.7379 2.70138 -2.83666 -2.73401
1762 1 5.66953 18.0383 5.91435 -2.7295 3.51572 1.0158
1763 1 -3.36249 4.49783 14.1236 1.57732 1.04202 -1.7519
1764 1 -15.8616 18.5097 -11.4919 -5.38523 4.44429 2.61406
1765 1 3.45634 -14.9204 -4.64679 0.353194 2.11152 -10.0705
1766 1 -19.6637 3.53487 15.1571 -3.66618 0.182043 6.24659
1767 1 8.86213 26.4403 18.8654 2.19019 5.08386 1.11679
1768 1 13.1145 -2.04332 7.0028 5.32188 3.00408 1.91268
1769 1 -23.4947 18.9364 14.4965 -0.358698 0.0395609 0.139491
1770 1 -6.2043 -1.29979 22.0878 2.61889 -4.57461 2.46268
1771 1 0.751942 23.001 10.0031 0.221165 1.68067 -2.08966
1772 1 13.6045 -22.3079 0.745146 0.0920626 0.942907 -4.48587
1773 1 17.0378 15.382 10.4156 -1.08651 1.12886 0.587558
1774 1 16.3489 -20.1405 21.5637 -1.5715 1.8708 -3.73912
1775 1 8.75834 13.4854 -11.6124 -1.99406 4.23306 4.99477
1776 1 11.9603 12.02 -4.54253 1.84912 -0.32421 1.89792
1777 1 -22.899 -12.158 15.567 -2.98777 1.10894 3.6496
1778 1 -16.9482 -7.66748 -12.0069 0.416687 0.50377 -0.668782
1779 1 4.09429 4.08391 -9.71746 0.609086 -0.962215 2.06816
1780 1 6.31067 6.03874 -6.51576 -2.86646 1.42965 -1.83623
1781 1 7.90261 20.0554 -22.198 3.2264 3.30657 -4.01422
1782 1 -23.4193 -15.4604 -12.256 1.88164 -3.72093 0.512923
1783 1 15.6958 6.09735 -5.80322 -0.718815 2.02852 -0.402354
1784 1 -11.463 14.8584 15.4782 -1.40566 3.14706 -0.42889
1785 1 -5.35964 5.8207 -8.86418 -0.490952 3.40159 -1.98402
1786 1 -4.86107 2.24679 -6.45736 3.10514 2.21746 -0.91483
1787 1 7.94435 20.0275 -11.1893 0.925808 -2.50336 3.47765
1788 1 -14.9763 -17.1054 15.8069 -2.13773 1.41559 -3.71188
1789 1 23.5126 -1.61988 -6.10857 2.7027 -4.87003 -0.424824
1790 1 8.29601 3.8269 -15.4603 0.000144157 -3.18512 -0.0832714
1791 1 1.64154 -7.44902 -15.216 4.23155 -1.47041 -1.69121
1792 1 -14.2685 6.4012 8.11181 0.525643 6.65716 1.22545
1793 1 19.578 7.29335 -21.1859 -1.14685 -2.62816 0.403234
1794 1 19.0201 2.32963 23.7632 -3.25924 -1.74744 -0.185709
1795 1 18.5598 -3.14489 -10.4835 -5.26684 -1.1505 -0.22435
1796 1 -21.0533 -12.6209 -22.6611 -5.32871 3.81247 4.07119
1797 1 0.214137 18.956 17.3393 2.58197 -0.421498 1.49756
1798 1 16.6403 -6.9589 -18.0086 -4.50495 0.800293 -3.86143
1799 1 -11.695 11.0736 -15.6461 -2.1156 5.76033 -0.995539
1800 1 -0.409614 4.2376 14.2922 -2.23181 -3.42139 -0.702361
1801 1 -9.7112 -19.1342 -6.44838 5.04016 -1.7245 -2.27578
1802 1 -14.5505 -21.0585 -12.4832 0.45275 -0.514191 0.259875
1803 1 -12.844 14.156 -7.98333 -1.52302 3.8046 1.01861
1804 1 -1.33214 45.5614 -16.3635 3.55523 -0.512592 -0.475842
1805 1 11.0306 2.59873 -6.3783 2.44979 -0.0433811 -0.443557
1806 1 11.3684 -5.43171 16.3264 -1.99874 0.548295 -1.09687
1807 1 -16.7797 -7.46603 23.5883 -3.6687 -0.141627 2.36102
1808 1 22.792 -13.6996 16.3596 1.86117 -0.892833 -1.24079
1809 1 9.84606 16.4793 -0.924816 2.7386 0.767685 2.59848
1810 1 10.974 -23.3843 -6.7611 -1.82263 -2.91954 -4.40366
1811 1 0.359543 4.517 20.9672 2.64941 -1.25301 -2.55959
1812 1 -12.6057 -4.36641 -19.7627 4.21391 -0.590556 -4.00191
1813 1 -19.1388 9.01419 16.5637 3.34689 1.78271 3.35902
1814 1 10.266 5.12051 -7.91324 4.89083 3.26203 -0.884358
1815 1 14.6816 -9.163 22.5394 1.19684 1.14766 2.19457
1816 1 2.14736 17.3718 -10.5089 -0.985224 0.481015 3.03213
1817 1 -0.447687 17.4225 -17.1921 2.26061 1.74544 -0.599835
1818 1 -21.9298 -11.9458 6.36647 5.56169 -4.02507 -1.94518
1819 1 -13.3072 -10.6235 17.9453 -2.08795 -0.792258 0.367334
1820 1 15.9025 10.6058 -12.325 -2.18077 0.841016 -2.39363
1821 1 19.9996 25.2477 10.6166 3.31807 2.28263 -3.14589
1822 1 15.3558 -2.18064 -4.06862 3.07532 -3.04456 -1.38663
1823 1 8.00814 -22.5887 9.34618 -2.83277 1.08299 1.28982
1824 1 -16.0976 -16.8396 8.52976 4.6869 2.42933 2.76425
1825 1 7.80828 -11.5556 -4.97442 3.4184 -0.933236 1.36593
1826 1 20.9783 8.99675 2.8611 -0.782518 2.00567 -2.9999
1827 1 16.6619 -22.3511 -2.47397 1.49785 4.25113 -2.77603
1828 1 -12.5278 -21.3835 -19.4348 0.189711 -2.41462 -1.66348
1829 1 4.85941 19.9051 10.4066 -3.48409 1.15076 -0.154241
1830 1 -17.4636 4.95927 -15.9272 1.72336 -2.97184 -3.6086
1831 1 13.75 -15.7275 -2.97974 -1.51808 -1.05433 -2.68973
1832 1 -21.8769 -12.8828 22.2152 5.15143 4.79674 5.33729
1833 1 -13.9 5.29294 19.3017 -1.26118 0.126143 -0.664709
1834 1 7.49827 -7.9032 -19.6135 2.10834 4.77332 -0.42458
1835 1 4.31077 25.0932 19.2395 -6.28281 -1.72849 3.95732
1836 1 -9.75485 44.7962 -19.3239 -2.06901 -4.96449 5.37539
1837 1 13.7561 -23.8391 9.97956 5.32891 -1.38943 5.75944
1838 1 18.781 22.0882 2.05982 1.84274 -1.53538 4.63086
1839 1 19.1872 24.8964 3.58858 0.268102 0.289517 -1.88592
1840 1 -17.6919 -11.9172 3.81075 2.18588 -0.267402 -1.24539
1841 1 8.67145 -23.5326 -10.0518 -1.94245 1.02185 2.4806
1842 1 15.0034 -20.3071 2.23537 -0.126913 -3.42206 1.00932
1843 1 4.3174 -3.97397 -17.3009 0.546297 2.18516 1.81279
1844 1 -2.67947 -3.47744 6.11124 -3.80248 -0.413417 0.845654
1845 1 22.3803 17.8741 -20.401 4.22674 -3.62023 2.42843
1846 1 11.5215 -19.8956 7.50849 -2.32117 1.52764 -1.26803
1847 1 20.1985 -17.2061 20.0409 -3.23937 2.01174 3.97633
1848 1 4.12214 9.11703 -18.853 2.90971 1.2729 1.24064
1849 1 12.4407 -23.7518 -12.9806 1.10916 -0.790041 3.92114
1850 1 18.3331 -20.2339 -7.56518 -0.564835 2.83812 -1.12381
1851 1 -5.24793 3.61825 0.42151 3.07016 -3.13777 2.95378
1852 1 -0.245637 0.0364873 -19.5239 0.0839167 3.31731 -0.910313
1853 1 4.6754 -11.4451 6.95924 4.99529 -0.87263 7.9352
1854 1 2.44163 -24.0381 12.9451 0.156099 -5.56451 -0.0450704
1855 1 3.18822 20.8646 -15.0609 5.36349 4.02504 0.976803
1856 1 6.39108 -6.14844 -17.5066 1.26397 -0.896427 1.99079
1857 1 -0.809933 -19.7745 0.448434 -6.77195 5.94295 2.32348
1858 1 2.62847 -17.2161 -14.4506 0.451394 7.70561 6.88807
1859 1 7.50423 -16.405 -16.2382 0.511973 6.15788 3.68833
1860 1 6.97081 -0.631038 10.8883 1.74022 -0.971101 -1.89875
1861 1 -16.9231 -21.7494 -18.5542 1.25335 4.49454 -1.68405
1862 1 -11.7785 -2.57815 -8.13345 1.45775 0.196973 0.215371
1863 1 -3.63258 -16.608 -7.11048 -0.872341 -4.59302 -0.232196
1864 1 -7.47069 13.0978 20.2245 5.40498 -2.80881 0.355485
1865 1 -10.5597 -4.20815 7.45554 -0.802656 -4.36984 2.22705
1866 1 5.82421 23.3994 12.177 7.9658 5.68334 2.86997
1867 1 6.66513 -10.7587 -2.20822 -7.69866 -3.98342 1.04528
1868 1 -5.37332 3.62483 16.3705 0.0147374 -5.25111 -3.25415
1869 1 -1.55503 23.8076 17.2718 -2.68412 1.60726 -3.80161
1870 1 -21.8096 11.3388 15.2279 0.860744 0.396099 1.28
1871 1 16.8967 -13.1154 4.58655 2.64452 -3.08788 -0.967253
1872 1 0.976019 -10.9237 -12.1654 -3.87389 -0.0466962 -0.623344
1873 1 -10.579 18.4025 10.3511 -1.93536 0.567616 -1.31761
1874 1 -8.14227 -17.0736 -20.5799 2.95761 2.78838 3.41937
1875 1 22.4363 -7.12103 -9.83108 3.09832 2.08055 -3.04264
1876 1 -21.5472 9.67839 -19.7188 1.37907 -4.65473 -5.27614
1877 1 -14.8622 -4.67107 9.48383 -0.835427 2.77021 -0.528688
1878 1 20.0692 24.7303 -0.933816 -2.41293 -4.04007 0.445317
1879 1 -18.0377 -16.796 -21.0828 0.884583 -4.68255 8.10644
1880 1 -2.56325 25.9881 -19.6953 -1.4024 1.50808 -2.15463
1881 1 12.4933 4.23358 16.9464 2.09678 1.34112 5.48553
1882 1 -10.2295 9.96378 18.3843 5.4627 -0.697399 -5.91953
1883 1 -8.06323 -13.5409 -6.10206 -2.08753 -1.68318 2.99571
1884 1 16.1825 17.5959 7.46331 2.20375 -4.70103 1.87093
1885 1 -8.53408 20.3332 20.9384 -0.623046 4.87831 2.88903
1886 1 18.6964 24.8332 6.54645 1.08854 -1.30736 -2.02041
1887 1 17.9524 -7.80059 13.1733 1.40177 -1.88197 -0.750721
1888 1 -7.6529 -18.0879 -11.3435 -1.60593 -1.81898 -8.15265
1889 1 -10.9203 2.81708 9.65187 2.90238 -1.67487 -1.22271
1890 1 -22.5106 7.34768 22.2574 -0.908112 -3.86947 -2.34603
1891 1 -8.21152 -13.5283 -22.1387 -7.14786 -3.66023 -1.50202
1892 1 -1.20385 -16.1774 -16.6764 -1.62921 2.14422 -5.77941
1893 1 4.35349 -0.164653 21.2494 -4.81344 0.385345 -1.0808
1894 1 2.27157 -17.6018 -4.26269 -2.83383 -5.04536 -3.35837
1895 1 -18.8488 -7.49951 17.6434 1.77546 3.91477 -0.193739
1896 1 15.2892 21.2782 1.10724 -1.93959 -3.12184 -4.3361
1897 1 -13.7949 46.9094 -7.6948 -0.286401 2.27205 5.99167
1898 1 -21.6414 21.0418 11.3758 -3.17392 -0.415212 0.187958
1899 1 -7.42755 18.2484 -4.93143 -3.00701 -0.560416 -4.59698
1900 1 -13.7478 2.37048 7.40708 2.54387 6.92647 1.32868
1901 1 -10.0101 -14.3926 -17.5964 -0.406587 2.5626 2.17621
1902 1 22.3248 -2.79266 -19.4605 -2.75327 1.28292 -1.51332
1903 1 -0.211385 -18.9342 -17.3383 -5.54652 -0.10482 1.89369
1904 1 -9.91378 -20.7902 18.4044 -0.403546 0.933286 -1.28047
1905 1 -12.1636 9.58424 -9.93517 -1.1499 5.62352 5.61922
1906 1 -20.9948 44.9695 11.3239 -6.46556 -0.852399 -1.62758
1907 1 -20.7459 -8.37418 12.7949 7.72749 -0.284319 -1.30887
1908 1 -15.2244 -3.04974 2.27326 3.8485 1.79038 -1.50582
1909 1 9.34455 -8.45983 13.2047 -2.85147 1.73216 1.08185
1910 1 -9.97528 -11.7183 13.996 -0.560062 -4.35077 -3.89561
1911 1 19.2425 -1.34445 -5.1347 2.36672 2.96154 -0.187523
1912 1 -15.247 5.02262 -0.789149 -1.73813 -1.52492 6.42582
1913 1 -0.851623 20.0466 -0.114543 -2.55352 3.31361 -2.92988
1914 1 18.3811 7.74012 3.65735 3.95417 -0.688176 2.40918
1915 1 21.1009 -22.3755 -14.5216 -2.36043 -1.90468 2.8839
1916 1 -3.92328 17.0187 2.26545 -2.92399 -2.28778 -3.92014
1917 1 22.2123 24.0097 17.927 -2.11868 0.199761 2.61908
1918 1 -20.4708 -0.0447637 -20.2507 -1.24079 -3.48032 -4.59881
1919 1 -21.4234 9.62026 -14.8598 0.597525 -1.76502 3.68441
1920 1 -24.1635 -16.8651 0.782328 -1.98546 -2.31431 1.89161
1921 1 16.3338 10.9594 -9.4411 4.79519 9.04652 1.80706
1922 1 8.73992 16.9055 20.4792 1.98078 2.18862 3.13414
1923 1 9.72215 0.626137 -10.0265 1.63568 2.86199 2.48356
1924 1 -22.6477 -18.8753 1.96246 2.24847 -5.95923 0.510584
1925 1 21.1886 -22.9366 18.2156 0.616025 1.92118 2.314
1926 1 13.2799 -2.40769 -7.58327 -0.736634 4.83754 -1.78577
1927 1 -5.0584 -22.3714 -21.5104 1.39579 -1.96585 -1.68692
1928 1 23.0945 -4.51223 4.70315 1.38612 1.47451 0.206576
1929 1 7.87455 17.8108 0.789574 1.07169 2.59514 -1.94309
1930 1 -7.56433 -16.3837 -17.6973 4.39572 -3.25798 5.35882
1931 1 -9.24799 7.18293 -1.91998 -2.60202 -1.84861 -4.81029
1932 1 -2.57538 19.979 5.13307 -2.04162 0.21586 1.74943
1933 1 -1.92143 19.1973 -18.8967 0.646757 0.639554 -2.16192
1934 1 3.25471 -9.7315 -2.28748 -4.92266 1.82879 0.430198
1935 1 18.8592 -16.3198 2.05363 2.82843 3.14551 -1.90253
1936 1 18.5314 -21.9628 22.9073 -1.45611 -0.0990227 -0.971747
1937 1 2.38554 3.48699 19.221 -5.25562 4.28264 -4.20365
1938 1 1.36634 7.29075 17.7983 -1.61492 4.0656 -2.89421
1939 1 11.0847 9.65854 -0.159779 -0.649151 -1.16347 0.684
1940 1 -20.7008 46.0753 8.74566 4.27796 3.04339 2.41483
1941 1 -2.27814 45.6623 -13.7558 -0.741934 0.635682 -4.1863
1942 1 -2.76559 9.17988 -0.286658 3.6171 1.16595 3.33725
1943 1 3.42845 16.546 -6.69222 -1.05361 3.81716 -2.58304
1944 1 -18.5423 -23.2654 -3.08383 0.187954 -5.33787 -3.1062
1945 1 -22.3992 -22.1294 19.8091 1.06352 0.910155 6.73658
1946 1 10.0916 9.44973 -7.46394 -1.02144 -0.331837 -3.76376
1947 1 -17.5573 12.4456 -15.9761 3.11274 5.14633 5.21928
1948 1 10.6838 0.0364701 -15.3447 -2.32505 -6.82991 -4.67706
1949 1 -8.06795 -5.49993 -8.75839 3.85196 4.579 -0.257361
1950 1 19.4926 24.1818 -7.47646 -2.06126 -1.43918 0.952461
1951 1 -2.85412 -14.3124 15.1468 -1.04823 2.13011 -2.6425
1952 1 4.13877 -15.9147 -9.88528 -0.669264 3.3305 2.62407
1953 1 17.9924 -20.6136 -0.567425 -2.95041 1.64237 -2.76242
1954 1 4.6654 5.90153 9.82487 -2.75859 -0.754741 2.65142
1955 1 -11.0518 -16.9528 21.372 1.11355 0.307804 4.56199
1956 1 -4.08619 4.0683 9.2362 3.36568 -6.37451 2.17037
1957 1 13.8719 16.1351 8.64856 -3.74974 -1.41756 -8.36849
1958 1 14.1676 6.47183 15.7524 3.84488 -3.22032 3.05223
1959 1 -22.1658 -4.1511 -2.4469 -0.500695 -1.51036 -2.75005
1960 1 -16.7198 -4.13217 -19.5195 1.67345 -1.34943 -1.07398
1961 1 15.8629 -14.9515 -6.83754 -3.13244 4.00701 0.566529
1962 1 -1.61909 -12.143 -5.10457 1.2956 -0.667782 -3.41151
1963 1 -0.146213 15.3061 1.07337 -2.62715 -0.336566 -1.06539
1964 1 20.4194 26.4156 -15.8854 -1.39962 -0.29766 1.66858
1965 1 17.6851 -2.59638 18.4218 1.84722 -3.00205 2.37702
1966 1 -18.0414 -14.2136 -11.7498 -0.882214 -2.96815 -2.16405
1967 1 -15.3359 -23.7667 17.0422 -2.77299 -5.32489 -1.00362
1968 1 -23.27 12.0681 12.1344 6.35187 -1.68335 -4.56305
1969 1 -4.57283 -8.27945 10.9504 -1.43162 1.47529 -4.33771
1970 1 -23.7679 -6.64381 -2.7553 3.57179 0.746487 -3.05996
1971 1 21.7526 -4.75593 7.20092 -2.39297 1.99296 1.54153
1972 1 -4.2281 -5.65891 9.98481 1.07944 4.10291 -0.756841
1973 1 13.6941 -19.4831 18.8521 -3.41219 1.75186 0.940205
1974 1 15.6445 -10.9128 11.1437 2.72536 5.63488 -2.29906
1975 1 13.1589 -17.7335 -20.2255 -2.48387 -1.67854 0.669181
1976 1 22.8602 -9.73265 22.5314 -0.181381 0.031571 3.92791
1977 1 15.358 -16.6206 13.9054 4.48761 2.20389 -1.05804
1978 1 9.47681 -1.98047 22.3928 1.37859 2.72743 -1.6431
1979 1 -0.808879 24.287 11.8976 1.35218 1.43786 -0.411986
1980 1 -24.2343 3.32319 -19.2689 -2.23534 -2.52426 -0.269981
1981 1 14.8648 23.3282 -2.6699 2.54572 2.32661 -4.24459
1982 1 -19.8753 -2.74297 23.4335 0.492294 1.42105 -1.47269
1983 1 17.0806 -6.24722 -4.1255 -0.197883 2.22091 3.11246
1984 1 1.09944 22.9011 20.5284 1.13729 0.305176 -0.352192
1985 1 0.790684 -23.1142 -7.58391 -2.02917 -1.75653 -4.45815
1986 1 12.9415 -4.92653 4.29849 5.80093 5.22143 -2.62967
1987 1 -21.4336 3.8622 7.59685 -3.29509 2.96236 -4.18085
1988 1 6.84998 16.2554 10.76 -0.526714 -1.49273 -4.01162
1989 1 -11.6522 -14.3371 10.6936 -1.54409 2.55012 -4.40194
1990 1 19.7511 -15.1725 -4.09092 -1.18155 1.19629 5.66316
1991 1 -20.8593 -24.2816 20.6904 -4.16985 1.61335 -5.19726
1992 1 13.9159 21.7378 5.57847 -6.51769 -2.09831 -0.222325
1993 1 3.73289 12.4403 -12.6435 1.48937 0.0576779 3.88242
1994 1 -23.8832 -18.0127 4.52175 -1.31477 0.462211 5.08958
1995 1 1.51019 6.15028 13.2058 -3.71976 -4.99659 3.61313
1996 1 -9.31573 6.53833 23.7149 3.75475 -0.0740437 -1.03819
1997 1 20.4795 26.3893 8.12998 3.3111 -2.22354 0.683565
1998 1 -12.2511 10.9548 -0.862199 7.10212 1.7829 -0.770555
1999 1 -4.61367 -10.515 -23.6566 -2.50554 3.01336 0.146471
2000 1 2.25018 2.66806 -17.5769 3.17056 3.54539 -5.51869
2001 1 -7.22901 -13.1096 -3.19804 -1.37972 2.13426 3.86836
2002 1 -24.1297 22.5405 -6.90914 -0.0257664 -2.10318 -0.166965
2003 1 10.5769 -2.10848 -10.5015 -2.30831 3.67648 -0.00905577
2004 1 1.39784 -24.009 23.4968 0.112246 1.37423 2.22343
2005 1 1.20757 -5.86625 19.0645 -0.620933 2.0191 1.2935
2006 1 10.255 -10.5094 -6.07736 -1.39385 1.55046 -7.8294
2007 1 -8.75533 13.685 -12.098 1.93279 4.96892 -0.726902
2008 1 -10.9397 23.2763 12.8307 -3.15288 0.862895 1.1698
2009 1 -2.48031 3.27246 0.834665 1.98815 2.4397 -0.0163071
2010 1 -7.66294 4.25502 23.4244 -0.248275 1.75427 6.78193
2011 1 -1.50112 8.79755 19.6677 6.22037 2.58495 -0.561745
2012 1 19.3154 -21.3845 14.2026 -0.474674 2.71656 4.77257
2013 1 -15.4572 22.7353 2.88654 -4.19621 -4.09772 -0.45363
2014 1 -9.00208 -7.36485 13.5848 1.78084 0.591194 -0.0731055
2015 1 -3.8492 -5.74104 -2.17665 -3.5908 2.30602 -1.67054
2016 1 -6.39565 -17.5867 -6.77506 -0.829634 0.285372 -1.79881
2017 1 12.1858 10.4787 22.6247 -0.855169 -1.32339 -4.66012
2018 1 -18.3268 -2.02902 5.73692 0.387698 0.171531 -4.22155
2019 1 0.817845 25.7635 20.1851 0.96187 -4.10019 2.70519
2020 1 9.22012 -14.4284 -15.0267 -1.88561 -3.36864 -1.88795
2021 1 -3.89727 11.7912 14.399 0.0396519 1.38166 -2.9479
2022 1 17.1605 24.4516 10.5575 4.03983 3.12756 -3.57533
2023 1 -19.0017 -11.737 6.7649 3.60802 3.09162 -0.763596
2024 1 8.8419 10.8132 13.5827 -6.49687 3.28244 2.16996
2025 1 2.33155 -12.1041 21.9867 -2.06023 -1.42435 -2.9502
2026 1 6.69687 21.8107 9.81333 -5.24756 2.02034 1.02745
2027 1 4.83044 17.5369 -9.12101 -4.04769 0.609805 -2.79619
2028 1 -0.421705 -3.87283 -18.6749 -1.17102 -3.01315 3.15348
2029 1 17.7669 -10.351 -1.7809 1.42849 -3.5023 -6.53762
2030 1 10.8378 -18.928 -21.4993 6.93428 -1.48187 1.27089
2031 1 -5.44698 -20.82 -11.9737 -4.16936 -4.0338 -6.53571
2032 1 -8.5292 4.74272 6.2956 1.72925 -6.75283 6.07868
2033 1 10.4087 12.4184 0.231662 -5.16395 -1.5713 -1.71018
2034 1 -10.7482 -2.8345 -18.3982 0.2155 -3.68615 6.54925
2035 1 18.331 -16.3132 22.1085 3.81322 -0.570366 0.0303475
2036 1 -14.5258 6.10859 -23.0997 1.92417 3.63338 0.826223
2037 1 -19.1726 9.6125 12.1619 -3.56848 -5.42253 -8.27147
2038 1 17.9354 0.252236 13.1894 0.868787 -2.87059 2.49591
2039 1 9.7758 -23.1815 -20.1144 6.19675 -2.38557 1.47389
2040 1 -5.55548 -23.9839 -8.87544 3.68552 -2.23435 2.29645
2041 1 -9.98094 -12.4292 22.8071 3.93939 -0.552949 5.02862
2042 1 6.58798 -19.0452 22.5928 -2.05668 1.9483 2.08861
2043 1 16.1281 12.8914 12.943 -0.453136 -1.8797 -0.60566
2044 1 3.93315 -8.31445 4.13704 2.02706 -1.76543 6.17757
2045 1 7.4428 -18.5446 -18.3623 -1.40831 2.82605 -4.5876
2046 1 -8.10894 16.515 16.8612 -0.203491 3.83129 1.37846
2047 1 -5.15954 -13.4221 6.61044 4.0164 0.369497 -0.864162
2048 1 3.06285 14.177 -16.9535 2.90904 2.09083 0.39042
2049 1 18.0958 25.0989 -20.0076 2.68943 -0.384704 -1.05341
2050 1 -12.5785 7.04908 -11.1484 -1.74459 3.05307 -3.17873
2051 1 23.187 10.7138 -6.65235 -4.70273 1.76892 -5.74474
2052 1 -10.9375 6.24558 -20.3885 -0.547972 0.863114 -0.227751
2053 1 -21.8187 11.9637 -18.2301 1.44388 -1.41009 3.16147
2054 1 14.6663 2.23749 0.43304 -3.71542 -0.267634 -3.31226
2055 1 5.01445 17.4677 8.85113 -6.0574 1.74907 -4.95579
2056 1 -7.0554 26.2778 -23.2175 3.58862 1.39428 -2.50065
2057 1 15.5745 -6.3832 5.08575 -6.58386 -0.660894 3.00414
2058 1 20.3627 11.2768 -12.2588 -1.42957 1.76256 -5.79665
2059 1 5.41525 -9.62938 16.5609 1.31392 0.99287 3.23683
2060 1 -10.4342 -1.94262 -2.37641 -3.74075 -3.13797 6.18813
2061 1 -12.6875 -23.7103 -21.3313 -1.2447 -3.06766 0.876987
2062 1 -15.7505 20.2257 -9.24612 4.03954 -1.58586 -5.08983
2063 1 -9.75421 -11.947 -20.3125 -2.49838 -4.35436 1.76889
2064 1 -13.3687 -17.3304 8.98292 2.13848 -1.84667 3.83587
2065 1 12.7201 -15.66 20.7082 -4.34104 -5.19454 0.968395
2066 1 18.4236 5.02164 8.6683 3.59669 0.242121 1.32573
2067 1 -23.9619 10.9036 20.0203 -4.63182 -1.65722 -2.37123
2068 1 -15.756 8.90732 -7.20436 -3.24464 -2.02797 -1.06646
2069 1 21.6457 -22.8473 -11.8118 1.48759 -2.51204 6.03575
2070 1 -22.962 -0.583514 -1.48683 0.618739 -2.27175 0.0116209
2071 1 -19.2315 -13.4538 23.2939 0.457794 -2.70709 1.4575
2072 1 -19.1925 8.14451 20.2747 0.668542 1.12497 -0.378127
2073 1 -17.3669 5.6149 -19.0368 -4.78113 5.32732 -0.354282
2074 1 1.08138 9.31615 -11.5504 -1.70757 -1.34889 0.375633
2075 1 -8.26352 -20.1957 23.2438 -0.814916 3.62132 -0.83022
2076 1 -15.1691 25.9865 -9.59632 3.43371 -0.453065 1.38818
2077 1 -15.9405 -3.76951 6.69884 1.01107 1.22234 -0.493854
2078 1 -16.4129 2.15075 -22.0122 4.73164 0.502625 -0.300984
2079 1 4.68712 -12.3231 -20.5404 0.633429 2.92458 -2.05107
2080 1 -21.6396 46.0528 -17.6988 0.218037 -4.05184 -1.48544
2081 1 -23.9373 21.1985 -15.1823 3.84226 3.32488 4.64636
2082 1 -9.98878 20.4566 3.60553 -1.30352 -4.57486 -1.64731
2083 1 21.2479 8.76853 -9.3133 2.40414 -2.86737 3.25241
2084 1 13.7166 19.5937 20.5377 -2.20851 -1.53734 -1.3583
2085 1 -20.2342 -19.7734 -9.48866 2.38237 1.68283 1.88904
2086 1 -11.2606 -10.8731 5.13554 -1.85143 1.58327 -1.33681
2087 1 -9.49472 5.23744 -15.0101 -3.14153 5.35373 -3.79909
2088 1 7.5779 21.9951 20.8346 -3.0187 0.879748 2.24705
2089 1 9.32139 14.0586 -18.4713 -1.08518 -0.642544 6.01545
2090 1 16.2765 8.33652 15.8547 -1.02575 0.36774 0.0809594
2091 1 -7.0163 8.27471 14.2928 -3.02302 1.28869 7.36623
2092 1 -19.292 25.1557 -23.4115 1.49219 2.35779 -2.20874
2093 1 -2.00705 15.5689 -4.75527 -5.21865 1.12197 1.5955
2094 1 23.3177 13.0306 -3.06455 0.648816 -0.234828 1.52999
2095 1 -21.5995 -9.19099 5.93945 0.855209 -1.74915 2.81189
2096 1 10.9648 -5.07025 -0.128358 0.186059 -2.94897 2.78757
2097 1 -5.72131 6.88491 11.8429 -1.09198 0.783306 1.28899
2098 1 -14.8558 -15.9419 -5.17087 2.14768 4.0994 2.7551
2099 1 16.3999 -9.87876 8.37775 3.80194 0.536633 -1.94231
2100 1 -1.37392 -5.45109 20.3484 1.45173 -3.81874 -2.3174
2101 1 -22.6 -8.06033 17.1002 3.65811 0.0900566 -0.804512
2102 1 8.25005 7.28682 -8.06631 0.719767 -2.26264 4.40157
2103 1 11.922 -15.6299 -15.1822 5.43008 -1.84008 -0.989416
2104 1 -21.0315 -4.3071 20.1943 -5.88332 4.71353 2.71489
2105 1 14.0579 8.35748 -15.0659 3.2042 1.71664 1.97233
2106 1 -19.759 -15.4893 -19.3096 -1.83058 -0.000807257 1.51625
2107 1 -8.1693 5.7688 -12.563 -4.98397 0.326194 -0.964395
2108 1 -8.57093 10.8347 0.661158 -1.76409 0.186542 1.15257
2109 1 -3.72511 11.3379 20.9634 -2.32404 -5.27657 -2.44693
2110 1 4.78017 9.19744 -0.0238939 5.67359 -1.66645 1.25685
2111 1 21.862 -12.3543 18.8044 -0.372818 2.59493 2.83321
2112 1 -10.0265 1.49571 17.0961 -2.45249 3.10847 3.005
2113 1 -18.4475 -3.02612 20.2921 1.40986 -2.2491 1.67013
2114 1 -0.090128 -24.3453 19.1238 -2.01365 4.11731 -3.2219
2115 1 18.8342 -14.8039 -10.9919 3.37854 -0.401041 0.237984
2116 1 18.5148 -5.39809 2.67589 -0.746188 -6.5138 -2.14863
2117 1 -24.3182 23.6137 5.36569 -3.9554 3.16623 6.35347
2118 1 -12.6544 -2.71901 -5.09994 1.42876 -3.58058 0.160498
2119 1 -12.1055 17.4827 1.98055 1.16237 -0.854658 6.08514
2120 1 17.2451 -19.8792 10.3331 2.22652 5.6742 -3.86382
2121 1 8.49385 -19.2973 -23.0353 1.07165 -0.650788 0.67215
2122 1 11.7575 4.06884 -13.0482 -4.47684 -0.537269 1.84921
2123 1 20.4892 -9.57979 -17.4815 1.94146 -1.40059 1.00234
2124 1 20.7112 -5.09985 -19.2373 0.228278 -2.08857 -0.565019
2125 1 -0.242006 -15.5761 15.2019 -4.77856 -3.59181 -0.0402912
2126 1 12.328 -6.98183 -3.63728 -1.0298 4.64222 2.86533
2127 1 -23.5274 -11.1875 -21.7644 0.274192 0.533011 -3.01248
2128 1 -17.8016 -20.921 -4.00056 2.31598 -3.49289 -1.51982
2129 1 -12.6618 -23.0954 13.359 4.24954 -1.0701 -1.82025
2130 1 -22.0993 9.14291 -7.0581 -1.21478 -1.85798 -5.58552
2131 1 16.9459 -5.57042 0.0283297 1.60463 -1.22438 -3.94617
2132 1 11.4461 -23.1157 -22.3475 -3.04024 3.0824 -1.59174
2133 1 -12.7452 -10.088 7.56504 1.6849 -5.96087 3.28958
2134 1 11.0825 24.2662 7.83019 -1.21222 0.909013 -6.57759
2135 1 15.8553 13.6175 22.8827 4.51846 -0.907662 1.26135
2136 1 -2.90101 -20.8529 5.62053 -5.26228 -1.07269 1.55506e-05
2137 1 16.1941 18.2073 23.8657 1.18773 2.67568 -0.451953
2138 1 16.5552 24.068 -16.3819 4.86958 0.504232 -1.46538
2139 1 -8.30518 2.90478 -16.1359 -0.646357 1.90187 -1.41063
2140 1 13.2091 -12.7069 17.8205 -2.71913 -0.336762 -2.73696
2141 1 -20.0916 46.5899 1.36787 0.224097 -2.53059 0.00697558
2142 1 -16.5546 -7.91636 19.5028 2.18111 -2.59965 0.664151
2143 1 19.8954 5.12255 -14.2617 -0.182033 -4.37506 0.860584
2144 1 4.08738 0.922598 7.67288 -0.522286 -2.97433 4.74564
2145 1 21.2247 9.86881 23.3473 -0.9604 6.11573 0.201954
2146 1 2.20586 10.0734 17.3924 -5.10864 -1.90803 4.56788
2147 1 3.34446 5.43239 15.2844 4.68719 -1.77576 0.267587
2148 1 12.6425 -23.3385 20.9613 0.947369 1.03858 3.1729
2149 1 17.9408 -3.58331 -3.69528 -2.64371 0.188314 2.59103
2150 1 17.3093 -11.1599 2.53322 -1.29228 2.76066 -1.55078
2151 1 8.39143 3.81271 -11.411 2.18207 2.26711 6.34037
2152 1 6.87145 23.1044 -6.42929 -0.204102 4.13 2.22346
2153 1 -9.32694 -11.0297 -2.84405 1.15199 -2.76296 6.48182
2154 1 -10.6783 18.989 -23.5234 -1.44026 -1.38536 -1.95816
2155 1 13.9532 1.07269 20.712 -1.56585 -6.18007 3.55494
2156 1 -21.9586 21.7436 -8.69247 1.21231 3.51284 -2.12068
2157 1 -3.14332 17.696 20.9317 2.28483 -1.52985 -0.0641811
2158 1 -17.7192 14.8286 13.5934 -2.64518 0.362808 1.13752
2159 1 5.24577 -21.8021 13.8528 -1.47401 4.26507 0.155674
2160 1 -22.3461 0.269393 20.0993 -4.03484 1.25648 0.10502
2161 1 0.203165 8.40535 -4.04209 -2.31902 2.65675 -0.496518
2162 1 17.9373 11.8048 -7.03304 -2.32482 0.614877 -1.98032
2163 1 4.06301 -10.0491 13.8726 4.09923 4.97459 1.27704
2164 1 12.3489 0.954861 -8.83682 -1.22569 0.0387511 1.6996
2165 1 19.0473 20.1975 -13.3455 -4.55512 -1.06067 3.73722
2166 1 -14.911 21.5237 -14.0221 2.33611 -4.12064 -5.28428
2167 1 -14.5441 -9.80114 -16.0415 -0.0654188 -2.525 -2.08466
2168 1 -17.342 17.5392 2.47816 0.57202 -4.95037 -1.33722
2169 1 11.1321 -5.57996 -18.4839 -3.96661 -5.03595 -8.87071
2170 1 -7.1432 -15.6674 1.5086 4.15913 -0.109984 2.52007
2171 1 -4.16403 3.77745 6.19043 -4.2064 -0.230075 3.60667
2172 1 0.157555 21.3347 -4.74207 -2.97047 -0.0877061 -4.47283
2173 1 21.4315 1.18166 -12.8546 2.12608 -0.0924978 -1.49985
2174 1 4.84846 6.25106 -3.99905 1.04476 1.75122 3.11612
2175 1 11.678 45.9375 11.278 3.04761 0.192305 -2.22349
2176 1 10.1911 -21.9218 16.8549 2.49656 -2.36108 3.14558
2177 1 18.4588 17.3549 16.0425 1.47969 -4.79563 0.994728
2178 1 19.3336 -17.5606 -8.00802 -4.00975 4.70512 1.31368
2179 1 11.9026 -4.63569 7.31877 0.257215 0.846722 2.36689
2180 1 9.56698 -4.90551 -9.89831 4.00814 -0.921175 -6.39758
2181 1 -14.2291 -21.9786 21.8882 -6.15993 -3.1926 -0.896845
2182 1 -1.69463 -0.401872 11.4032 -1.09463 0.939024 0.862114
2183 1 4.24616 -2.45472 15.0257 -0.127607 0.816026 2.68213
2184 1 15.8721 18.2121 -19.0261 -1.06901 -4.13413 -0.482492
2185 1 6.67024 5.67522 17.682 -2.54148 0.538034 -0.0800349
2186 1 1.27627 -9.74621 -19.7606 5.44753 -0.375292 -0.421477
2187 1 14.4236 -6.26327 7.73309 2.01036 -6.62762 0.137268
2188 1 -11.3311 6.4078 12.1657 0.938439 1.24326 -4.61429
2189 1 4.34715 21.7665 -10.7805 0.850333 -2.59909 -4.16855
2190 1 -1.0168 3.00415 -12.1476 3.54645 -0.554344 -6.16659
2191 1 12.7762 10.0433 3.27959 -1.33199 -1.25374 -0.544491
2192 1 1.1024 2.39706 -22.1692 -0.555542 5.35832 0.96406
2193 1 15.1818 -13.823 -14.3168 1.88064 2.88317 0.105353
2194 1 -19.0747 3.87965 21.4831 -4.44983 -5.31134 1.71126
2195 1 -9.10114 -19.9495 -9.20257 1.62955 -2.33884 2.13142
2196 1 -2.3443 7.27938 -11.1024 3.30332 -0.19209 -0.45823
2197 1 15.377 21.874 19.1855 -6.84641 1.8518 0.0340527
2198 1 5.19785 8.95741 -4.52754 1.01026 -1.92288 5.57235
2199 1 -16.109 12.829 0.53967 -2.11506 -2.37717 4.97323
2200 1 -2.71107 -23.7543 3.90747 -3.18059 -0.413738 1.07379
2201 1 12.9904 -10.4305 -21.519 0.813138 -3.70364 -1.54923
2202 1 18.929 -18.9506 -20.6044 -1.71602 4.35171 -0.640072
2203 1 7.87423 -1.96022 -2.58559 0.0206453 -1.62469 -0.735291
2204 1 6.14825 -0.153846 -0.607381 2.8648 0.134468 -3.85871
2205 1 -22.7749 7.21878 -15.7339 -1.79301 -1.832 2.52941
2206 1 -2.52225 -10.2504 -13.5761 4.86271 -0.714435 0.15016
2207 1 -20.125 -8.96621 -1.24693 -5.10334 -3.93632 -3.13446
2208 1 15.356 19.0122 -3.46794 3.37831 2.68827 1.68133
2209 1 21.7921 23.5102 20.6171 -4.88684 0.925895 2.2832
2210 1 23.3297 -19.5868 -2.50411 0.378494 4.84301 3.71971
2211 1 -19.5632 4.42211 -20.4172 0.713622 0.961458 -2.01353
2212 1 -17.6661 -4.894 -5.79179 -4.20211 -0.927056 -4.51662
2213 1 18.5008 9.10931 -5.44294 -3.56566 -1.50352 0.0351508
2214 1 11.4733 8.2403 18.5138 2.33362 -2.94365 1.06219
2215 1 10.2285 13.6258 -2.39112 7.56907 -0.0838209 -4.67531
2216 1 1.21412 -0.851187 -14.5161 1.77962 4.47973 1.73129
2217 1 12.319 -14.2207 23.3474 -0.714136 0.785499 0.668554
2218 1 -17.3832 -5.12704 21.9639 1.7898 -5.28975 0.27966
2219 1 -12.1836 -21.7301 17.0365 -3.89364 -3.02845 3.02973
2220 1 0.514283 15.2316 -13.4446 -1.56577 4.23604 -0.207432
2221 1 16.4684 2.1961 18.3642 -1.72842 0.433807 4.57273
2222 1 2.65898 8.45763 4.08068 -2.79119 -1.63686 -3.2048
2223 1 -21.8432 16.0172 -21.3915 0.213381 0.0116845 -0.00277767
2224 1 -14.1642 15.3345 -4.763 0.149221 -2.31281 -4.89829
2225 1 0.923658 -19.6788 -22.8348 -0.117441 -1.50234 0.27136
2226 1 20.0767 -1.57229 14.4172 0.19452 -3.78483 5.556
2227 1 11.0763 1.60625 -3.46007 0.369938 -0.776931 0.66663
2228 1 -8.1373 -7.03686 -22.2794 3.26433 4.05727 -2.83448
2229 1 17.6963 3.72337 16.3108 0.410817 4.08374 4.74674
2230 1 3.79264 17.7825 -1.77686 0.997707 0.714945 -0.9334
2231 1 -15.187 23.0287 11.7436 -7.53288 -2.18528 -1.69428
2232 1 -22.2923 24.9551 -15.4635 -4.81483 -1.23809 4.83883
2233 1 -10.6831 1.38146 -15.4919 1.92986 2.93139 -2.49759
2234 1 -3.63317 1.376 -3.83973 0.809852 0.388312 0.338773
2235 1 9.96571 -23.0579 11.2968 -1.71035 -3.40333 0.900987
2236 1 23.2395 5.11973 -17.1146 -2.06686 -2.00432 -0.651805
2237 1 1.02153 46.2867 -21.5615 -0.738295 2.30384 -1.79828
2238 1 16.2124 14.9299 -18.3531 -0.824291 -6.58195 2.78455
2239 1 -14.5917 -9.53694 23.536 -3.78302 -2.21932 2.73204
2240 1 11.8288 19.0161 14.0412 2.19583 0.951043 -4.29285
2241 1 -22.2782 -3.39402 -18.2591 0.109709 -3.37811 -7.66124
2242 1 -9.31348 -17.8518 19.2662 0.976066 0.877306 1.01876
2243 1 10.9964 24.8208 -11.3372 -0.74479 -2.67424 0.0102151
2244 1 22.3041 23.3997 -14.5156 1.31063 2.43588 -1.44259
2245 1 22.8842 -20.5166 7.43854 -1.0635 -2.58896 -2.7911
2246 1 2.80764 16.3833 -14.7226 1.23973 2.12438 0.152058
2247 1 22.3982 -12.2675 9.01024 -6.13138 2.55773 1.94957
2248 1 1.439 -7.18604 -12.2194 2.70066 1.1855 -8.30814
2249 1 -14.9285 13.5194 -15.9709 6.84209 -6.62848 -0.475784
2250 1 -1.2621 3.19076 11.6031 -2.24398 -0.310803 1.53439
2251 1 -8.65331 -10.2628 -12.203 1.58878 2.10373 0.117379
2252 1 -22.5854 -14.2805 0.702226 -1.87592 -1.21948 -1.03038
2253 1 5.19752 -17.3026 -4.01425 -5.4345 -6.11372 1.8226
2254 1 2.72518 18.737 16.2311 -1.16342 5.52701 -2.32718
2255 1 -1.75871 -1.20988 -14.5294 2.71885 1.42136 -3.77204
2256 1 14.8069 20.4241 -22.3732 -2.25025 2.50661 4.8299
2257 1 -1.16975 3.59217 -7.6582 -3.49126 2.20481 -2.75163
2258 1 -10.6246 16.139 -22.8444 -3.0134 0.71316 -1.19402
2259 1 -20.5592 -10.1018 21.8728 4.07496 2.81112 -4.64333
2260 1 19.8971 20.0561 -17.0485 1.06114 1.49412 -3.56536
2261 1 13.3497 -3.17784 -11.3583 -1.16146 3.52699 1.8497
2262 1 18.2116 46.524 -1.84453 2.73141 2.77473 0.106949
2263 1 3.25265 -14.7113 -1.49257 -4.52103 -6.66665 3.26549
2264 1 -2.22213 19.2669 2.40803 0.270295 2.72764 1.06962
2265 1 -1.84652 3.05718 20.0178 -3.99343 0.0688365 -4.33327
2266 1 -23.1473 7.74156 12.848 -2.61072 -2.97893 -1.05179
2267 1 -9.29157 -13.9197 0.713564 3.20416 -0.675759 2.58779
2268 1 12.0652 -0.102964 -5.70976 -2.08738 -0.618419 -1.18189
2269 1 18.2519 12.5437 -23.3245 3.94077 3.31965 4.79252
2270 1 -6.19008 20.4984 1.6968 0.322037 -1.25538 -1.67721
2271 1 -23.5932 -17.3521 -7.36909 -6.57002 -2.63015 0.561408
2272 1 1.16627 11.8904 12.0886 -2.98109 3.53209 -3.1437
2273 1 -20.9369 -20.9564 14.8167 -5.73259 0.530775 -1.0363
2274 1 -6.31298 0.414015 19.7791 -0.248596 1.29369 1.38621
2275 1 -12.0583 25.745 -14.5389 -1.70396 -0.706441 -1.62228
2276 1 1.03288 10.0766 5.52608 -6.23958 -3.39097 3.40894
2277 1 -13.5997 4.21799 21.9648 -2.81144 -3.30094 0.22343
2278 1 -15.3135 -12.9594 -4.74064 -3.35225 -2.2233 1.51123
2279 1 -11.949 -0.0519216 7.73058 -0.544584 0.348189 0.857938
2280 1 14.1101 -12.0227 -3.27082 1.72849 -0.77094 -0.586415
2281 1 18.7717 14.7783 22.4216 0.157545 5.1155 5.18562
2282 1 -6.39646 24.453 9.00923 -3.43925 -0.539646 -3.3059
2283 1 -24.0096 -14.025 6.71607 -2.63877 0.962866 -0.173674
2284 1 -22.1799 24.85 -23.0354 -0.365614 1.54283 -2.94347
2285 1 -21.1633 17.9584 1.2563 3.27593 -2.60205 1.64759
2286 1 2.65946 -10.7199 4.80377 -1.1059 -0.561435 4.21566
2287 1 20.9442 17.0224 14.435 -2.72892 5.13837 -3.10711
2288 1 21.3602 -7.0907 -6.71336 -5.48485 -3.3948 1.28849
2289 1 -2.38019 11.7316 -20.5391 0.229362 0.651839 -1.76491
2290 1 18.2486 -5.36524 19.5108 -1.60006 1.89468 -0.446737
2291 1 -1.24699 21.4976 20.1462 -4.32476 -2.5945 0.60952
2292 1 -14.4348 -9.75605 -1.54379 6.35874 -0.683913 6.9516
2293 1 3.16749 8.37073 9.07349 5.68894 -2.5161 -2.3144
2294 1 -17.5125 8.35015 -19.8233 -1.81908 0.549666 -3.6321
2295 1 -16.0124 13.1423 -23.1592 -0.869786 -1.66137 -2.02462
2296 1 -21.3276 -9.6438 -17.1264 -3.20493 -0.0975842 2.67588
2297 1 12.957 5.18049 -22.2922 -2.07243 -1.94311 -0.431356
2298 1 -4.60547 -20.4391 -3.72816 1.74981 1.78073 0.567616
2299 1 10.4452 -12.2013 -3.39081 -0.438791 5.80573 4.00185
2300 1 7.52584 12.5511 0.761509 -4.05912 0.714694 -5.8097
2301 1 6.79921 -23.4533 20.7033 -3.39506 -0.459961 3.83891
2302 1 15.4463 10.77 -15.2018 2.12407 4.32711 1.18672
2303 1 -12.58 14.7125 -11.6405 0.569949 3.17248 6.22478
2304 1 7.23513 15.6391 5.72384 -0.66136 -1.57396 4.70995
2305 1 -14.9413 18.7545 10.7055 1.72953 0.419343 0.356693
2306 1 3.23769 -4.85236 21.3829 -2.35796 -2.14746 -6.63779
2307 1 -17.3807 15.0034 23.0654 0.771592 -1.49475 0.94567
2308 1 4.90905 3.22192 -18.6159 1.17201 -1.74534 -2.42116
2309 1 20.9274 18.8258 -23.6228 -1.89781 -1.21895 -1.84687
2310 1 5.2837 -17.6663 9.30298 2.81601 -2.9701 -4.27729
2311 1 5.59159 -0.613147 2.21437 -2.31843 -2.80564 -0.603988
2312 1 -18.8498 -21.6507 9.15232 4.00935 -2.63626 -2.69479
2313 1 -9.4298 15.615 -19.9691 -1.84004 -3.36068 -2.21115
2314 1 -18.4626 6.55427 8.52624 -0.676209 0.860108 2.7218
2315 1 -13.8222 15.8653 18.173 -2.25646 2.88063 2.48568
2316 1 -17.0767 -14.4216 4.79029 -2.76869 1.35317 5.06404
2317 1 -4.19291 -11.3003 -7.47286 -6.27009 1.42854 -2.21518
2318 1 22.3679 -5.10512 -4.67227 -0.881354 2.96007 0.181291
2319 1 6.85304 -6.82818 8.77075 4.02094 -1.46997 0.203571
2320 1 21.2454 1.77147 -18.9558 2.1086 -1.58618 2.4636
2321 1 -2.19788 24.9076 -23.7444 2.73007 -0.540649 2.08555
2322 1 -6.13873 21.4184 19.2027 -1.47329 -2.70158 -0.477469
2323 1 3.81606 -5.58693 -2.65062 -4.56795 -0.66993 -4.80506
2324 1 9.56808 -20.2418 -19.0219 3.37967 -0.87293 -2.41717
2325 1 16.8871 -22.0606 -16.6064 2.00317 3.6709 4.71872
2326 1 19.9842 -9.22468 -11.9261 -0.0362213 -0.124424 -0.659812
2327 1 13.5558 0.432113 -17.6499 0.632098 -4.80441 0.49817
2328 1 -9.53372 -7.76577 -4.23662 6.50921 -1.98891 -1.1709
2329 1 5.6167 7.77204 12.1124 0.164277 -3.87129 4.63498
2330 1 14.4568 -23.7107 15.5638 -0.0754402 -1.21747 -1.51479
2331 1 -16.5979 -15.8979 11.1241 -6.06303 2.82709 -1.10784
2332 1 20.5654 -16.2625 9.75815 -1.61746 -1.49737 -1.36357
2333 1 11.9162 -20.0253 -14.5924 -1.11436 -3.93571 4.81801
2334 1 -9.50766 21.1011 15.3693 1.8182 -3.58004 -5.30025
2335 1 -6.41993 19.5305 22.8287 0.321241 1.62564 1.2599
2336 1 15.6472 -13.3721 -23.122 0.0254869 2.1982 -1.38418
2337 1 8.92749 1.40787 -0.465919 4.29449 -2.52652 0.433862
2338 1 0.0815476 -3.23765 -21.619 1.6793 -2.83062 1.18597
2339 1 9.52943 10.2609 -4.81553 -4.54962 -3.90171 -2.35258
2340 1 7.7847 7.8451 16.1726 3.96383 -1.07355 3.3021
2341 1 3.67777 -16.6378 -18.9082 4.36973 0.556404 0.324841
2342 1 9.95651 -14.6287 0.652435 0.485773 4.96802 2.20632
2343 1 8.74769 23.2842 2.53179 5.45192 -2.26114 2.17277
2344 1 13.1751 24.3235 4.29783 1.77812 -3.93459 -5.02182
2345 1 6.80926 12.8175 -14.689 3.13068 2.60001 2.82264
2346 1 -3.94201 -19.3159 10.4393 -0.599638 -0.917068 0.309082
2347 1 -12.4933 13.6797 -14.5692 4.4707 1.16497 -2.02733
2348 1 8.25687 -1.36754 5.43444 -6.81006 -2.18087 -1.24325
2349 1 -9.87777 24.1091 15.4126 -5.52934 -2.11734 0.000928305
2350 1 10.0087 5.92154 -14.3309 -4.47406 2.07406 6.94084
2351 1 17.9471 12.9732 -12.8143 1.0795 0.340704 -2.40554
2352 1 -2.3745 23.066 -19.9851 5.35948 -2.63102 3.65514
2353 1 14.7495 -2.4394 4.48587 -3.079 -1.87524 -1.13139
2354 1 21.2515 -18.7972 22.0589 0.620011 0.147257 -0.240063
2355 1 -7.49887 0.669848 4.67767 1.63201 -1.95895 1.28665
2356 1 15.8501 -22.7846 -9.82375 -2.84454 5.54585 0.195097
2357 1 -3.13572 0.390054 0.548678 -2.7024 -0.0578401 1.7532
2358 1 1.39077 -13.4678 -10.9033 -1.64912 -4.15001 0.133742
2359 1 10.1605 11.0368 6.78366 -5.46071 -4.76561 -2.68439
2360 1 12.2587 17.5312 3.80963 5.22962 -0.826445 0.136782
2361 1 -22.2224 11.6976 -13.0414 0.262276 1.1748 -4.02541
2362 1 -20.5024 12.2277 12.8499 -0.205672 -6.94669 -1.42569
2363 1 19.613 -11.8039 -0.266934 -1.28031 -3.81786 2.95447
2364 1 2.68345 -4.06771 -0.12513 0.705115 1.30442 3.33533
2365 1 -22.6209 -8.97286 -3.58151 -2.11534 2.3286 0.267872
2366 1 9.77787 1.68571 2.66333 -0.730458 -0.116245 -2.53925
2367 1 3.03744 18.2514 13.4717 -4.32476 0.740531 0.594871
2368 1 -6.53655 -21.7193 -7.81284 -6.5256 1.22288 3.89494
2369 1 19.2152 2.63185 14.1114 -2.5795 1.02695 -1.49408
2370 1 -23.6637 -9.50276 -9.00383 -3.39864 -1.04623 -7.43063
2371 1 17.615 -20.677 2.08327 -2.83418 -2.73121 -1.5932
2372 1 -23.76 4.92502 -0.332858 -0.239592 0.446046 -6.48377
2373 1 13.6294 11.6566 13.5839 -5.42771 0.307425 1.65134
2374 1 -6.36813 7.7359 -1.89561 -2.45979 -1.68386 -1.64968
2375 1 7.09033 25.6715 12.9369 5.8962 2.26136 0.571601
2376 1 -15.4976 -1.31767 22.4047 5.75969 0.753306 2.11299
2377 1 -6.33743 -6.39633 -4.61031 -4.72691 1.9491 -0.57196
2378 1 7.79527 0.557182 19.4939 2.32929 2.23427 -3.09959
2379 1 -23.577 13.4498 9.50204 -3.34358 -2.97277 3.43027
2380 1 8.78401 -14.8175 21.4329 0.794663 2.189 -2.64198
2381 1 14.1559 -8.95599 -3.3953 -0.944583 1.76635 -0.667188
2382 1 -15.4293 17.7823 -16.8087 1.59898 4.57375 -4.48393
2383 1 21.2941 -19.1027 4.25786 -1.60141 -0.395706 1.82597
2384 1 4.24107 -13.2761 -23.0921 -1.97698 -0.768198 1.44665
2385 1 0.619043 7.45619 2.46779 3.02887 0.283862 4.5326
2386 1 4.02429 -2.54543 5.50994 1.33021 0.512369 4.20265
2387 1 -12.0172 -3.99566 15.7584 2.49131 -1.78723 -0.824163
2388 1 7.79941 24.8424 20.9947 -2.02734 0.934594 -2.86622
2389 1 6.85537 -11.8974 11.7269 7.13402 -2.88428 3.95394
2390 1 -22.419 -8.55482 -6.48364 -1.636 1.73816 0.0765037
2391 1 -7.28581 -1.62854 8.55107 -2.70085 1.65142 -3.44923
2392 1 8.98101 -20.4406 -13.9932 0.439763 -0.751124 2.1184
2393 1 4.84186 -15.4121 20.1816 0.816669 -4.8761 -1.35119
2394 1 15.973 13.9177 -6.17905 -1.19322 1.6469 -3.86549
2395 1 3.45686 20.0693 19.7128 3.54442 0.403286 5.02191
2396 1 -15.3902 -20.883 -2.43521 3.44014 -1.68255 3.13325
2397 1 -14.8916 -5.62946 20.4514 0.0920658 -2.42609 -2.63257
2398 1 -8.10973 -1.37876 14.3527 2.62485 0.740626 -2.72784
2399 1 -13.6414 -9.65448 11.08 3.73838 -1.15853 3.85295
2400 1 12.366 -8.13505 17.092 3.52401 7.27129 -1.40428
2401 1 -17.9179 20.6155 -4.04689 -4.41758 -0.400968 1.3229
2402 1 17.9753 16.3706 -20.0717 0.420604 -2.63695 2.66867
2403 1 -12.0037 1.21185 -21.9914 4.75633 -1.72865 3.48948
2404 1 -20.0374 -10.0692 -23.1632 1.28604 3.10962 -1.60671
2405 1 -5.148 -8.4906 -20.2157 -1.48661 1.43546 2.77227
2406 1 22.999 10.2291 -13.0709 -1.06386 -1.23521 -0.615289
2407 1 -14.1743 -12.9115 14.1021 -3.42642 -2.77485 -0.712763
2408 1 -20.7248 -1.77341 -11.8929 -1.97547 1.20196 3.21742
2409 1 4.44915 11.8306 14.7088 -1.65814 1.41265 3.77583
2410 1 9.03988 -22.1351 -23.7899 5.25509 1.98698 -0.224538
2411 1 10.1932 11.4026 -18.163 -0.480352 3.63569 -1.3357
2412 1 7.20184 19.6997 14.3033 -4.22309 3.89578 1.06431
2413 1 -5.21417 20.9254 4.6317 -2.75952 0.0879646 -0.88177
2414 1 12.2513 -5.77603 -6.4231 -0.841207 6.37331 -0.415964
2415 1 22.883 -22.7168 -23.6238 -1.5306 3.96596 0.651632
2416 1 6.38452 11.6169 9.69557 3.36957 -0.72712 3.17148
2417 1 -3.31406 -3.83613 -0.205972 4.32399 3.11714 2.18191
2418 1 13.941 3.34558 -10.194 4.68925 -3.59944 -3.37296
2419 1 22.2138 8.12409 -20.9917 -0.890458 -2.73161 -0.907719
2420 1 -1.25389 -4.9817 -6.54417 -0.438212 -4.68099 -1.89273
2421 1 -23.6667 19.1809 -8.32681 3.91132 0.114248 1.44497
2422 1 -18.7892 6.68438 17.935 4.0957 -3.8296 0.0728064
2423 1 13.554 23.0686 8.17319 -2.81507 4.37672 4.80008
2424 1 -23.3965 16.8956 7.70023 4.54269 -0.537361 -0.788927
2425 1 -17.4959 9.01304 -23.556 3.41322 1.39488 3.7637
2426 1 -0.822543 19.3608 21.6955 1.00145 0.721842 -0.7269
2427 1 13.3689 4.30556 3.16217 -4.36679 -2.87905 -1.21347
2428 1 13.0693 -17.4128 15.6923 -4.41333 -3.94181 2.59396
2429 1 -7.1698 -8.03521 -12.772 2.16262 0.891948 -0.828346
2430 1 -12.7305 -6.09754 17.4976 0.332482 -0.523966 -1.30573
2431 1 -20.3575 18.9483 -8.73537 -0.373359 -2.37314 -2.08485
2432 1 19.5787 15.6619 -14.8574 -2.06638 1.79396 1.8178
2433 1 19.2338 -24.1956 20.0487 -1.38084 0.317607 -3.22099
2434 1 0.0708945 -21.3596 -1.91618 2.04932 0.953001 -0.885249
2435 1 -16.0411 24.3635 9.13673 1.56314 0.735724 1.41495
2436 1 -7.90467 11.1852 18.3367 -0.22431 1.8488 0.461187
2437 1 -14.3773 -5.02621 12.3586 2.24496 -3.16294 -3.18203
2438 1 -1.79166 45.1879 -21.3868 3.1197 -5.98647 2.41858
2439 1 -13.7625 21.2415 10.0834 -0.295405 3.14284 -2.40412
2440 1 6.01655 -2.44496 -15.1876 0.533881 -1.26172 -3.86439
2441 1 23.1535 14.8772 22.3634 3.38275 2.39293 -1.42464
2442 1 -1.61828 -10.3132 -16.5518 -8.47055 -2.86534 2.96432
2443 1 8.40037 8.98176 23.6729 3.31283 3.50659 1.86552
2444 1 11.76 21.6886 17.7901 -6.02551 -0.219741 0.719782
2445 1 1.97107 3.49796 23.2954 -0.378947 6.023 -3.8905
2446 1 0.00287745 -3.81036 14.3002 0.129896 -4.23125 2.42454
2447 1 -2.91716 -15.1221 17.9457 0.560488 3.33743 3.08865
2448 1 -1.30454 -16.9836 -11.1585 -4.25236 3.36083 -3.80527
2449 1 17.4888 45.2453 12.8398 -1.51641 -1.73444 2.10018
2450 1 7.66874 11.1555 22.1252 -0.974562 -1.2207 -0.743525
2451 1 8.65416 -22.4083 4.76543 4.0404 -0.423259 3.54646
2452 1 12.2852 16.1482 -15.5783 -5.02107 -4.89569 -2.48216
2453 1 -0.11447 10.8674 14.6889 4.90774 -1.15514 -3.16012
2454 1 -5.12647 9.82455 -18.7064 -5.10065 -0.94774 -2.94241
2455 1 11.4441 10.0312 14.501 1.44325 6.07182 -2.99322
2456 1 18.9813 19.0635 19.7959 1.50705 -0.164587 3.39074
2457 1 -4.08835 2.78268 11.8805 -1.55028 -5.27016 1.48289
2458 1 23.4461 21.3545 -2.62607 0.345612 3.98491 -0.243441
2459 1 -19.3806 16.3481 -8.57481 0.431176 -2.19573 0.078485
2460 1 9.43538 8.12954 -16.1764 3.74585 3.01279 -6.27764
2461 1 -22.6147 20.8257 -4.67638 3.682 2.73488 1.79021
2462 1 -13.7636 24.9985 2.10457 -1.06837 3.15699 -0.0969879
2463 1 -11.6666 -21.8043 -23.0982 1.56913 3.48919 2.10936
2464 1 5.56219 16.679 -13.3699 -0.893172 2.93281 -2.41712
2465 1 -5.57116 -14.2386 -10.6349 4.42524 -0.911226 3.87227
2466 1 3.74859 1.88382 -3.07166 1.30847 -2.74766 -2.27646
2467 1 2.44864 -18.5732 9.53074 -0.20746 0.632288 0.00356715
2468 1 -20.1187 45.7991 -5.41678 2.30838 -3.70178 -0.579255
2469 1 12.7423 46.6651 23.5514 -1.23928 0.801358 5.12952
2470 1 12.7192 -20.1906 -9.66652 1.1492 -1.29258 -0.511892
2471 1 -4.35237 26.0518 -22.1567 -2.6727 0.953151 1.50909
2472 1 -19.427 2.2374 12.6121 -2.01332 -2.74828 -0.628533
2473 1 11.7176 11.2236 -9.25158 2.18029 2.55554 4.02546
2474 1 -4.78882 -6.88937 -17.7624 -2.44048 -1.01452 1.53363
2475 1 -17.5445 10.9914 10.0688 2.71474 -3.24078 1.58524
2476 1 -4.26808 -20.295 -19.52 -0.341464 -0.583316 -1.34797
2477 1 13.3503 7.54947 -4.42864 -5.17334 0.452702 1.69625
2478 1 -4.08495 -23.4198 -3.8177 0.933495 -0.030519 1.10533
2479 1 -20.6673 -3.15343 2.13623 -5.63349 0.847713 3.62859
2480 1 -0.238016 18.6813 -5.79829 -2.28685 2.38668 0.164171
2481 1 -14.2392 -8.05123 -9.36516 -1.65468 -1.31762 1.63215
2482 1 9.11113 -8.01708 0.91965 2.31335 7.16282 4.09506
2483 1 -0.99764 11.2127 -10.5006 4.02505 3.42376 -2.48682
2484 1 1.16887 -16.3224 -9.67749 -0.497299 -1.3056 1.26987
2485 1 0.315022 -18.2042 5.4258 1.19203 -1.45016 5.33353
2486 1 -3.77676 -18.9312 7.5106 0.920699 -1.01039 1.18468
2487 1 1.81837 18.5662 -0.11933 2.12308 0.861298 -3.35602
2488 1 -10.0995 20.6526 18.1785 -2.09148 -1.46735 1.10811
2489 1 6.19408 23.0617 -12.8024 4.93648 0.41088 1.893
2490 1 -11.8704 23.4938 20.9243 -1.90904 0.604005 -1.92103
2491 1 12.2386 -22.8522 -4.16079 -1.69956 -0.782021 -1.28273
2492 1 -23.9687 13.4682 4.5888 -1.82964 -0.514532 1.91497
2493 1 20.4867 23.7919 -21.2516 2.06244 2.25786 -2.97828
2494 1 -10.4769 -14.8756 -20.5738 -0.290254 1.55867 -3.73078
2495 1 12.8061 -13.1205 -9.89846 -1.23911 1.30243 -4.48962
2496 1 4.6813 2.34033 -22.4331 -2.80043 1.50831 1.53067
2497 1 3.70011 7.74656 20.4936 -2.50332 2.79245 -1.34219
2498 1 -5.08376 6.2329 5.31972 -1.98109 2.10922 -5.48133
2499 1 -23.2977 -16.8205 7.83641 6.28307 -1.08422 5.5647
2500 1 9.49283 22.3681 6.86165 4.14463 1.99218 -6.23593
2501 1 5.86851 13.4152 7.31933 -2.27182 0.914794 3.05679
2502 1 -5.34193 -12.6764 10.9536 0.581953 1.25054 3.36698
2503 1 16.7839 15.0892 -3.41748 -0.158688 4.05469 -3.74372
2504 1 9.1421 10.3796 9.34768 -2.06919 -0.78917 2.73122
2505 1 -10.8952 19.0275 21.5416 -4.30363 2.2556 2.4008
2506 1 22.0001 11.3751 -8.97275 4.38589 -0.0332923 1.79082
2507 1 8.7803 -2.36679 -16.1879 2.18812 -5.29119 6.94716
2508 1 11.1408 24.0826 -6.20789 -3.16976 -5.19128 5.81532
2509 1 -4.6728 -7.40585 1.55287 -1.07321 -0.761926 0.886911
2510 1 -21.5185 3.45091 -1.96268 5.03869 -1.67862 4.37607
2511 1 3.85498 5.67373 18.2385 0.525089 -0.62375 1.39622
2512 1 -9.49259 13.0996 14.3356 -1.40157 0.782848 -1.47726
2513 1 20.544 6.01804 7.38307 0.104548 -1.26574 -3.25448
2514 1 -21.6684 15.0782 22.2936 0.292484 0.484277 6.68409
2515 1 0.989597 -19.1206 2.62239 2.22466 -1.51638 -0.320202
2516 1 5.76264 11.4042 -17.958 3.1328 -3.8997 -0.453809
2517 1 -11.6057 -13.6915 14.9562 -1.49161 -2.16553 -0.749191
2518 1 -0.848626 -1.09498 -0.669038 0.285198 -1.90539 -3.35527
2519 1 -24.0341 22.9271 14.6815 0.0879313 -4.28751 -3.05547
2520 1 -23.3369 -0.465688 -8.51808 1.29203 0.643751 3.52162
2521 1 10.1014 5.91209 13.6792 0.501018 -5.52443 2.44374
2522 1 -2.24031 11.25 1.81054 -2.34941 -1.0047 -0.365129
2523 1 -15.4073 -24.1103 -22.3072 -0.740811 3.59723 1.73222
2524 1 11.3198 23.0038 -19.1872 -3.08496 1.0892 -2.81001
2525 1 -12.0394 -14.6275 -7.75322 8.00286 -1.05175 -0.622166
2526 1 -11.4174 -2.63841 -15.6866 0.488201 -2.69739 0.433205
2527 1 3.84267 5.42455 6.98596 0.68269 2.21528 3.88964
2528 1 -8.34875 13.5804 7.02572 3.94303 8.5419 -3.97835
2529 1 -18.0556 -8.69759 -3.32599 0.400448 -5.68086 -0.576623
2530 1 5.41198 -14.7 -17.1079 2.96571 3.90537 -2.61027
2531 1 -18.8461 -9.20499 -15.5729 -2.52446 3.17806 1.18021
2532 1 -14.9969 -13.1168 3.16043 -2.27669 -2.37922 -0.781011
2533 1 -15.0018 21.9642 -1.63819 3.1922 1.97391 0.921174
2534 1 -18.0619 -10.9167 -1.22577 -2.55345 -2.88273 4.57495
2535 1 15.4322 -6.5628 13.5168 1.46718 1.54734 -5.38708
2536 1 -21.2468 -18.319 -22.1454 3.41359 2.3138 -1.52154
2537 1 -2.61415 -24.1224 15.2395 -1.17196 3.67828 -4.57096
2538 1 -5.21231 4.93783 -23.0538 0.344297 1.12002 -1.7778
2539 1 12.8982 -12.6893 20.7552 -1.10097 -1.87574 3.43514
2540 1 20.5454 -8.6795 15.8179 -1.94754 0.431826 3.15096
2541 1 5.07675 7.6642 14.9461 7.72428 -1.53142 -1.8083
2542 1 -11.2262 -8.65543 -20.9523 1.83452 4.18032 4.63034
2543 1 -15.3782 -5.83591 -7.43301 -1.95056 2.97472 0.680688
2544 1 11.3882 3.03955 6.44578 3.36514 -5.13658 0.513718
2545 1 -11.1882 9.07058 -21.1103 -2.03416 3.15125 5.33377
2546 1 -16.2876 6.62392 13.7313 -1.81945 0.722463 -0.251273
2547 1 -11.6342 -0.892518 4.6443 2.5502 -1.96845 -1.03128
2548 1 15.6672 -5.03974 -8.54886 -1.07558 0.926222 4.98065
2549 1 8.13673 10.6922 -16.2182 -2.18064 -3.4522 0.03287
2550 1 -21.8199 -17.7263 -19.317 1.60546 -0.0114154 3.3175
2551 1 -6.26832 11.8439 -15.1429 4.7876 -2.544 0.0896607
2552 1 -1.32963 -14.782 8.47996 0.892541 -0.0856003 -2.8583
2553 1 1.25442 23.629 16.112 -0.868224 -3.40123 4.19066
2554 1 17.9707 25.399 -5.58092 4.11922 2.24946 3.91392
2555 1 5.58831 12.9281 -7.73603 -1.66137 -0.965228 1.31214
2556 1 -7.65879 -13.3342 9.58289 -0.817137 0.0689118 2.79026
2557 1 17.8305 46.5434 -13.294 -8.73372 -4.44557 -6.56633
2558 1 -19.8043 9.12827 -21.7909 -1.31543 -2.61087 -2.47073
2559 1 -15.877 6.73081 5.54757 1.46991 -2.54125 1.86216
2560 1 22.5345 -23.2336 8.82608 -0.381399 -2.58054 3.25133
2561 1 -9.502 -0.447831 12.0024 -6.30837 -0.57662 -2.46434
2562 1 -22.1173 -4.11104 -11.3112 -7.62698 5.19883 0.717321
2563 1 19.4139 -5.30182 -21.8728 2.1896 -0.682574 -4.61752
2564 1 -9.79951 -14.8753 -9.68754 -3.58115 3.08342 -0.414781
2565 1 10.6861 17.1714 12.2492 4.49724 -2.61596 -3.0039
2566 1 -23.7404 -11.7562 12.9996 -2.48801 -1.83396 -0.910205
2567 1 -13.4648 0.482453 -17.7932 0.453064 2.66437 1.83515
2568 1 18.7549 -10.8651 -19.5765 -3.78987 -7.20289 -0.139078
2569 1 23.3085 -19.5595 -14.3021 -1.61738 4.70512 -3.75169
2570 1 -22.3895 17.2953 -15.1466 7.74656 -5.73155 0.784217
2571 1 13.9535 -2.24532 20.8633 -1.88666 -4.39787 -0.295216
2572 1 -21.3934 -19.2799 -6.89679 -2.90459 -0.135604 1.09841
2573 1 20.1559 46.0765 -4.26907 0.391955 -5.45166 3.66148
2574 1 -19.4805 45.823 -10.3913 -0.150495 -3.50839 0.966513
2575 1 5.41793 17.1176 2.06365 -0.696251 -3.06319 -0.964836
2576 1 20.8279 19.5067 12.8 -1.5493 1.97268 4.5063
2577 1 12.8078 19.6118 -4.2509 6.15102 -1.06459 2.05022
2578 1 -15.5915 -15.6252 -2.09037 2.51762 -3.274 2.81914
2579 1 -9.16988 13.2973 4.30135 1.02017 1.79167 1.02905
2580 1 -24.252 13.3367 -19.6206 -1.14145 1.69161 -4.12276
2581 1 -8.34398 17.3829 21.3357 2.09992 -4.66283 -6.79134
2582 1 10.8144 25.7117 10.1159 2.74042 -2.90609 -4.19859
2583 1 6.10935 19.1444 -1.15298 2.53963 0.734149 2.73539
2584 1 -12.1497 -21.6802 -11.2445 1.25391 7.21528 3.63651
2585 1 17.037 -16.8196 17.5146 -1.38467 -5.02751 4.1795
2586 1 -14.1735 15.3005 14.0499 1.53138 -1.5141 -1.4178
2587 1 18.6659 -20.7025 7.92262 -0.0750393 1.06986 -0.752474
2588 1 18.4922 1.84247 -17.2616 1.66105 -1.38929 -0.706284
2589 1 -1.54656 -5.25196 9.40175 4.93328 0.807632 -0.863898
2590 1 12.4631 1.11687 -13.1647 1.19945 -5.36917 -1.24165
2591 1 -5.10555 -22.7602 15.1249 -5.82851 -5.51945 3.38926
2592 1 -1.4447 -17.3437 7.47521 -1.56442 3.82771 1.06091
2593 1 -21.4605 -8.10538 -21.5686 4.39909 -0.165962 0.371931
2594 1 22.4474 -8.23041 18.0499 -2.379 6.36139 -0.667678
2595 1 0.0234442 -18.9342 -20.3167 3.39994 -8.75403 0.828753
2596 1 -12.8768 12.703 -19.5753 4.77303 1.4824 -1.45991
2597 1 -19.5246 -2.72728 -17.0509 -1.53512 -1.67382 -3.60168
2598 1 20.7833 -1.07873 -2.56243 -0.708302 -0.547703 1.18956
2599 1 -7.24917 4.351 9.05835 -0.945463 2.2703 4.79449
2600 1 4.95753 20.6115 0.96123 -0.758644 -2.2449 0.0641998
2601 1 -3.09218 8.03637 5.08707 2.91762 0.759095 1.3939
2602 1 -4.94373 -9.94582 -2.92246 -5.368 -0.856953 1.94249
2603 1 21.0239 21.2069 -4.07575 6.77964 -0.518574 -6.04341
2604 1 14.4363 -13.0393 -0.451246 -5.06738 4.47617 -1.31687
2605 1 -17.4358 9.13192 -5.19035 2.65588 -1.89486 1.02843
2606 1 14.212 16.7947 19.5067 3.26616 2.71934 -0.685254
2607 1 11.1201 1.61844 -23.5135 -3.56661 -1.1517 -2.37106
2608 1 14.6677 -19.1787 23.5551 5.41074 0.200446 2.91703
2609 1 -13.6087 -6.33337 -18.1825 3.89892 -5.22311 6.74481
2610 1 -0.47625 2.82342 -18.4729 -5.92746 -4.0517 -0.650166
2611 1 -21.9839 24.3526 -20.0981 0.31202 -1.63163 -3.17812
2612 1 -15.3174 -18.1468 20.1558 3.5784 -1.3084 -1.83634
2613 1 -24.1954 3.2261 12.6841 -3.90249 0.286287 -4.11566
2614 1 -10.3883 11.8169 -19.9879 1.13109 -0.572622 3.18069
2615 1 -2.5484 1.99877 15.9966 3.65266 -0.628573 -0.822866
2616 1 22.7154 -4.97471 -8.06119 1.43995 -0.00344463 -7.35219
2617 1 -8.9136 15.2229 -16.0305 -1.21342 1.84524 -2.89488
2618 1 -5.2387 -16.753 -11.6547 -1.05005 -6.76675 4.80635
2619 1 1.48821 12.7745 -23.3022 -7.15075 3.64709 0.133448
2620 1 -9.75586 16.3245 6.4272 -1.36823 0.201645 2.69396
2621 1 2.70153 -21.8346 3.59042 -3.6022 -2.31369 -3.89586
2622 1 0.421524 -20.0035 22.3952 -0.16981 -7.08782 1.37879
2623 1 -22.8016 18.8294 -20.9566 -1.55656 -1.57874 -2.17825
2624 1 -19.7521 18.7554 -5.75955 -2.97394 1.56183 -1.40103
2625 1 -5.66958 -3.24161 -23.0233 -1.53121 -3.92576 5.32564
2626 1 -1.83516 5.19713 22.8572 0.549828 -2.47991 -1.56948
2627 1 13.9085 26.8096 8.38384 -1.67318 -0.491353 0.675837
2628 1 11.8998 -7.93063 -21.5546 1.0002 -9.14179 2.7189
2629 1 -20.6612 -3.31686 5.06252 0.806898 1.56094 -5.31664
2630 1 -13.095 -8.09806 19.7411 2.24661 -1.70975 0.729891
2631 1 18.1532 15.6502 0.952096 4.80287 0.385291 -0.944877
2632 1 17.3788 -0.619257 -18.6022 -3.21839 9.08438 -0.00836909
2633 1 -2.60361 -17.9129 -18.9726 5.55993 3.10991 1.51867
2634 1 -5.06993 11.4593 -21.4641 9.2564 0.486577 -0.652492
2635 1 -1.18233 11.7767 21.7387 0.377027 3.57883 -4.7566
2636 1 -15.3509 -20.0764 14.056 -0.368969 -0.531972 -1.82469
2637 1 11.6817 -16.428 -17.8102 0.948338 2.14319 0.222294
2638 1 13.826 3.18832 -7.24964 2.23998 3.64014 -1.40531
2639 1 -1.87337 -9.95994 19.9391 -6.67887 -1.28767 0.804436
2640 1 5.30275 13.9701 -18.9112 2.18214 2.18677 -7.57082
2641 1 23.0589 9.17428 -15.7578 -0.049726 -0.05008 -1.26309
2642 1 -5.53566 -20.0956 4.54915 0.329425 -0.824401 5.52742
2643 1 -1.26305 -15.3436 -21.4872 5.82949 0.201883 1.70846
2644 1 20.2608 -19.4428 -13.7246 -1.28459 2.56529 -4.60191
2645 1 7.51582 46.4962 14.6735 -0.962736 -5.67731 -0.44914
2646 1 -3.77095 11.8914 -3.87459 -0.396045 -4.45322 -7.15309
2647 1 -8.89724 5.18445 3.4653 -2.70003 2.2129 -0.957128
2648 1 20.5025 -1.10162 4.07316 0.862836 2.69713 -1.64955
2649 1 -18.276 21.2856 -8.69453 0.107058 0.117362 4.0991
2650 1 -2.62036 9.56519 15.6621 5.56335 2.15688 -0.434668
2651 1 -17.1319 -19.4352 16.2605 -3.76148 0.752433 -3.21198
2652 1 -21.5087 -5.4156 -13.7916 -0.991496 0.131497 -3.59456
2653 1 -9.4042 10.5772 -4.71673 -1.38073 3.9137 1.98249
2654 1 19.6631 -8.36581 -2.61974 -0.654941 1.57909 2.87593
2655 1 -5.16967 -10.4115 0.60327 -1.2839 -1.51561 5.07931
2656 1 -6.80013 7.89114 -20.2311 -2.56837 -3.78641 3.32732
2657 1 -11.274 -8.43676 10.9403 1.91255 1.02044 1.40739
2658 1 -3.96689 1.85269 18.407 5.37232 -2.69329 -2.6025
2659 1 15.9095 -6.7123 23.6096 -1.80515 0.228292 -0.347415
2660 1 -13.1706 24.9715 12.0954 -3.64285 -0.00925264 -4.56006
2661 1 7.21916 6.33809 20.5191 0.836888 6.81069 -3.64461
2662 1 -21.6948 -23.8693 12.5469 2.184 -4.37169 -1.09567
2663 1 -7.6821 11.8794 22.7031 0.339593 -1.00247 -4.01308
2664 1 -16.611 19.1794 21.8397 2.12392 0.0841789 -3.27591
2665 1 -19.6814 4.30956 0.609743 2.1336 -5.54929 -1.30198
2666 1 20.1911 -24.0984 1.5105 -3.24884 -3.19918 -1.1585
2667 1 -8.51516 -3.06985 -4.07201 0.183858 1.77052 -3.87399
2668 1 -6.17647 -15.4209 -21.9465 -0.0231365 -0.668309 -0.8177
2669 1 -0.35668 -7.5262 16.7825 1.68116 5.34563 2.49225
2670 1 22.8795 25.2231 -16.5604 0.899589 -1.9709 2.32903
2671 1 10.1761 21.2062 20.5099 -1.99305 1.78422 -2.16677
2672 1 7.98043 -4.13709 8.76829 -0.171972 -0.0928191 1.51962
2673 1 -14.327 -23.4544 -2.11697 -5.07329 -1.60811 -3.32957
2674 1 -7.87567 -21.7614 -2.9615 3.59137 1.08287 -2.43433
2675 1 16.8982 5.66072 -10.8245 2.18416 -3.84804 2.14597
2676 1 20.6499 22.3456 -18.7881 0.964983 -0.710393 -4.3327
2677 1 -1.17113 -22.3078 2.30967 0.0845063 2.37687 2.45836
2678 1 5.68867 -19.876 -16.8133 -2.54639 2.55745 1.69612
2679 1 6.69739 -3.05837 1.48899 0.878352 7.15996 -0.0685071
2680 1 8.44451 -6.47022 -7.65556 -2.65316 3.30227 1.02749
2681 1 -16.5399 -8.027 -15.9351 -0.479356 1.96636 0.259436
2682 1 -21.6135 3.93304 11.6279 0.447154 4.12628 2.53707
2683 1 -15.1841 7.18013 -18.0327 -0.195561 -1.84958 0.289095
2684 1 23.0613 -12.2286 2.66415 -1.83928 1.26695 3.31778
2685 1 -3.41052 -7.42266 5.92979 4.02351 -4.13981 3.46548
2686 1 6.85274 -22.4573 -20.0127 -2.49309 -0.464053 4.75375
2687 1 18.63 -16.5852 -16.3294 4.76813 -1.76841 0.93378
2688 1 -16.9521 -1.87329 0.169094 -2.50698 -2.29807 1.45363
2689 1 -7.85531 -1.37585 -7.69591 -5.00609 0.507838 0.701219
2690 1 -13.2748 -13.9025 -20.3434 -1.23096 -2.66561 -0.847119
2691 1 -18.0192 -24.0532 20.8748 0.270877 -1.0715 1.41514
2692 1 4.54555 -0.0922094 -16.056 -1.08904 -3.34785 -3.27504
2693 1 7.46809 18.8884 -16.0113 -2.76503 5.62709 2.31969
2694 1 -6.23424 -9.52332 18.8531 1.69269 4.99665 1.70139
2695 1 14.2247 7.80938 11.6492 0.875994 0.126555 3.00509
2696 1 -22.2698 -15.6297 22.6247 -0.703422 -1.35766 5.31594
2697 1 6.14038 -3.88229 -4.13333 0.983404 1.99421 -1.58834
2698 1 15.3732 -15.6327 22.0755 3.42382 -5.32236 -0.870342
2699 1 -16.126 15.6319 -2.54324 2.6649 -1.20455 -2.17131
2700 1 -8.4989 -20.8851 2.24523 1.82812 2.57424 2.45048
2701 1 -20.8488 22.5034 -0.422047 -1.01034 -1.7286 3.51953
2702 1 -8.16086 18.0307 -19.7201 -1.3166 -2.51022 -1.60464
2703 1 11.6621 -5.81388 -13.8666 1.59439 1.0708 -6.02273
2704 1 1.30412 -23.5985 1.72241 0.0148198 1.30327 2.95202
2705 1 -1.21035 -5.92159 6.3591 -0.133849 -4.16123 -1.88472
2706 1 4.09029 -22.678 20.4799 0.251345 0.35759 -5.12851
2707 1 -9.97268 -11.8141 2.51128 -1.4441 1.80174 0.631275
2708 1 -14.7396 -0.253484 -22.7689 0.440443 5.39128 0.432928
2709 1 22.2524 -2.43416 19.6823 -4.95096 1.37228 1.67552
2710 1 -4.50021 16.4138 18.4313 -4.42382 0.369566 -1.74117
2711 1 -13.0707 -6.42502 -21.6595 -4.57761 -2.34173 -3.32306
2712 1 16.8291 14.5684 7.64136 -6.053 -0.574446 -1.17282
2713 1 21.5129 2.93223 -7.31921 -2.15673 -1.19511 2.67656
2714 1 -18.1091 5.19468 -10.2679 -2.35973 0.866517 1.81394
2715 1 -13.9616 13.1627 20.4771 -0.988429 -2.06873 2.24722
2716 1 18.2202 12.8455 -0.114796 -0.967502 -3.57619 1.53493
2717 1 9.22794 20.8211 9.4282 2.69174 0.387226 -4.12986
2718 1 10.9342 -12.678 -21.3234 -0.769615 2.06597 -1.06597
2719 1 20.2377 -11.3356 2.45295 -3.82826 -0.131532 5.37467
2720 1 -13.9162 -12.5391 -17.9063 -0.916298 0.808968 4.73841
2721 1 4.03277 -11.8106 11.258 -0.201786 7.04005 -1.9395
2722 1 -9.07285 19.7338 -9.94969 1.97894 -2.04292 -2.4336
2723 1 -5.59442 15.6807 13.5948 4.90822 -1.11108 1.40731
2724 1 -5.97623 6.58638 7.76388 -4.70852 4.02537 0.846358
2725 1 -2.36043 8.49426 -18.1137 -1.21575 -1.79343 -3.68126
2726 1 -11.2207 -7.59584 -23.6956 -2.48883 -0.527266 -4.2447
2727 1 -10.7134 -18.8944 -2.39248 1.73719 0.340603 0.82673
2728 1 21.889 -1.52118 10.5686 -3.51021 5.67294 -1.44852
2729 1 -2.61674 45.5872 -18.7515 4.02427 0.615377 -1.75801
2730 1 -7.5029 -16.0271 10.512 -0.0752071 -0.683254 -0.140886
2731 1 22.2261 25.3149 -7.15541 -1.64136 -1.59074 -7.12531
2732 1 -1.23829 4.07918 6.05312 -0.445678 -1.57524 -0.447356
2733 1 -7.75456 8.95685 -17.6871 3.51632 -1.26096 -1.53608
2734 1 17.5047 -8.19832 18.9071 3.95737 -0.0197667 3.3171
2735 1 -3.69373 7.33238 -15.9632 -2.14038 -2.16209 1.38061
2736 1 16.5738 16.6734 21.5172 -1.21289 -4.85461 -1.75761
2737 1 -19.4281 -19.5283 -2.29182 -2.03573 2.33602 5.72094
2738 1 -6.47161 10.954 13.5871 1.3217 -4.72281 3.26636
2739 1 -11.3791 -6.46181 21.5732 -0.751689 1.74874 1.25017
2740 1 -11.4958 -17.1641 -19.2666 0.890884 1.30943 -3.46293
2741 1 -7.05902 7.10633 3.38676 3.10988 -1.40842 1.39775
2742 1 -13.7377 14.1598 5.265 -1.96935 3.4104 -4.24136
2743 1 2.43398 -18.8325 -8.60636 -3.46907 -0.819277 -1.12882
2744 1 -15.6349 -17.7462 -20.148 0.117151 0.698722 -4.63654
2745 1 -11.4576 21.9202 0.118574 1.54352 5.01926 5.42202
2746 1 5.39442 -12.9191 -3.97344 6.18288 3.53671 -0.586505
2747 1 1.40285 3.3687 16.4869 4.32456 -2.44201 -1.87691
2748 1 -6.63485 -1.3648 -11.2065 -4.04513 2.55606 1.27944
2749 1 -13.9656 -6.63431 23.0851 -1.76821 -3.53883 3.40167
2750 1 -14.4247 22.7113 -20.7464 -1.04281 2.08384 -1.0765
2751 1 9.99055 -22.2436 7.3365 5.56509 -0.786393 4.45137
2752 1 -7.18724 17.1596 -10.7242 2.77795 5.10885 3.1595
2753 1 -0.485363 -5.63772 12.0917 -1.69864 4.32301 2.39363
2754 1 -13.3316 23.8932 -0.397605 5.37235 -5.50321 -1.6174
2755 1 2.20225 -13.915 15.726 -1.21173 -0.315195 3.4199
2756 1 20.1297 11.2597 19.0195 -0.30688 1.90357 1.81687
2757 1 15.8547 -17.7634 19.7525 2.37365 -2.19345 -1.32242
2758 1 -19.8559 -15.3209 -9.37486 -2.62563 2.98199 3.18962
2759 1 -17.6255 -14.2964 7.73501 -2.37999 0.988722 -3.44652
2760 1 -1.15186 15.0272 -18.6369 -0.757035 -0.779961 1.85932
2761 1 -6.07963 -12.2336 19.0818 -3.37736 6.25891 0.7895
2762 1 -11.609 10.2262 9.54629 -3.96287 -6.16586 1.4963
2763 1 -8.15846 -11.0186 16.2433 1.4952 -3.18207 -5.99593
2764 1 9.41267 20.0187 -14.1585 5.59423 0.268104 1.97797
2765 1 8.79774 -16.0114 -18.8071 -0.425268 0.681495 -2.07009
2766 1 10.0799 6.09962 16.573 2.1503 -3.76367 -0.245804
2767 1 -13.4346 -16.8649 -21.5557 4.01684 1.91384 -4.71847
2768 1 -7.28054 22.8354 0.502048 0.719195 3.25814 -3.23582
2769 1 -14.3825 17.7915 15.9227 -1.70748 -0.269425 1.49558
2770 1 -22.9043 11.5665 2.58759 -3.0664 1.4942 4.01113
2771 1 -17.8335 -15.435 -17.3566 2.22742 -6.22819 2.22543
2772 1 -15.6348 20.3265 -18.0579 -4.24103 -2.46655 1.66624
2773 1 8.57933 24.4995 5.15133 3.3462 2.23857 -0.76056
2774 1 22.0221 -1.81858 -16.5903 -2.21684 1.56745 0.729144
2775 1 -2.99759 -18.8673 15.3357 -3.68105 4.92617 -3.75727
2776 1 11.2653 6.85103 -11.9134 1.54929 -3.55747 -2.66595
2777 1 -12.6643 16.922 6.0499 -0.852068 -1.35525 -4.39524
2778 1 -21.543 18.8644 19.1719 -1.29154 -1.05173 -4.86741
2779 1 17.1823 17.0517 18.6866 1.90157 -0.00376917 4.56882
2780 1 -11.1815 1.11828 -5.94698 0.761901 4.33294 -3.68452
2781 1 9.66042 24.8722 12.7369 3.46263 -0.343529 1.16657
2782 1 7.95488 -12.9845 14.1899 5.38708 -0.186741 2.75102
2783 1 11.1154 -10.0674 -12.6614 1.43083 1.44222 1.16595
2784 1 -10.6418 3.34474 0.514969 -0.181555 -0.837065 -9.24269
2785 1 20.9644 -7.06848 -14.9727 2.86069 1.79082 1.66266
2786 1 8.04836 -3.53864 3.82986 -1.12358 -2.0072 -3.157
2787 1 -14.3929 14.908 -0.413838 -0.492417 -0.000473481 1.14055
2788 1 -22.393 16.9204 12.5913 5.95686 7.01104 2.17698
2789 1 9.73731 -7.44867 -5.20036 1.75033 -4.27953 -0.619363
2790 1 -8.98809 -6.31982 -15.7725 -0.632098 -5.43672 0.099488
2791 1 23.2346 16.8645 -4.28138 -1.38823 -3.59801 -3.19366
2792 1 -5.26677 -3.32353 4.71755 -0.39436 -1.17704 1.10291
2793 1 -0.932676 1.23333 6.89775 -2.52288 3.32898 2.6178
2794 1 6.65841 19.287 -7.65299 -2.12201 0.934831 -1.35661
2795 1 20.6375 15.3913 -17.5768 0.292471 -2.35378 -1.33945
2796 1 18.1951 -17.4499 11.1619 -0.640612 -2.39211 2.09925
2797 1 19.4561 -11.2913 21.6253 -2.90456 -1.00315 -2.94299
2798 1 -20.1216 0.761856 -4.5592 -1.25976 3.51626 -3.74088
2799 1 0.84524 -17.7602 -6.64988 1.40988 2.3487 2.76435
2800 1 -11.4959 -15.7053 -15.5055 -0.462736 -6.10874 -2.31094
2801 1 2.21624 18.1658 8.08029 -0.365041 -0.407035 0.337331
2802 1 8.09183 10.5354 -11.0969 -0.636695 -3.3816 -5.09986
2803 1 23.1185 -7.95912 -16.5678 0.488848 1.93698 0.449274
2804 1 -16.4227 16.6795 -8.15384 -2.66317 2.23661 -3.25942
2805 1 -15.4885 6.9922 -10.6735 -0.600944 -0.814919 1.91002
2806 1 -3.91169 20.1146 -17.0908 -2.51299 1.14855 -1.90596
2807 1 -21.0223 17.9779 -1.56132 5.12986 2.01128 1.84898
2808 1 3.76996 -23.8516 -12.5651 -0.949877 5.45242 -10.1072
2809 1 -12.458 19.4438 17.1907 -0.18352 -0.318633 -2.42298
2810 1 5.25219 25.6765 -16.2148 -0.534189 0.825405 -4.7152
2811 1 -11.9332 12.5931 3.7039 -0.293467 0.00115991 2.24729
2812 1 -8.49103 -1.15927 23.5834 -7.69389 2.03727 2.04838
2813 1 1.43241 -9.8744 -17.005 5.89276 0.0430905 0.701423
2814 1 21.068 -2.98414 -6.52398 1.83845 -1.76261 -1.58481
2815 1 23.3622 4.89214 4.13087 -0.498994 -0.81322 1.94582
2816 1 -0.669655 -15.7003 19.9744 3.07358 -3.68656 -2.46038
2817 1 8.26906 -15.5213 -21.6649 -0.187401 -3.45716 6.191
2818 1 3.29314 -5.34128 3.06422 -0.509573 1.31731 -4.62723
2819 1 17.2891 14.6644 15.3666 0.226438 6.06259 0.961551
2820 1 -15.4553 24.1215 5.65621 5.54608 -0.206589 -3.91117
2821 1 12.756 -7.58956 -11.6731 -0.298785 2.94607 9.25985
2822 1 -13.3123 -3.04054 5.59233 0.276947 -2.28978 -2.80611
2823 1 12.6471 -16.1603 4.56219 2.09745 1.59824 -1.21882
2824 1 8.25082 14.7656 16.1803 -3.59555 0.628919 2.75081
2825 1 14.8379 19.9329 -9.0565 0.61192 -0.0634701 6.79035
2826 1 7.22155 -19.1308 -2.832 -4.34035 0.200644 2.19216
2827 1 5.08029 -9.13368 20.8697 0.970272 -0.533697 -3.29757
2828 1 0.155188 -6.29097 -17.6059 5.98067 0.343159 -3.15885
2829 1 17.733 -23.5041 8.78027 -0.792607 -5.41213 1.32791
2830 1 -22.8239 7.34038 -1.37078 -4.33613 -2.42111 0.429619
2831 1 18.9573 3.1338 -12.7002 -5.3498 -2.40624 1.56808
2832 1 -21.9162 -22.0289 -10.4317 0.150576 -4.14333 1.55345
2833 1 -20.764 2.07073 4.47441 -4.6156 2.55663 0.697015
2834 1 -9.27002 -17.3353 23.4592 -0.665523 1.13578 -4.11253
2835 1 -1.98351 5.65875 2.56767 -4.56225 -5.69042 2.16255
2836 1 -12.4007 20.1006 -5.59743 2.328 -1.16825 -1.21406
2837 1 -15.2567 9.88643 -10.3336 -1.7502 2.25218 -3.86162
2838 1 19.8966 -10.0993 18.5018 -0.279366 -4.62388 6.16665
2839 1 -20.1367 -2.50994 -21.7887 0.897636 0.29645 -1.61427
2840 1 4.14928 -19.6655 23.49 -1.69137 1.63694 -2.69317
2841 1 19.3435 -17.9819 -3.75411 1.56973 0.0475058 5.33513
2842 1 -3.01644 -13.0855 -9.90235 2.92555 -4.03638 -3.09623
2843 1 17.285 4.72379 -22.7145 3.54997 0.112537 5.44664
2844 1 21.6668 16.541 7.17195 0.616567 0.472528 -3.63341
2845 1 20.2709 4.90249 -22.7521 -5.40859 -1.56383 2.47775
2846 1 -20.865 1.64062 1.46429 0.220194 -2.00078 -2.71736
2847 1 7.24933 15.0563 -0.345331 -4.99857 2.12669 1.60276
2848 1 -17.3732 -23.767 -10.5455 -2.38069 2.92466 0.681762
2849 1 -21.9856 -23.5654 15.5049 -1.67265 3.44775 -2.45512
2850 1 2.42121 1.82057 -9.81749 -4.82642 -0.0143012 -0.467927
2851 1 -7.50578 23.7431 19.6596 1.57856 2.16859 -1.73308
2852 1 1.94518 -6.87536 0.617333 5.40258 0.538912 1.1422
2853 1 -3.47322 24.6633 21.7693 5.26021 -0.565819 -1.15328
2854 1 4.7638 -8.32517 -6.04932 4.81244 -0.129961 5.37435
2855 1 -18.8385 -7.90546 -20.3235 2.10479 0.996957 -3.84483
2856 1 17.5913 -17.1389 -0.489342 -2.14552 7.9593 -4.66523
2857 1 18.1555 7.75619 9.51065 6.01614 -3.22627 -1.14721
2858 1 12.3149 -1.1185 -21.2973 -10.0173 5.75229 -1.43023
2859 1 -21.8815 46.8316 -20.3861 -2.25611 -2.0629 -1.20805
2860 1 -23.3515 7.33765 17.5988 1.7679 -1.4392 -8.08628
2861 1 13.416 12.7249 19.0072 -0.4654 0.545163 -2.03289
2862 1 10.963 -2.7092 -19.3379 -2.16694 4.26206 3.90861
2863 1 20.7249 -19.457 -18.7834 2.67997 2.62101 -1.02858
2864 1 -18.1682 12.2008 14.543 -2.9599 3.74469 -2.99026
2865 1 7.09204 10.3629 -0.885061 1.73385 -1.2712 1.76334
2866 1 -19.0428 25.7474 -6.84517 1.53266 0.0223355 3.21948
2867 1 -20.2722 19.6333 -11.7463 -0.0251271 -1.52253 2.64053
2868 1 4.04001 -24.0317 17.7449 -0.796132 -0.316822 1.73966
2869 1 -21.3679 -18.8437 16.715 1.16785 3.33201 -0.4883
2870 1 -10.4408 14.1992 -9.70769 4.5231 -3.17169 2.07552
2871 1 -14.6042 20.7931 23.2134 -2.06543 1.89465 1.52463
2872 1 8.40703 7.90745 10.3263 2.00118 -0.411016 -6.44672
2873 1 -10.3498 1.44531 5.64262 1.71558 4.32509 1.30328
2874 1 -0.430391 -12.1153 -14.4853 -2.706 -4.431 2.61124
2875 1 19.6535 -6.46597 -9.06175 -3.16745 -0.78324 -5.91692
2876 1 20.097 -22.5768 -22.6251 -1.44766 0.648015 1.38236
2877 1 9.26177 -7.57712 6.38664 -0.747036 4.49949 -2.32368
2878 1 -18.447 21.7246 -11.408 5.50095 -1.88228 3.38668
2879 1 2.56321 18.2557 5.335 -4.31998 -2.89987 -3.08195
2880 1 -1.42227 -0.149577 17.802 -2.02846 1.08761 -5.55512
2881 1 -17.7805 16.6489 -20.8889 -1.21815 0.421356 2.61694
2882 1 -18.5582 -16.2912 18.8679 -4.5367 -2.73667 -1.91776
2883 1 12.6185 -15.4324 -0.284481 -0.479875 1.57429 4.92497
2884 1 8.26475 -5.2732 -22.4176 0.767942 0.251338 3.22517
2885 1 -8.1391 4.00206 -5.1731 -0.106876 0.305615 5.24132
2886 1 12.848 24.3161 1.4779 4.9269 3.84323 0.0731835
2887 1 22.7662 17.0988 20.6803 -2.34042 -0.361769 5.96319
2888 1 -11.766 5.14803 -22.7592 2.49954 0.326792 -2.34956
2889 1 5.01409 -3.30231 9.15271 -4.20235 0.787865 -4.30298
2890 1 -2.54346 -6.34882 -22.0873 -1.19304 0.537768 -1.63495
2891 1 8.11144 -2.65528 17.1348 0.0371865 0.00939887 1.9238
2892 1 21.6189 19.769 -8.79817 -0.623812 3.0373 2.7455
2893 1 -10.4332 -14.802 -23.4673 -4.04327 0.0828182 -0.551427
2894 1 -10.1461 7.32097 17.0506 -0.238082 4.60383 -2.57358
2895 1 -19.421 21.9545 18.7013 2.21931 5.37679 -4.49631
2896 1 -13.3353 4.57599 16.2611 -0.547259 0.659438 -3.73279
2897 1 -2.6212 15.4399 -1.9311 -4.01183 -3.05139 -2.26178
2898 1 -8.52586 -9.70469 -21.5297 -3.53733 -5.03158 -0.993532
2899 1 -3.27184 -21.1252 19.3621 -1.75717 2.92764 -0.723979
2900 1 15.5265 2.87187 22.1975 -4.4197 -0.204913 -3.43832
2901 1 -10.0649 -18.3054 -16.8361 -0.485311 3.55994 -4.64412
2902 1 23.1977 -0.111622 -20.1979 0.978618 2.21067 -5.56866
2903 1 -13.8761 -14.3812 6.29151 -0.572634 -1.45533 1.18449
2904 1 -4.9984 12.3494 0.594942 3.80429 5.1764 -2.68864
2905 1 -17.5094 23.4961 20.0331 -0.424954 -0.316197 -0.304119
2906 1 14.4493 2.19538 16.2098 0.247803 -2.37832 2.85982
2907 1 -17.4781 23.4177 -6.74332 -1.12697 4.84191 -1.87071
2908 1 -1.19536 11.7939 18.791 -2.02496 6.42814 2.48575
2909 1 -10.3402 -5.28424 -21.703 3.34843 -0.734025 -4.08021
2910 1 -14.9313 10.0796 18.8401 2.42307 1.46873 -5.52947
2911 1 1.30056 4.46746 -19.9067 -1.21418 0.938183 1.99359
2912 1 10.0254 -15.0147 -6.91497 -6.40401 4.23983 3.45036
2913 1 17.2954 5.41946 -2.59918 3.07517 -2.55967 0.542407
2914 1 -0.710067 1.27117 13.7284 0.889081 -2.26085 -4.43944
2915 1 -13.9058 -12.2541 23.9057 2.28182 2.25322 0.868647
2916 1 17.2011 17.6818 -4.64744 -1.7982 1.09086 2.28966
2917 1 -7.45617 9.09816 7.55033 -1.9259 -0.197312 -1.14824
2918 1 18.4678 6.23604 -5.20189 2.44685 3.43874 -3.6362
2919 1 -23.1674 -16.8525 -2.03306 -2.45671 -0.135773 2.14359
2920 1 21.6581 13.8853 8.47005 2.43545 -1.73349 3.02389
2921 1 -16.5393 18.8535 8.3864 0.391442 3.6767 1.18634
2922 1 -13.42 -19.5885 -23.1169 0.00241294 -0.377482 -2.82636
2923 1 -14.8405 1.60206 21.5303 -2.82575 -2.25804 0.68068
2924 1 -2.46603 -16.6583 22.1055 5.19955 -1.58898 -1.13346
2925 1 17.9777 -10.4714 12.9598 1.07289 -0.663169 -0.523306
2926 1 -7.60191 8.46088 -12.9471 -2.31797 -0.686104 -1.49437
2927 1 10.4971 4.21632 1.74282 1.72389 -0.830727 -2.0028
2928 1 22.021 45.4762 -11.5968 -2.32765 -3.74042 -0.482225
2929 1 6.25594 -13.553 4.00625 1.61484 1.43326 1.07715
2930 1 -18.2957 8.01904 -0.754389 2.13858 4.19416 -1.02201
2931 1 0.870701 -10.775 20.0711 1.01922 7.60406 -2.05359
2932 1 7.09038 19.4731 17.0254 -5.20002 1.92024 -1.56448
2933 1 21.0152 -5.57354 11.127 -0.0931022 -3.17818 -4.82173
2934 1 11.5236 2.05167 -20.5552 1.51425 1.66762 3.30982
2935 1 6.30247 23.0516 1.22189 -6.2378 -1.89696 -1.05094
2936 1 -22.3337 7.77599 -9.62156 -2.40024 1.5806 0.165125
2937 1 -18.8474 5.01601 -13.1828 4.04047 -2.86385 -0.249547
2938 1 -8.58403 -4.11349 -1.28186 4.95254 -1.58859 4.98384
2939 1 -12.5211 19.41 4.49746 -2.84829 3.05386 5.74318
2940 1 15.9605 15.513 -0.842998 -0.293232 -1.11755 1.73791
2941 1 -5.60757 4.43318 -11.5174 -2.60157 -3.59046 5.54196
2942 1 -20.8495 14.5086 19.795 -0.629356 0.567726 2.59704
2943 1 22.7626 5.82291 11.7491 2.744 0.68262 1.53157
2944 1 10.2159 45.9497 13.6591 -4.99715 -3.33252 -0.501202
2945 1 -6.89998 11.481 -8.40996 0.296846 -1.97682 -4.62483
2946 1 11.3494 0.116399 10.4324 -1.08728 -3.1945 0.515363
2947 1 18.8824 -14.9554 -23.289 1.18554 0.705078 0.0960217
2948 1 2.79085 -20.1635 -2.56898 -3.18418 -0.25342 0.400373
2949 1 -5.83209 -19.8288 -22.9754 3.66539 -1.07869 -0.400401
2950 1 -18.4709 16.7271 4.99785 4.35451 -1.16371 2.32096
2951 1 13.3874 -17.9497 -11.3247 -5.11374 -0.593863 1.70312
2952 1 -11.5933 22.728 -20.0209 -2.89618 2.14423 -1.15252
2953 1 17.2775 4.15778 0.161911 -1.74698 -3.50685 1.49527
2954 1 -15.5987 -1.52077 8.63674 4.19116 2.17322 -1.25759
2955 1 12.7387 -11.5988 15.1483 -2.9675 -2.94058 6.95649
2956 1 -13.3407 19.638 -2.78808 -2.4971 0.6186 -4.88563
2957 1 2.40921 -18.6797 14.2952 -1.70893 -1.28948 0.128491
2958 1 6.01575 -7.90868 -11.6157 1.53359 0.810487 -0.710602
2959 1 -17.4617 19.4704 -21.5458 -0.784393 2.32294 -1.52874
2960 1 -14.4949 -2.33996 -20.922 4.18657 -1.8264 -2.00319
2961 1 -12.4581 -11.4092 -21.6326 1.15364 1.89148 2.07772
2962 1 -8.99975 -1.22137 -15.6516 0.5092 2.75587 -3.92223
2963 1 -23.3608 12.8408 -5.68024 0.780479 0.546068 2.53061
2964 1 0.877259 -22.2958 -21.3096 -0.211149 -2.80919 4.32028
2965 1 17.3626 -0.124371 -15.3778 -1.54036 2.379 1.976
2966 1 -1.50832 -22.4781 17.3943 0.799669 2.35539 0.969209
2967 1 0.63734 11.9062 9.53105 4.72931 -3.98961 1.32818
2968 1 -3.42935 -14.5055 -0.218731 -0.578664 -1.51135 1.27888
2969 1 -4.35031 -1.15812 18.3835 4.28803 3.17207 5.57268
2970 1 19.9494 -12.1974 -12.2763 -3.13783 5.40936 3.87483
2971 1 -5.8017 20.7602 11.0052 -1.06292 -2.67688 1.60825
2972 1 -9.03928 9.35594 -10.523 -2.708 2.04911 3.30913
2973 1 -13.2249 15.8821 21.2467 2.79483 0.361433 4.88092
2974 1 22.4717 0.405173 20.053 -3.17975 4.5761 1.1869
2975 1 14.8947 10.8084 -1.97621 0.094558 -4.39799 -3.17928
2976 1 -17.5845 21.0138 -14.1862 -1.88751 4.87478 0.549177
2977 1 2.93628 -9.08894 1.65817 1.38087 -0.120431 0.16529
2978 1 11.8387 19.0822 -15.4869 4.12438 0.421013 -1.35768
2979 1 7.46215 3.58432 16.1006 1.19093 -0.21527 3.12594
2980 1 -2.4682 12.7144 -1.06333 1.69904 -3.88945 0.71873
2981 1 -15.3497 8.78235 16.4178 1.6725 -5.9434 1.81701
2982 1 -12.0817 -6.33978 9.1491 -4.0464 0.6695 -4.47825
2983 1 -9.0725 13.4837 -21.8815 -5.49059 1.68645 3.05212
2984 1 0.459334 -1.31389 -23.8117 -1.42435 -2.27437 -0.552941
2985 1 -13.692 -12.4168 11.4875 6.77122 0.839464 4.55487
2986 1 -6.80459 20.8662 -22.3729 -3.23756 0.558525 -2.46012
2987 1 -21.1446 45.9303 -8.02506 3.3177 -1.55415 -8.14949
2988 1 0.448349 -22.918 -4.7077 0.733262 2.79926 -5.51379
2989 1 20.6653 20.6397 -11.1544 2.63919 -2.50569 1.02834
2990 1 11.8837 -20.8239 14.6594 0.0806347 0.837513 2.66429
2991 1 3.72879 2.69899 11.4274 1.05888 -2.7417 -1.2952
2992 1 22.1194 13.6242 -12.0398 -4.17423 -5.66151 -0.103719
2993 1 -24.3059 16.1772 15.8699 -6.59883 0.664846 0.505163
2994 1 18.9853 -0.755661 10.6468 2.40929 -2.99506 -0.408049
2995 1 -2.50647 9.69826 -4.6757 2.02672 0.904334 0.0836774
2996 1 11.9068 5.62636 5.25216 -3.56553 -0.325841 -2.29986
2997 1 -6.47372 -18.0132 6.50657 4.52262 -5.24011 -2.74326
2998 1 4.06639 -16.0187 16.4015 -3.96847 -3.17873 1.99539
2999 1 14.4533 -18.4859 -3.18854 4.63316 1.82725 -0.990965
3000 1 -1.47891 14.2986 15.7183 -0.720731 -1.11971 3.60192
3001 1 10.6196 13.6819 7.26441 -1.97156 -0.753209 -6.03992
3002 1 -19.8306 14.9276 17.1119 -0.428737 0.335015 3.83344
3003 1 14.3529 14.529 11.3367 2.40268 -3.98547 -1.25168
3004 1 17.0824 19.318 -16.6356 3.80417 -5.87823 -0.553089
3005 1 3.00135 3.53904 -5.40172 -0.605794 -3.22776 -1.99599
3006 1 19.8654 5.79635 -18.581 -1.23327 2.50919 4.14202
3007 1 -7.04656 -22.4312 20.7165 1.65825 -2.42293 -6.16248
3008 1 -2.4229 -21.1829 22.1858 0.899023 -1.16196 2.95352
3009 1 -14.4959 -21.5756 10.1212 -1.3759 2.23841 -2.11793
3010 1 -16.7264 -19.7821 -16.8731 0.751904 -0.0747548 -1.82127
3011 1 -9.09272 -1.8499 -12.712 -1.9023 0.794181 4.07982
3012 1 3.38708 46.7281 -20.1699 0.473325 -1.55308 -0.358795
3013 1 10.4741 -17.3267 21.6151 -1.74437 0.487558 -1.69756
3014 1 20.8171 13.4734 20.8222 0.920564 4.57401 2.88928
3015 1 -2.07268 12.7891 9.75683 -3.23575 -2.83607 2.99445
3016 1 18.1478 -12.0456 -23.6579 -0.873903 -2.03369 -2.61785
3017 1 -13.4263 10.1359 -23.0163 6.84053 -1.90422 -0.905515
3018 1 -22.4816 0.106918 -13.1337 3.04595 -0.371963 -1.29524
3019 1 -19.2325 -22.6942 11.8499 -5.01971 -0.518332 -1.54244
3020 1 -14.589 -7.94361 8.92634 -4.33051 0.608468 1.3329
3021 1 -17.3411 25.1539 -3.25982 4.38615 -0.660698 2.74751
3022 1 17.0813 -13.5358 0.817793 1.1472 -3.91846 0.137878
3023 1 5.70231 19.4655 -5.16568 0.372818 -1.6643 3.11552
3024 1 -22.8398 7.90229 1.5843 -2.93495 2.14812 4.66135
3025 1 5.44049 46.6001 9.94889 -2.36623 0.322428 3.12264
3026 1 -0.00226875 -21.921 7.53336 1.62821 -1.92102 -4.4294
3027 1 14.0557 4.1451 10.8538 0.120251 -2.96564 0.427025
3028 1 -17.9196 13.9069 20.6204 0.874438 -0.874496 1.12679
3029 1 6.33324 4.87476 12.2986 -1.41132 -1.469 1.61112
3030 1 -18.021 18.2921 -13.0755 2.58122 0.881045 4.09046
3031 1 22.2155 -11.7666 -17.3755 -2.64808 -3.31568 2.28583
3032 1 18.0791 -10.5484 -6.77416 7.29503 -5.19717 6.75764
3033 1 -11.2979 3.80448 6.86088 0.274064 -4.73488 3.6787
3034 1 -11.6787 -7.14921 -16.1661 0.266505 -2.33981 6.10179
3035 1 19.1376 15.283 6.13024 -1.38549 -4.4842 -5.18203
3036 1 11.5583 19.6199 22.2622 -5.84912 -0.262828 2.55308
3037 1 -3.75475 -9.78072 7.14239 -2.35164 2.70212 0.858008
3038 1 -16.4274 -24.142 -17.6874 0.116143 2.11637 3.27188
3039 1 18.575 -24.2577 17.1884 4.44206 2.8016 -3.32575
3040 1 7.97164 -18.1287 13.6469 8.25336 -3.4556 -5.01756
3041 1 -20.3831 20.6402 -2.74289 -0.668835 -3.32442 -1.34158
3042 1 -6.91466 22.4583 13.1684 -1.8103 -0.878712 -1.21481
3043 1 6.44725 -12.0826 -16.9132 -3.01813 1.68519 -0.411425
3044 1 -6.83962 15.5576 -4.45459 0.265596 -2.44736 1.36735
3045 1 1.31576 -3.37555 4.54181 -0.241883 -3.79765 -4.56245
3046 1 16.452 -12.0573 -16.1821 4.43932 2.01231 -0.924776
3047 1 9.03574 20.5157 3.5261 -2.61848 3.52982 3.50891
3048 1 6.58516 -10.8718 18.9922 1.93108 -2.33515 -1.88651
3049 1 -10.593 -23.0415 -15.8579 -0.563381 -0.770284 -2.05812
3050 1 1.39936 46.1565 16.9147 -2.87627 3.10722 -2.06827
3051 1 -17.9481 0.253286 -14.3167 -2.39766 -2.65069 0.724789
3052 1 -21.795 14.7712 -13.7775 0.363517 7.06181 0.733625
3053 1 20.1618 -22.8561 -0.846339 0.681768 -7.37546 -3.3554
3054 1 19.5668 -2.48207 21.0955 0.0283682 -1.83078 1.60217
3055 1 19.0427 3.27527 4.67324 0.21645 -0.0560483 0.704229
3056 1 23.4372 14.0785 13.6955 0.800107 2.41046 1.22469
3057 1 17.4734 9.12045 23.3956 -3.97487 -2.74082 2.39375
3058 1 11.6004 -6.63651 9.75731 -5.94467 0.429526 -1.39881
3059 1 -11.5274 -21.4114 -5.69545 -4.61533 4.09989 2.65569
3060 1 -22.7514 25.2494 -3.39195 -4.88989 -0.0742378 -1.78897
3061 1 -10.2667 24.4967 -16.1856 -3.66436 -2.81314 -2.07794
3062 1 -11.6886 15.4819 -16.5396 -2.74247 -0.0968197 -5.48476
3063 1 9.19966 22.473 -12.7731 2.3032 -2.9433 -3.25205
3064 1 -0.30717 10.786 -22.0511 -4.00752 2.32459 1.01221
3065 1 5.96201 -12.3906 -11.4802 1.93121 5.24959 -2.77462
3066 1 21.737 -3.22769 0.244849 -0.272964 -3.18674 0.983129
3067 1 16.4883 18.8735 -13.8543 3.86627 -2.24481 -1.45559
3068 1 19.2338 16.5561 -2.59882 0.311698 -3.11109 0.564329
3069 1 7.02014 -8.5863 -4.44832 -5.55067 2.43294 1.90116
3070 1 22.9189 -7.75531 -0.501498 -5.70184 -0.103052 -1.38389
3071 1 -2.91713 -1.34717 -4.16702 1.37872 4.97866 0.400748
3072 1 1.21081 10.3989 20.4397 -0.559329 2.59687 0.302666
3073 1 2.34542 21.4929 0.03946 2.21788 2.14691 -1.18639
3074 1 -8.28793 -7.64044 10.1523 -0.871677 -0.727608 0.256989
3075 1 19.1618 9.81509 -22.5315 2.88384 -4.71901 -0.786461
3076 1 -11.5732 20.4838 11.9684 1.84312 0.790531 -3.69053
3077 1 -13.6449 44.9772 -9.78322 4.42624 -3.23312 3.61665
3078 1 -20.3878 5.17483 -15.665 0.129873 -0.594392 0.531888
3079 1 13.334 -4.5206 -2.90365 -0.755869 1.64881 -1.30051
3080 1 -20.2946 11.2169 -8.33578 -0.266927 0.906225 0.461816
3081 1 -19.1829 8.82092 7.30107 -4.95945 2.76456 3.49839
3082 1 -3.20022 2.34827 22.2576 -1.63513 0.275114 -1.42441
3083 1 8.03152 -13.4157 -9.66886 -4.06448 1.75173 0.434158
3084 1 -15.6886 -21.0059 7.46101 1.15886 2.28087 -2.6111
3085 1 -16.6162 -2.55178 -6.62333 -4.17639 0.106148 0.698951
3086 1 15.3434 19.1424 5.06221 -0.422045 -0.847414 2.52598
3087 1 -10.3557 -19.7404 11.7765 -0.465351 -1.24587 -0.706537
3088 1 8.48631 3.66711 13.6518 -3.72437 -2.50294 2.96809
3089 1 9.55642 -20.7098 12.9887 -4.6 -4.23574 0.248768
3090 1 16.2707 -2.66252 -7.04325 0.540395 -0.848805 0.374486
3091 1 -5.59396 2.94956 20.7813 -0.0958377 2.55088 -0.140145
3092 1 -9.07332 -5.02632 22.0869 -0.701874 1.70441 -1.80221
3093 1 -12.1935 3.59397 -20.419 0.307261 2.13966 4.02797
3094 1 14.9179 4.33594 19.1214 1.57356 -1.64539 -0.508
3095 1 -15.6056 -13.384 0.282888 4.6347 3.2724 -1.07895
3096 1 8.66659 4.71627 -22.9414 0.784649 4.84081 5.04145
3097 1 -6.83953 -12.3617 -19.6214 -5.24678 -0.448037 2.01554
3098 1 -8.50484 -18.9436 4.51886 -0.49628 1.58055 1.79557
3099 1 -21.0445 9.61399 23.4419 -2.2399 -0.40345 0.331583
3100 1 19.9145 -10.4953 -22.0123 2.59498 -6.08218 5.08469
3101 1 21.8142 -14.5762 -20.1167 -2.28669 -2.42698 1.62798
3102 1 4.94721 3.42125 22.8094 -2.27737 -1.81906 -0.0191898
3103 1 -7.4371 -11.2046 -23.7853 -3.54956 2.53705 -4.07459
3104 1 -21.0282 -7.0155 10.3958 1.92424 -2.28686 -0.724334
3105 1 -24.0196 -6.73753 20.6484 -0.772859 -1.37397 -2.22082
3106 1 0.955101 -11.1963 -6.26178 1.79869 1.95235 3.55314
3107 1 22.0676 -12.3815 21.7668 -1.31633 -1.677 2.11617
3108 1 7.96105 -17.3883 -6.54791 -4.53281 -0.75248 0.0647173
3109 1 1.56919 -2.29429 2.00295 -2.95436 5.82734 5.85739
3110 1 8.45226 5.06781 -0.0438435 2.10369 -2.71892 1.07058
3111 1 11.4052 -19.272 -17.1382 2.60208 2.13103 -5.32256
3112 1 -2.55293 -9.78937 -20.8772 -0.0628899 -1.92159 -0.909196
3113 1 9.01047 -13.339 -17.5314 -2.52375 7.07112 -2.25372
3114 1 4.96407 6.27297 -18.7005 1.5331 -1.85789 3.11597
3115 1 -20.3901 19.86 -14.5397 -1.89836 -1.12057 -4.26752
3116 1 -9.868 15.6764 -1.4308 2.52525 0.991976 1.38188
3117 1 16.9504 -11.5929 -4.14415 -6.68195 1.03767 0.123644
3118 1 4.98086 6.47962 4.41076 -1.94232 -0.184066 -2.07176
3119 1 -7.6422 -7.11426 4.1507 -2.63389 -0.284623 0.51084
3120 1 -12.524 -9.17157 -18.0668 1.24343 2.44364 1.81532
3121 1 2.38267 -22.7326 15.519 -0.924746 0.874003 3.2518
3122 1 -13.7289 25.0118 19.3174 3.14668 -0.68225 2.09097
3123 1 13.6015 16.9267 12.9652 -4.28757 -3.54124 0.291957
3124 1 -14.7102 12.8777 -9.83704 0.906519 -3.36411 -1.15376
3125 1 -1.81498 -14.2884 -3.21124 0.124413 -2.07974 -1.9348
3126 1 1.42558 6.95929 -8.083 -1.77692 -2.90085 0.12307
3127 1 17.3846 6.87538 1.11438 -3.09305 2.75754 5.22298
3128 1 4.33328 8.83072 -16.0249 1.9098 -1.74176 0.468905
3129 1 -2.68997 -11.5127 11.1682 1.65719 1.84545 -4.57356
3130 1 22.7745 -9.62021 10.0712 -0.218203 -1.78721 -5.56498
3131 1 -10.2688 13.0449 1.43063 -5.12671 2.51216 -0.993752
3132 1 4.01744 10.3206 2.44123 2.03883 3.49917 2.53896
3133 1 -2.13242 14.0366 -14.1694 3.51533 -3.90247 -3.47087
3134 1 20.7467 6.6153 -3.64233 1.9302 -1.73757 0.705602
3135 1 -16.8511 -13.1782 -2.3833 -1.38698 2.30366 -2.87836
3136 1 -17.6155 -23.2 5.91822 -2.35839 1.8236 -0.573172
3137 1 3.07643 -6.7974 -18.0577 0.48822 2.02181 0.499266
3138 1 17.4121 -4.32352 22.2269 1.90877 -2.68401 2.8074
3139 1 5.61366 10.2959 -12.89 4.75271 -1.44765 2.47298
3140 1 2.59646 17.0053 -17.7009 0.0124321 0.577463 -5.12141
3141 1 8.56343 -4.70597 -5.34013 -0.639485 -0.726767 2.52397
3142 1 1.13443 23.9471 -18.5203 -0.588104 3.72852 -2.07883
3143 1 23.2163 23.3853 -21.6461 -1.8949 2.06479 1.38004
3144 1 -0.490137 12.0091 4.08354 -1.18136 -2.74137 2.39266
3145 1 20.8187 -19.2241 9.25575 4.64952 1.06578 3.25408
3146 1 0.73167 6.54917 -10.7827 -2.19678 0.939522 -1.5043
3147 1 -2.02796 -17.0496 -0.107826 0.861795 5.999 -1.56033
3148 1 9.26438 -10.2305 4.79713 5.62027 5.98123 2.81761
3149 1 11.528 5.9719 -16.8803 -0.814591 -1.15203 -0.753995
3150 1 -19.9773 14.4454 4.42416 -0.470177 2.23656 -1.98201
3151 1 -11.6737 44.6991 -17.1486 3.75481 -4.63422 -1.13224
3152 1 -13.582 18.5403 -23.1403 0.536264 0.671436 -0.799002
3153 1 16.7289 7.2311 -21.0236 -1.29713 2.14478 -0.421349
3154 1 10.4563 19.2223 1.24405 3.57822 -1.45073 3.14668
3155 1 -5.41275 -11.9067 3.03609 -1.39929 -2.59671 9.31385
3156 1 18.7992 -4.442 7.43506 0.00908694 0.262455 -3.05187
3157 1 12.31 1.60438 4.22905 -3.39974 -0.344753 5.87332
3158 1 21.9007 -19.0711 -7.84261 1.8003 -0.145088 2.20324
3159 1 18.6255 2.3348 -6.38384 -3.34142 2.20672 -1.18342
3160 1 -8.99574 46.0971 -23.7155 0.0157742 2.12553 -3.67289
3161 1 -8.38378 -17.4341 -2.78869 -0.597104 -0.226627 -2.6133
3162 1 -13.9452 -15.1087 -13.6596 -5.5608 -0.545387 1.86798
3163 1 22.6557 -0.035933 14.0221 -2.66487 -3.07204 -3.48607
3164 1 -20.9397 3.05736 19.5049 -1.76074 -1.93109 2.68878
3165 1 -6.48551 21.0982 -16.7222 0.979578 -3.65899 1.92968
3166 1 15.771 -8.83906 16.5317 -2.12528 -2.8526 -0.897316
3167 1 18.6589 -16.0597 -20.7322 1.88719 -0.852984 -0.654331
3168 1 -15.9219 -21.3276 18.1721 -1.05982 2.0498 5.12615
3169 1 13.7426 -23.097 -20.3814 1.73526 0.164562 2.74
3170 1 5.06163 23.3282 23.7992 -0.2097 1.45796 -3.22948
3171 1 -6.87542 15.3991 -21.7401 1.7481 4.51344 -2.33887
3172 1 -7.72514 1.94619 7.23106 1.84602 1.87209 -1.37895
3173 1 9.11045 18.1067 9.95479 -0.971581 -1.92446 -0.247698
3174 1 -23.5538 12.3054 -10.3203 3.09677 2.43943 -0.258091
3175 1 19.8457 1.38073 -4.07657 3.13479 0.429576 2.63185
3176 1 17.2059 -1.67516 15.5399 -0.218124 3.31131 -1.41378
3177 1 -1.6567 -9.56488 -23.7362 -0.0799797 -1.00081 1.5875
3178 1 14.1581 19.9925 10.8271 -4.9894 3.29454 -2.87731
3179 1 2.02291 0.714299 22.4013 3.95506 2.81121 -0.776517
3180 1 1.24793 13.4441 2.63541 0.279595 6.05088 6.37099
3181 1 -20.9361 -19.711 20.8903 4.03424 -3.79335 1.50217
3182 1 -16.1018 46.2125 23.0915 0.457328 0.663042 -4.04786
3183 1 -22.6978 18.3031 -5.84864 -2.48701 -2.72027 1.72007
3184 1 14.4647 -2.60153 1.53428 -1.1144 -0.164133 0.494914
3185 1 -14.5421 19.932 -20.7928 -1.49763 1.44987 -3.61717
3186 1 -6.63739 19.8065 6.73906 -1.24008 2.22937 3.71932
3187 1 -19.8843 -18.0394 1.5618 -2.92649 -1.24289 -0.836033
3188 1 -20.0972 13.6705 -9.78455 -2.39794 5.84855 -2.79169
3189 1 14.3571 11.0839 7.62742 -8.09232 -3.43873 -1.41854
3190 1 -21.5316 22.0165 -16.2947 -5.52485 0.230804 -3.22747
3191 1 5.47563 -5.80614 -7.3479 -2.52705 4.04973 -1.96683
3192 1 23.4487 10.8884 -1.35349 -0.8038 1.47795 3.27527
3193 1 -18.5019 24.1703 -0.587406 -8.10538 8.0103 -6.50539
3194 1 -17.1999 -5.19557 2.91593 -3.70304 3.4156 -3.5131
3195 1 -16.4701 2.33111 2.72486 -0.689704 3.10746 -1.99179
3196 1 0.957229 1.30489 -2.76813 0.920401 -0.535178 -1.38967
3197 1 -4.39686 10.2274 3.42472 4.77559 -2.73398 0.988553
3198 1 9.38534 4.24647 -18.0501 1.9706 1.41506 -0.829062
3199 1 14.3382 -22.9742 5.58216 2.11493 -2.8597 -4.16023
3200 1 -22.8613 -3.91304 -5.37485 -2.17137 0.282506 -4.80132
3201 1 -14.8117 -2.19859 19.7465 -0.0719529 -2.63033 -4.04539
3202 1 -17.0964 -13.1106 -9.15088 0.848796 3.19183 2.61343
3203 1 16.6647 10.429 21.0046 0.834342 -0.917686 -0.219115
3204 1 -16.4256 -9.12842 11.1011 3.44415 -0.0392877 -4.75077
3205 1 -12.224 3.59097 -6.51392 5.93721 -4.51101 -0.390982
3206 1 14.5995 11.2479 -6.15577 0.659721 -2.38931 4.61416
3207 1 -2.08948 -7.62816 -16.4247 -3.9866 3.32106 5.56197
3208 1 6.32963 -7.34265 5.93698 2.26609 3.22244 -0.722673
3209 1 9.5534 -13.9341 -23.8291 -3.13748 -3.42512 -2.34102
3210 1 -13.3057 11.0031 -3.48843 6.57867 -0.206657 -2.0477
3211 1 -3.35928 20.4328 12.2665 2.83154 1.46174 -0.785668
3212 1 -13.5979 9.21595 -19.3848 -0.196284 1.55374 -2.36844
3213 1 -2.92896 1.32792 -13.8736 1.22588 -1.04731 -1.65244
3214 1 -1.60052 16.787 17.426 3.63202 2.57111 1.38578
3215 1 9.61549 2.85217 10.3656 0.376877 -7.9735 2.07787
3216 1 22.6034 -2.19861 8.03745 -2.18867 -1.22569 -0.378101
3217 1 9.73326 1.18133 7.92566 -4.32282 1.64099 -0.75114
3218 1 -3.78343 22.6463 -9.0934 0.970133 3.70225 -0.111441
3219 1 -6.26701 -20.7893 -17.4618 3.39444 -2.97919 -1.98745
3220 1 -4.33721 -8.66085 16.7685 -3.0016 -4.03946 0.427856
3221 1 -6.66135 -6.09647 -1.69973 1.45219 2.68994 -6.0146
3222 1 -12.7521 -17.7493 -0.793761 4.87412 1.55797 2.11125
3223 1 22.1388 9.19818 18.2191 -3.98726 -3.47186 -1.37017
3224 1 -7.48448 -6.47196 1.2772 -1.35954 4.99484 1.67353
3225 1 -8.18357 -6.35929 16.1817 -7.80441 0.988595 2.13439
3226 1 -22.3981 25.825 -10.272 3.40061 -1.11596 -3.78505
3227 1 6.25501 21.4526 -2.90171 1.91595 -2.97518 2.94041
3228 1 -10.0806 11.1533 -12.4055 1.00858 0.442695 -3.43483
3229 1 -10.0781 2.97161 -2.25246 1.65989 -1.60092 -2.71085
3230 1 -23.6778 14.1896 -22.5833 -2.49903 3.281 -0.946791
3231 1 -17.5146 -17.6654 -1.28214 -3.85921 0.113932 2.71444
3232 1 -22.5337 16.2488 4.96638 3.24169 -2.13541 -4.71505
3233 1 -0.372877 16.2494 5.82555 -0.801507 3.03714 1.31077
3234 1 7.76597 -5.19537 -11.9986 0.665971 -0.473022 -1.3986
3235 1 -5.09885 12.0092 -12.5892 1.41795 0.175096 -1.75086
3236 1 17.7295 20.2278 7.92175 0.0743111 -0.971465 -0.654425
3237 1 -3.27254 -12.8424 -23.0817 -2.5133 0.178946 -1.57527
3238 1 19.2855 22.5578 -2.45303 2.09167 0.164307 3.06703
3239 1 -11.6934 -15.3006 7.81488 1.72447 1.03443 -3.24272
3240 1 -12.8865 -22.2814 -16.8744 -3.7299 3.40495 -1.90249
3241 1 2.34805 -21.2804 13.0444 1.84662 2.75825 -0.0605714
3242 1 21.2342 -14.0488 -15.9331 -0.202928 3.41844 -2.86721
3243 1 6.50586 18.0632 21.9198 2.79986 1.16442 -3.81446
3244 1 19.6657 15.1534 -11.8291 5.15569 3.5162 0.775378
3245 1 -8.92041 21.723 11.1609 -0.374537 3.69496 2.39766
3246 1 20.306 5.70229 4.32738 0.36804 -1.87981 3.61792
3247 1 -6.12798 10.1466 -10.7847 -2.19743 -1.59128 -1.35636
3248 1 9.09435 -2.71947 0.124379 3.18839 -1.69083 -2.51378
3249 1 8.61981 -3.85993 13.4463 -1.43004 -1.31551 2.8978
3250 1 16.8095 3.62047 -18.6981 -4.52229 -4.18364 0.798081
3251 1 0.136443 18.7098 13.5214 0.771996 4.38028 0.913993
3252 1 20.2839 45.7443 12.8104 -2.67284 1.25651 3.03613
3253 1 9.49612 15.3004 3.65789 -1.81147 0.341089 -2.42375
3254 1 19.7547 5.04877 -7.33419 0.808088 0.640218 -5.85622
3255 1 -18.0648 12.8156 -19.8764 3.57355 -0.176687 6.15794
3256 1 -4.14969 17.7725 -10.5724 3.51635 -0.0193464 -3.30902
3257 1 -14.826 7.92391 20.5416 3.28635 0.456472 -1.9686
3258 1 -21.3566 -7.09336 19.444 -6.58339 -1.32828 0.628291
3259 1 18.7095 20.6721 5.31957 0.0273945 -0.0390439 2.02375
3260 1 20.174 45.3897 -7.12368 2.51808 1.17202 -2.01358
3261 1 -15.1845 -2.47936 -15.5563 0.282763 2.96751 0.633242
3262 1 8.40217 8.22905 13.4038 -1.97177 -0.712056 -2.95424
3263 1 21.3164 1.34319 17.7333 0.561049 -0.390841 2.80397
3264 1 11.5034 7.96345 21.4583 -3.97462 0.948349 -1.7346
3265 1 4.47741 -3.548 -12.7238 1.68431 0.873998 -1.90412
3266 1 9.51021 -0.919047 -22.7043 0.870588 3.97464 1.34513
3267 1 -15.59 10.0946 1.8351 1.60043 3.80111 3.51414
3268 1 8.23756 -19.8337 10.5225 -0.389524 3.06029 -2.55044
3269 1 6.98029 17.5959 -3.44094 0.558744 1.38628 2.64356
3270 1 16.8974 -18.5216 15.3225 0.132438 -1.27786 -3.55846
3271 1 7.94953 -12.1075 21.0162 3.39627 -2.79136 3.5506
3272 1 2.75829 11.9814 -8.11938 -0.622722 -2.79621 -0.22583
3273 1 -16.4346 7.76946 -15.6568 -0.604372 1.61578 -5.79327
3274 1 13.4295 -20.3948 5.48726 -2.23562 0.175311 4.36338
3275 1 19.4006 7.30562 12.1691 -2.88697 -0.973138 1.17931
3276 1 9.65873 1.31953 12.821 -4.55476 0.137382 2.78142
3277 1 -0.258925 -16.4431 3.3788 4.16972 -2.59253 -1.29447
3278 1 1.14196 -5.76224 -21.6748 -1.33777 3.0374 0.269387
3279 1 6.49595 -0.96523 15.8051 4.108 4.26472 -2.76191
3280 1 7.50413 14.7804 13.2924 -1.17201 -0.02579 2.27133
3281 1 -4.17835 -14.9526 12.6555 1.81036 4.56181 -1.16041
3282 1 1.85197 -2.93268 -16.6594 -1.38759 -1.78973 1.65656
3283 1 -4.22676 -0.461521 15.5162 -2.35048 4.80341 4.94866
3284 1 13.3253 24.7734 -19.4348 4.92933 0.0535054 1.69284
3285 1 2.50028 18.7903 -12.9436 -2.04082 3.15262 -3.71239
3286 1 -17.0957 21.6409 5.10279 1.73568 -0.823362 1.67073
3287 1 -4.83612 -12.5972 16.3679 -1.70621 -0.865661 -3.92208
3288 1 0.183164 8.0314 -21.5716 1.52004 1.54004 -7.17644
3289 1 -16.9264 -24.4198 12.3283 4.94199 -2.29397 4.0425
3290 1 -14.073 21.7544 16.7573 0.204595 0.0782356 -4.60142
3291 1 21.0488 24.7106 -11.002 0.0382594 -1.24241 -2.11577
3292 1 -22.6552 22.0466 1.78559 -0.934635 5.31513 -3.37718
3293 1 -10.4591 12.7673 23.3102 4.2609 -4.8691 -4.77749
3294 1 -23.1198 -1.17461 -16.7385 0.316113 0.392425 -3.29791
3295 1 4.10883 -23.0889 1.02652 -2.028 8.19027 3.69036
3296 1 -18.1284 -12.6872 15.9413 -3.99303 0.514886 -3.28293
3297 1 -17.0626 24.0531 22.9244 -3.02824 6.29561 4.87697
3298 1 4.93974 -8.7365 -17.383 5.35727 0.0880417 -0.573518
3299 1 -13.2657 23.5439 -4.64725 1.26824 1.1983 -3.02666
3300 1 -0.965753 6.24085 -6.84876 -2.12731 -3.61365 0.318679
3301 1 -21.3844 10.1947 -10.8329 -2.55808 -1.71627 2.94039
3302 1 -19.5982 -11.4726 19.5834 4.83304 1.40014 3.13933
3303 1 -22.7914 -24.057 -15.3619 -0.398834 -2.92213 -4.41612
3304 1 -1.47102 16.2847 13.4295 -5.73282 1.92897 -3.79097
3305 1 3.54078 5.49612 -7.29595 5.75836 -3.99218 2.72412
3306 1 -7.84621 11.1613 -22.4726 -2.43664 0.381703 -4.64612
3307 1 -21.1452 11.743 19.9182 -2.16479 4.67923 3.33642
3308 1 -16.3855 18.5756 -2.5676 5.99922 5.07735 0.367678
3309 1 2.06902 0.894905 12.9953 -0.298886 -2.37069 1.77047
3310 1 16.0053 24.9187 8.07559 0.0785603 -0.69548 -4.11749
3311 1 10.987 3.37045 -10.2154 -1.2918 -1.23646 3.49976
3312 1 -24.2887 5.89951 15.2098 4.21712 1.65234 -0.14926
3313 1 13.265 10.5851 10.679 -0.929466 -0.619462 -5.07269
3314 1 0.905239 -2.19604 9.56026 4.13611 -1.78026 4.81513
3315 1 22.1246 -11.8213 -23.2048 -0.308169 -2.64548 0.461651
3316 1 3.31929 -5.81254 -5.36485 0.183903 0.645937 1.59851
3317 1 2.76457 0.165565 10.0254 3.07541 -5.56554 -3.33502
3318 1 -8.84667 1.42824 19.8345 2.1524 -2.37251 1.30163
3319 1 0.610834 3.84142 -14.3004 2.03832 -6.59376 -5.15566
3320 1 4.70634 6.2639 -11.3491 -2.67314 -0.860888 2.17021
3321 1 -7.13299 -16.4198 20.7013 -2.95249 -2.35996 -0.850104
3322 1 13.6056 -11.6173 23.6733 -5.76524 -4.35267 -1.61408
3323 1 -3.91812 17.9586 13.8689 -0.240519 -0.841062 0.973494
3324 1 16.1459 -15.5652 -10.909 -3.82004 6.06871 4.44465
3325 1 -11.2431 15.4839 3.93554 1.88818 -0.417475 -1.96073
3326 1 -23.4004 6.20989 -21.5687 -2.59165 7.43862 6.20346
3327 1 6.39657 -22.4391 -8.92439 0.697833 -0.185058 -0.108459
3328 1 2.96398 -17.9756 -11.5662 7.62246 -3.78728 -1.18047
3329 1 15.3643 4.66322 -16.2898 1.8782 0.809382 -2.87748
3330 1 -7.67035 18.735 -15.0336 -3.31181 -4.78342 0.390312
3331 1 -17.6802 -4.36985 -1.17479 -1.73818 0.31501 -0.891674
3332 1 -5.35551 9.01458 21.6979 -4.48252 -2.44969 6.04121
3333 1 7.17836 -7.68368 22.0547 1.37811 3.86858 3.84798
3334 1 22.7469 19.9801 16.6853 5.62649 -0.109352 4.69455
3335 1 23.1583 -0.158357 -3.92939 0.419984 -1.52727 0.099549
3336 1 14.2533 -17.0184 1.46636 -0.000217333 -2.933 2.67843
3337 1 -14.9182 10.462 9.36263 -0.271784 -0.25619 0.779368
3338 1 9.91608 22.3047 15.8486 0.239515 2.51953 -8.67148
3339 1 10.4619 21.695 -21.5111 -1.71695 4.2878 -3.70641
3340 1 20.03 -0.758418 -20.1399 0.296669 -1.97569 -1.83932
3341 1 19.6482 22.333 -15.1521 2.4412 3.89432 1.24935
3342 1 -1.16328 -0.959674 2.26918 -2.94067 -4.47723 -5.0316
3343 1 -23.3978 -5.03833 -16.1141 3.06816 1.26402 -1.17012
3344 1 18.4454 -20.2886 16.924 4.68037 -1.13221 3.87956
3345 1 13.2899 24.3465 -23.5197 6.17225 1.61852 0.415163
3346 1 9.01241 -22.6639 -0.440159 0.806937 -2.49914 -1.43257
3347 1 23.5357 14.1072 -14.8072 1.61223 0.465945 0.0920033
3348 1 -10.0387 -18.8823 0.43791 -6.15797 5.70741 2.32796
3349 1 14.7917 20.9246 -13.1729 4.37104 1.64077 -0.386406
3350 1 -3.52311 -6.66626 14.4081 -6.92746 -4.68216 0.715233
3351 1 -21.1036 -9.99546 15.4063 2.18276 1.3457 -0.854731
3352 1 5.08717 14.7947 3.82454 -4.69822 -0.475901 2.00677
3353 1 -23.6294 3.36597 16.7665 -0.992504 -0.737601 0.248953
3354 1 -15.759 8.99351 -0.711867 6.50664 -0.640364 -0.58378
3355 1 -16.7941 -20.3054 -6.51645 2.03682 5.00974 -4.26087
3356 1 -9.40134 23.164 6.31039 0.562124 2.65116 2.14851
3357 1 6.83338 -6.1265 18.4776 3.45423 -2.40038 -1.90132
3358 1 -1.90961 22.5768 13.6754 6.26171 -0.857435 7.77176
3359 1 -5.56104 24.8958 13.5091 -0.271552 0.447566 -3.06719
3360 1 -7.65769 -15.3291 16.7481 2.73192 -4.8567 -4.48493
3361 1 -2.6173 25.0521 9.87125 0.682177 1.65575 -1.6897
3362 1 -5.51848 2.60024 -14.8891 0.631221 -3.79385 -1.0177
3363 1 12.2986 -1.93624 -16.932 2.52204 2.80839 -0.949409
3364 1 -19.5083 -8.39675 1.6187 -0.0516164 6.18764 -0.0620865
3365 1 -0.102705 -7.81807 10.0495 1.54851 3.42955 0.923035
3366 1 -19.4103 -23.8264 -21.4043 1.58298 4.44152 -3.7857
3367 1 3.47315 -20.7486 -21.558 -3.25331 -0.694334 -0.992271
3368 1 21.2407 -20.0418 16.9938 1.38828 -5.04378 -2.56053
3369 1 -3.06932 -3.3098 -8.30919 -2.02318 -2.12866 0.00677082
3370 1 -18.8787 -14.813 -14.4385 -2.86721 -2.97853 2.0572
3371 1 -10.2744 4.40465 16.2145 -0.752087 -1.72807 3.98849
3372 1 5.20739 -2.88952 -6.63545 4.16098 -0.520721 -2.39294
3373 1 14.6137 -7.03378 18.604 2.36855 3.8911 -1.90379
3374 1 21.6137 -14.6615 -22.9298 -0.719521 2.90064 1.3024
3375 1 21.7737 -10.0994 -1.3828 -2.68969 1.18801 2.16739
3376 1 -17.3926 9.27964 14.5444 -0.441783 -2.82617 2.57322
3377 1 5.04231 -14.9243 13.7771 0.00355057 4.75464 -0.748153
3378 1 -4.68368 -16.7932 -1.26994 -2.98533 -0.410482 -3.98657
3379 1 11.2536 -9.84143 6.96244 3.82025 0.293391 -1.57648
3380 1 1.01646 18.3569 23.7581 -8.15046 -0.621538 -0.448667
3381 1 -3.82189 -15.3547 -20.4079 -0.994027 -1.46854 -0.575176
3382 1 -20.6022 15.1128 13.661 -0.929797 -0.324008 -0.43991
3383 1 -20.2833 25.2132 -17.5708 0.590841 -2.71341 -1.01914
3384 1 17.764 -19.0866 -12.27 -0.82074 -2.25921 -3.19264
3385 1 -1.66022 -18.7172 -6.52546 1.77648 -5.76936 5.86952
3386 1 8.31512 -8.03403 -23.2938 0.626502 -2.10122 -0.0824973
3387 1 -18.0757 -2.39581 2.7788 -0.240881 -2.42839 1.10409
3388 1 -20.1851 -1.87806 15.5052 1.83208 0.81969 -0.74516
3389 1 -14.224 -11.0989 -13.235 2.64907 -2.16758 0.872259
3390 1 22.5105 -22.0843 14.8391 7.37707 -1.69401 -3.60941
3391 1 -8.57951 -16.0416 4.02715 1.69329 0.572227 -0.978586
3392 1 -7.62351 0.646799 -17.5734 0.464701 -0.595682 -1.10461
3393 1 -14.911 15.3137 -18.2001 -6.40416 -4.22658 5.24092
3394 1 -10.8707 0.0401616 14.5881 3.04426 1.02907 2.02199
3395 1 15.5335 -16.4888 11.1229 1.32522 3.16401 4.37175
3396 1 -19.5643 7.69331 -6.79446 2.55868 5.64049 1.33614
3397 1 -4.02725 5.10455 19.9082 -4.6574 -1.27965 -1.69458
3398 1 -7.11803 -20.3465 -5.45733 2.44901 6.22658 -0.889194
3399 1 0.889153 -6.27485 4.46919 -4.80138 1.94008 -1.03835
3400 1 15.9342 46.6163 -20.9807 -5.39824 0.0449927 -0.450968
3401 1 -19.0598 -22.8149 -14.2163 2.63558 3.54376 -3.72091
3402 1 14.0344 -19.481 -17.9883 4.36814 1.95828 0.2349
3403 1 -15.7624 -23.1659 0.201656 4.53539 -2.75252 -0.952631
3404 1 -17.2597 -9.09555 3.11083 -5.83402 0.252626 -2.86312
3405 1 16.2357 5.63928 12.2253 -2.02253 4.08447 -1.72533
3406 1 5.62765 -4.73937 4.83867 3.68375 -0.213634 1.76423
3407 1 13.4117 -0.398602 -11.0612 -9.00261 4.80341 -0.409992
3408 1 -19.3617 15.8554 -23.0782 3.1913 -3.01261 -0.960368
3409 1 -2.50976 -17.8839 17.8508 -3.68813 0.687588 -1.16512
3410 1 -19.6696 -6.54711 14.9002 4.4045 -0.948166 2.97464
3411 1 -3.54275 -3.16089 20.2142 0.611964 -1.85494 -0.366623
3412 1 6.3627 -2.84604 -9.34653 2.60226 -1.12988 -0.632662
3413 1 -1.02432 -23.3807 -19.065 -0.986654 -2.06867 -2.46997
3414 1 -18.7094 4.8701 -6.24135 3.47197 -0.920133 2.91169
3415 1 -18.0761 2.0484 -16.6582 -1.14195 1.30421 5.85355
3416 1 20.8783 -21.6414 -6.98724 -2.52552 -3.84514 -0.0665601
3417 1 -22.6939 -11.5443 9.1618 1.90279 -2.88494 3.05063
3418 1 18.3741 17.776 12.8445 1.19658 -0.0963012 0.288263
3419 1 -10.6012 -9.57145 0.766209 1.69492 -2.10158 -1.62168
3420 1 -20.0061 10.6987 8.91359 -1.38149 -2.65756 1.68573
3421 1 10.7515 14.885 -13.6432 6.76238 2.22287 3.84636
3422 1 7.20284 -15.1285 -4.62799 7.81081 -7.92 1.49967
3423 1 -13.4232 3.7408 1.04669 4.05708 -3.69924 1.6999
3424 1 -1.68915 -10.7178 2.95314 1.95274 5.52812 1.19435
3425 1 -23.7812 -10.659 17.9902 -2.94563 3.11212 -0.236397
3426 1 -20.982 -6.0138 5.34606 -7.62874 1.96778 -0.835215
3427 1 -23.3088 11.4694 -16.0318 3.27387 1.47668 1.0051
3428 1 -3.62177 12.9062 17.2559 -0.539136 -4.72442 0.151308
3429 1 7.58493 -17.7356 16.5106 -3.71765 1.8438 0.591115
3430 1 -12.373 -15.9156 18.8569 0.345842 -1.56107 -3.17591
3431 1 -9.01565 -4.05049 1.767 -2.02622 0.240657 -0.363489
3432 1 -3.0795 10.1008 9.38586 1.58061 -4.73713 -0.87215
3433 1 -9.05244 -0.59039 -19.8237 2.69308 2.68753 -2.68753
3434 1 12.793 16.7889 -12.0744 -1.04519 0.370143 0.292647
3435 1 -1.50079 20.4215 -15.2959 0.466297 -0.511296 0.795069
3436 1 -3.82911 9.98571 18.1937 1.99068 1.09551 -1.36793
3437 1 12.036 17.3325 -6.30386 -2.39555 -5.74473 -2.09662
3438 1 -18.2654 10.7868 3.35831 2.59234 -2.12323 -4.07399
3439 1 2.51094 -13.6527 12.7488 0.60784 0.0665666 3.07258
3440 1 4.94973 24.1058 -9.28435 1.94194 1.64441 3.25723
3441 1 7.07868 -13.5305 -7.07649 -1.9492 1.72351 -1.36562
3442 1 -4.70929 0.989322 6.92246 -1.82703 0.773906 -2.465
3443 1 -23.3034 2.04874 -0.159573 3.60624 2.97528 -3.50906
3444 1 -17.7983 13.6334 2.68563 -2.70185 1.43492 0.412011
3445 1 -12.3293 1.52199 -10.155 4.23657 -2.31833 -1.24122
3446 1 -4.00925 -22.9387 -18.6883 -1.80443 -4.14707 -1.9346
3447 1 -5.34943 4.98562 -6.12807 -0.384007 1.3637 5.8265
3448 1 -21.3002 5.72489 14.2495 0.229923 2.0711 5.50559
3449 1 7.98718 25.0922 -16.2534 -1.9602 -1.80957 -7.00692
3450 1 -2.25336 -14.481 -14.3957 1.78911 -0.353901 -1.64648
3451 1 6.62861 -10.4464 -19.0869 1.06651 -1.16349 -2.1752
3452 1 -11.5259 -0.374312 -12.4066 -0.703921 2.11761 -0.807511
3453 1 15.8817 9.84272 -20.1684 3.32172 5.57677 -0.252981
3454 1 23.4383 20.8175 12.5159 4.65434 0.229064 -0.980169
3455 1 -17.7266 15.9658 18.4096 4.76779 4.31338 -1.1763
3456 1 10.236 24.9969 -14.2505 -0.699225 -1.10786 -2.70711
3457 1 -22.7558 18.534 21.7782 0.35773 -3.26711 1.62901
3458 1 15.0325 8.00767 -23.2069 1.90144 1.24531 -2.28362
3459 1 -3.4885 18.5435 16.7367 -0.0901275 -3.75712 2.22307
3460 1 -1.769 21.0026 17.4915 -0.312491 -5.77489 -2.56688
3461 1 -13.805 46.2572 19.2122 5.07468 -2.45073 -0.536933
3462 1 -12.4735 22.632 -7.47711 4.17816 0.966783 4.13158
3463 1 22.9918 7.70017 -23.868 1.49566 0.876191 0.294316
3464 1 -18.4684 -18.9538 12.3682 1.25418 3.00367 2.21978
3465 1 2.07287 -4.37395 11.0635 -2.91503 -0.831756 -2.78059
3466 1 -9.96543 4.68827 -7.74142 -5.73794 -2.45489 1.65798
3467 1 12.4172 14.2197 13.7238 -2.76011 -2.64659 -0.415178
3468 1 -6.68427 -5.44165 23.7207 -0.708522 -0.204043 2.51375
3469 1 -2.44689 -10.428 0.305986 -1.91385 1.49478 -2.24125
3470 1 -17.8828 -21.2474 -9.02434 -1.03547 -6.12309 0.449103
3471 1 -15.8583 -17.316 -17.26 -0.851661 5.66438 1.50404
3472 1 -14.2462 11.0603 -17.5466 0.0465996 -1.94039 -0.688031
3473 1 23.3343 23.7261 -18.753 -2.14877 3.61305 -1.58939
3474 1 16.7613 -4.01221 12.2281 -4.70911 4.51409 -1.53934
3475 1 -19.6789 -13.8951 17.8548 6.11058 0.130451 0.220247
3476 1 2.97535 14.1997 15.4336 -6.20277 0.276208 1.39799
3477 1 -20.6311 -0.35387 -15.375 2.30186 -2.94253 -0.928182
3478 1 11.2122 -14.0619 3.39488 -3.29872 0.513956 -3.1276
3479 1 14.2821 -5.9973 10.7832 -0.45199 -2.597 -1.15939
3480 1 22.6901 26.3313 -4.48611 -3.35156 -6.47469 0.782177
3481 1 3.86125 -22.5552 23.204 1.67591 -2.56581 -2.92098
3482 1 14.5936 18.3656 2.17557 0.820935 1.13372 0.513557
3483 1 9.84746 21.0298 -1.25102 -3.37391 -4.70881 -5.93499
3484 1 2.57972 11.5034 7.31639 0.262573 -0.524388 0.181381
3485 1 2.0919 5.85292 -3.65365 1.21909 1.28528 3.54859
3486 1 15.4197 23.9181 16.2031 -3.55279 0.222189 -3.5105
3487 1 10.1313 -9.80863 -9.80142 4.15118 0.888372 7.37457
3488 1 14.6376 16.6137 -14.0236 2.91059 -1.79357 5.58476
3489 1 19.2917 0.895103 -9.98432 3.75896 -1.99828 -1.61
3490 1 -20.3708 6.10006 3.9666 -1.34228 4.82781 -1.10235
3491 1 -8.58194 8.52938 -22.2586 -8.07542 3.08805 1.17673
3492 1 17.1823 -3.90552 4.99921 0.131718 4.14509 1.14476
3493 1 5.91707 10.3028 16.5766 -2.6897 2.19301 -1.09116
3494 1 -16.6477 3.18084 23.1013 -2.56845 -0.00759487 1.68369
3495 1 23.4565 -3.81192 16.0357 1.65829 0.576135 3.09217
3496 1 -9.93226 7.66796 -16.7917 -2.71282 -1.05476 -1.30478
3497 1 -17.3178 11.5108 19.1211 -0.632485 1.69211 0.182356
3498 1 -16.7653 13.2133 7.37981 -2.62039 3.69773 2.12628
3499 1 -20.8818 22.2312 -21.7221 2.61999 1.90854 -4.30074
3500 1 19.1481 14.9212 -8.93745 4.51451 -0.772779 -1.68982
3501 1 -16.9635 19.2422 -6.74475 2.40647 2.99845 -6.31227
3502 1 -8.02275 22.3613 -4.33399 -4.9557 -0.0582147 -5.04689
3503 1 18.9174 -22.674 3.57042 0.817216 5.93521 2.27243
3504 1 18.4029 -0.249977 2.4311 -1.77909 2.24596 3.4629
3505 1 0.661514 -13.6558 4.01576 3.80249 1.87887 3.32201
3506 1 -21.7944 23.6516 -5.4334 6.66224 -0.229463 -0.546799
3507 1 8.40601 7.81028 -11.0057 2.20577 3.13672 -4.72981
3508 1 -3.93399 -12.4915 -20.1969 4.45786 -3.00126 1.03659
3509 1 -18.8155 -19.4275 -21.7947 1.69042 -0.222223 -1.69329
3510 1 -11.9803 4.19262 13.6951 2.00195 3.95422 -4.31739
3511 1 17.4796 9.98536 -2.50613 1.35137 -0.430087 3.14441
3512 1 -16.9419 4.79063 1.69966 -2.75892 1.81678 5.30412
3513 1 -19.5041 -21.4718 -19.845 -4.42597 0.874443 4.76176
3514 1 -1.12331 17.1138 -10.8974 -1.30483 -2.0127 4.89347
3515 1 14.8694 -18.7702 9.4428 -0.471235 7.46213 -1.98151
3516 1 -21.7804 4.60196 -18.3724 7.21455 -0.868493 4.9551
3517 1 -7.51254 19.1679 17.6381 0.251313 4.42182 -4.27142
3518 1 1.21731 0.937955 0.302906 1.00984 3.82176 2.33343
3519 1 -4.34542 6.00384 17.2761 0.847033 -1.85546 -2.18965
3520 1 -5.76567 -12.4508 22.2142 -0.861559 0.225686 -1.1284
3521 1 1.54823 13.0061 -14.5233 2.09366 1.5026 5.69822
3522 1 22.4303 16.3974 -22.9845 4.10673 1.61653 -0.920245
3523 1 -13.8026 -18.8587 6.73654 -3.92358 0.469224 -1.87097
3524 1 -1.13601 24.4251 -1.34111 3.39122 2.5855 3.42805
3525 1 -15.9545 14.6498 -20.6213 6.43156 -5.36894 -1.6916
3526 1 11.043 21.5518 -7.7882 -3.5415 -0.892947 0.403147
3527 1 -1.71798 12.7173 6.8752 -1.94166 -1.2593 -0.0360797
3528 1 -22.8685 -24.1528 0.747213 -2.1871 -4.91779 4.58423
3529 1 -21.9294 8.90554 19.8508 -3.7838 8.11839 -2.71799
3530 1 -12.265 10.481 6.8956 2.14291 -2.37168 -0.1323
3531 1 5.06715 6.20501 22.7116 2.03735 -2.47019 4.21323
3532 1 -6.04767 14.5047 -8.39396 3.27629 -0.419981 3.75574
3533 1 15.1773 11.4857 2.60895 -3.22496 -4.55266 3.26489
3534 1 7.06079 -1.73023 21.0891 0.64223 -0.804805 -0.192154
3535 1 14.1592 -22.2714 -17.3567 -1.30161 0.256872 2.09501
3536 1 23.138 -19.2916 11.2492 -2.56111 -3.27875 -0.763993
3537 1 19.5234 25.243 17.0508 3.92524 -1.9327 -0.605077
3538 1 4.73048 -7.24164 15.0943 -4.14059 -0.285463 2.40588
3539 1 14.7623 25.5329 -12.6297 -1.74845 6.42212 2.29445
3540 1 -0.861641 13.0129 -3.77487 -6.32206 -3.02561 -1.12898
3541 1 14.4449 -2.94527 -21.1454 -0.278776 -6.33933 -1.38652
3542 1 18.1448 -1.06151 5.72058 -1.90717 -0.137163 1.10135
3543 1 -16.6645 14.3697 -6.37306 -0.656933 3.78571 2.81451
3544 1 -9.27878 20.0463 -3.24076 -1.9907 -3.75959 -0.0598717
3545 1 3.09523 20.9286 12.3929 2.39092 -0.0612834 1.1133
3546 1 16.9097 13.6801 -10.1562 0.426374 -1.0958 2.8407
3547 1 9.74676 -17.1034 -8.8575 5.03918 -0.953916 -1.05161
3548 1 9.34046 -10.975 -19.3744 -0.0155235 0.1202 2.30311
3549 1 -9.6941 7.22016 7.38157 0.713218 -1.97575 -0.0475657
3550 1 -12.9577 17.7035 8.85842 4.53233 2.16981 0.724002
3551 1 14.0993 1.09386 -20.381 -0.471638 -3.66743 0.121422
3552 1 14.5609 20.1659 7.98218 1.86062 7.19738 3.14348
3553 1 -10.3941 17.9773 -5.09181 -3.96182 4.08249 -0.0900082
3554 1 12.5998 12.7282 -14.2642 3.519 -2.55425 1.24733
3555 1 -19.2282 -20.5166 0.352204 -1.00626 -1.80282 -1.96137
3556 1 -8.58946 -13.2112 18.0067 2.07513 0.613036 -1.32207
3557 1 11.0724 7.27222 -19.2896 -1.62165 -0.749292 0.794074
3558 1 -18.2062 -13.7313 1.33391 4.51287 -1.72851 -2.49012
3559 1 9.79818 -4.61715 10.9124 2.27444 6.39299 -1.38114
3560 1 -19.3556 18.6104 -16.9203 -7.50264 -2.81558 -1.00549
3561 1 -19.7425 20.7551 4.11398 -5.30332 -5.56128 2.81462
3562 1 19.7262 11.6205 2.21942 -5.59748 3.21683 -5.92665
3563 1 3.50858 -22.779 -6.65732 -2.78079 -3.94908 7.22096
3564 1 19.4743 12.6034 -15.2406 0.114114 5.0967 1.52975
3565 1 17.005 -19.0084 -4.41073 0.865905 -0.812079 0.539794
3566 1 -12.2103 -13.474 4.18237 -3.38756 -4.51351 -5.81562
3567 1 2.14395 -8.27474 6.44908 -5.14464 -1.85078 -0.272629
3568 1 19.5498 -3.28664 11.9817 3.72732 1.29521 -0.163543
3569 1 -3.02436 4.73525 -12.5442 2.24699 0.343134 -0.112797
3570 1 11.5641 23.4423 22.0162 1.46012 -1.53123 -1.07386
3571 1 2.35685 20.8412 8.92079 0.439603 2.45144 0.0789885
3572 1 -13.4526 -15.5089 -17.6035 -2.50305 -0.993707 0.813518
3573 1 20.9958 -3.8514 -2.49996 -4.12457 -0.492458 -1.24945
3574 1 -15.7322 -3.9641 -11.2908 0.31576 3.13748 3.31313
3575 1 -10.5625 -12.4126 -11.1615 2.52684 -3.96228 1.70094
3576 1 15.7125 4.46969 14.5122 -1.76331 -0.898638 -2.17801
3577 1 -6.38649 9.32612 -6.4142 3.1929 -4.55459 0.860198
3578 1 21.0111 7.26757 20.0169 -2.62267 -0.482841 2.38662
3579 1 -18.6343 -10.2077 -7.38158 4.75604 -1.16407 1.21578
3580 1 -1.58905 -9.97076 8.9163 0.102888 0.493295 -0.403901
3581 1 -11.1182 9.71351 4.17104 -2.3142 3.57426 0.809596
3582 1 -15.2998 -22.9638 14.3234 1.95543 -4.98209 0.615827
3583 1 -18.2583 16.5328 7.79079 5.77531 1.98481 -0.547031
3584 1 13.4437 5.90404 21.3603 4.6593 2.1034 -0.982198
3585 1 11.2016 -2.50151 9.35166 1.20627 0.842212 -1.88094
3586 1 15.0767 -0.021791 -7.83996 -1.56304 -0.612127 -1.39244
3587 1 21.9218 -16.9396 -18.4893 4.48055 3.77819 -1.76659
3588 1 -22.5012 -6.93541 -10.3075 -1.6288 3.09232 -1.57295
3589 1 -13.2561 -0.0257923 -7.58555 -0.615496 -4.20756 -7.94532
3590 1 12.04 -0.447791 -1.59175 7.11823 -0.515758 -0.381451
3591 1 -8.8594 -8.82738 22.6838 4.14573 3.63877 -0.188437
3592 1 -5.50126 -17.6002 -4.01793 -1.03597 5.09648 -0.228569
3593 1 15.2163 -13.1484 -11.6091 0.250372 -1.17458 -2.04742
3594 1 15.8328 0.198327 3.98692 -0.79977 -0.016134 -2.50684
3595 1 -4.31144 -14.6081 9.02285 3.39385 -2.54357 2.45756
3596 1 -7.45055 -8.34372 -8.91581 1.29887 1.12378 2.05206
3597 1 -4.3347 12.5646 5.22511 2.34679 9.05982 -2.98126
3598 1 -13.0649 -11.7111 -4.63981 3.28034 -2.91412 1.154
3599 1 14.0657 15.5072 -8.01816 3.69148 1.1735 1.71822
3600 1 -21.2548 24.758 -8.16767 -0.0173696 3.23912 3.55105
3601 1 -21.231 -12.2661 -5.0151 1.45606 3.32072 -1.00274
3602 1 2.32592 25.6327 22.3898 4.26686 -0.653712 3.00665
3603 1 -4.23894 0.0624214 12.6483 2.94859 -7.32285e-05 -0.505126
3604 1 11.4121 14.2269 23.9665 -3.62708 -1.78867 3.93005
3605 1 13.8542 20.9832 13.598 0.624248 -1.09907 0.00985072
3606 1 2.51691 6.96523 -15.1048 -2.33706 -0.254598 0.385499
3607 1 -21.1815 5.21185 17.19 -0.519163 -0.806065 -1.75018
3608 1 19.0568 24.2744 -17.4853 0.504527 -1.2212 -1.97651
3609 1 11.6653 -12.7301 7.54153 1.37884 -4.57873 -2.33286
3610 1 15.8491 11.9271 -22.0712 0.148311 1.47188 2.92431
3611 1 -18.7563 23.4933 -15.6964 -4.13048 0.627942 -1.63468
3612 1 -4.82058 17.2737 -7.92253 -2.36433 2.78172 -0.00216754
3613 1 1.26989 25.703 12.4621 5.92221 -4.71874 4.58644
3614 1 -0.255696 -5.13442 -2.80757 -0.0662144 0.780259 -0.173266
3615 1 4.67612 19.6595 3.60406 -4.97533 3.0427 -3.77073
3616 1 -10.6659 -12.0272 19.9929 0.0933059 1.87519 -3.42548
3617 1 16.0949 -0.780431 -21.1913 -1.82873 1.27559 -2.0555
3618 1 0.166902 -8.90641 -7.46215 -1.07758 -2.12712 2.78504
3619 1 -1.78476 19.7124 9.6029 1.57678 6.08751 -2.12187
3620 1 -1.90314 14.0371 -10.4186 2.18826 1.53355 2.43752
3621 1 -7.86359 14.5481 12.4211 -2.96236 2.73097 2.23984
3622 1 7.01472 -12.8379 6.83317 -0.414965 7.33653 -4.33826
3623 1 12.1034 -1.01627 15.733 1.63638 -2.66232 -2.80588
3624 1 23.2123 -8.40653 5.29276 -2.80723 -0.820319 -6.87716
3625 1 6.55391 -16.298 22.4863 -1.59266 2.9653 -1.45554
3626 1 -14.8955 3.52719 -7.9261 3.3748 0.432235 2.89327
3627 1 -1.85439 18.1665 7.23022 0.299324 -1.96844 -4.21185
3628 1 8.52422 -1.40317 8.68498 1.49761 1.41814 1.21609
3629 1 -1.75845 -3.77438 3.38171 0.474526 0.794638 -1.09964
3630 1 4.68109 -13.0895 0.685463 -3.57635 -0.127725 -1.22043
3631 1 7.32293 9.09009 20.3731 -1.00644 1.49973 0.956225
3632 1 -15.2959 -15.5393 13.5497 0.31495 -1.2081 -7.50481
3633 1 11.8214 5.07252 -5.35753 -1.36684 0.576459 5.82864
3634 1 -1.97338 5.53436 10.1912 4.61637 -2.40392 2.74892
3635 1 0.877633 -16.247 -19.7893 -8.8852 -3.72702 -1.62694
3636 1 3.95026 -19.8249 -14.4931 -2.1824 -1.43962 1.38631
3637 1 -4.57786 15.1211 -23.1405 -3.61453 -0.422878 -4.83462
3638 1 -22.9941 -9.45228 20.5035 0.367287 -0.578924 1.28381
3639 1 6.39537 -19.0552 3.67 -3.14399 7.77915 5.23409
3640 1 19.6483 -17.636 -10.7203 -0.677006 6.06258 4.9174
3641 1 3.65456 12.3223 20.5324 0.633088 0.196205 0.992336
3642 1 -2.37209 -15.8157 5.12121 -1.20395 0.336591 -4.51647
3643 1 0.151939 4.48688 8.61431 0.820672 0.0715109 0.774738
3644 1 18.0726 20.621 -0.40918 -1.76535 3.32267 -2.00637
3645 1 -16.7306 -14.495 -6.81937 -0.0833437 -0.54398 -1.94086
3646 1 19.2273 3.61594 -20.4216 1.77891 -1.36535 -2.83076
3647 1 20.5963 -21.5125 5.92306 2.26344 2.77055 6.11019
3648 1 -22.2796 -21.3466 0.053785 -0.756753 -0.741358 1.02349
3649 1 -18.3407 -0.543858 -18.493 -3.71194 -0.925295 -2.59802
3650 1 6.17827 -7.60525 -14.7944 -3.0282 -0.809086 0.197316
3651 1 -10.2015 8.33131 14.2185 -0.284436 0.556917 1.00096
3652 1 21.7512 -13.5788 13.5095 -0.599253 -1.61796 -2.06124
3653 1 -0.737422 17.3493 -0.873731 -1.40629 -1.2434 -4.34121
3654 1 -20.3277 22.9032 13.1452 0.889294 -2.67405 6.4525
3655 1 -8.98242 23.6546 -13.8344 3.09154 -3.44393 5.10758
3656 1 -12.4226 -19.8633 21.1576 -0.288697 2.50148 2.23921
3657 1 22.7084 26.639 -9.71794 -5.52445 -0.878473 0.73522
3658 1 20.2034 14.9067 16.4378 -5.70774 -2.29375 4.57803
3659 1 21.9821 7.62546 -18.0984 -4.53787 2.07191 -3.27733
3660 1 15.7804 9.16017 9.30854 -0.58673 -1.49165 -3.39915
3661 1 20.7375 10.9301 -20.5064 3.021 -1.43323 -1.78586
3662 1 -1.27437 0.616196 -22.2136 2.56789 0.440421 -4.21121
3663 1 -21.0028 -13.654 -11.6808 0.34251 -0.962751 0.35384
3664 1 5.84134 18.1805 12.5231 0.672056 -0.986344 6.29993
3665 1 10.9888 -9.55415 -16.6587 -4.59305 2.58766 4.71006
3666 1 5.80563 -15.6637 -22.9455 2.89004 -4.91104 1.23924
3667 1 13.6557 13.8829 -17.1383 0.266663 2.70747 -2.50659
3668 1 -12.9054 -2.71676 22.6733 0.219764 -0.624038 -0.410909
3669 1 0.0751304 21.0726 4.31559 -1.63163 0.14611 -0.899794
3670 1 13.6153 7.5149 -10.5757 4.95518 -1.37006 -1.08734
3671 1 -2.54244 11.0874 -12.9419 4.51014 0.287934 -0.567374
3672 1 -13.2755 11.5068 11.4894 1.31971 4.47723 -6.71468
3673 1 -2.1536 46.3289 20.8544 -0.489488 5.34058 -3.73719
3674 1 0.909875 -0.749178 -6.43347 5.66507 0.254635 -0.482656
3675 1 -12.8686 19.934 -8.67473 -1.65748 0.517614 6.17391
3676 1 15.4892 13.8821 -14.4735 1.02635 0.0412548 2.97975
3677 1 -5.95318 14.7342 16.5021 -1.11908 -4.13934 -2.872
3678 1 -19.1787 6.79208 13.0032 -2.3545 0.215363 3.44846
3679 1 9.50102 -18.9602 -4.31545 1.76084 -1.88718 -1.09714
3680 1 15.1431 5.42923 23.3229 4.25316 -5.49478 -0.864999
3681 1 -6.75175 1.12715 15.0826 0.207906 1.41988 -1.01892
3682 1 -24.0938 -23.1747 17.3713 3.88064 1.17849 3.41139
3683 1 5.84827 11.7322 4.71038 1.14801 -1.33965 0.280108
3684 1 14.3759 16.1205 -23.3207 -0.677526 2.29344 2.03215
3685 1 5.19249 -5.26775 1.10636 -0.262044 -1.56716 0.228876
3686 1 -21.5907 11.1298 -0.0850219 -5.3332 0.82848 0.360832
3687 1 7.638 -15.8647 9.86948 2.02538 -4.41644 -3.27884
3688 1 -11.7226 -23.2586 -1.02512 2.82884 4.09304 3.28733
3689 1 20.7439 18.1865 -14.6426 -0.506431 -0.355247 -0.903742
3690 1 -7.61491 7.72859 -8.45007 3.49182 4.25209 3.13232
3691 1 22.3822 45.2155 -8.78313 -0.549587 -3.01665 -5.43766
3692 1 5.25309 -0.811393 -18.9006 1.40782 1.37469 -1.15324
3693 1 3.71577 22.6811 -2.31358 -1.34268 0.355412 0.399212
3694 1 -21.9866 2.16458 -7.62841 8.20135 -0.808198 2.24998
3695 1 -6.29229 -2.54342 2.08656 2.39852 1.00892 -2.10803
3696 1 8.64287 0.482483 -17.3502 -5.10511 1.7708 0.517051
3697 1 9.00691 5.33088 6.24004 3.68039 0.374689 -2.4812
3698 1 -22.7747 1.42277 14.8186 -4.67453 0.70981 2.02028
3699 1 -9.29001 -3.74234 16.2373 -0.955976 0.438997 -1.49572
3700 1 -3.95686 -22.0144 -15.8095 3.94847 -4.58794 6.06692
3701 1 13.283 -3.08175 11.5832 1.99759 0.785234 -0.626729
3702 1 -7.50485 0.504951 -13.7202 -5.66942 0.92423 -1.0533
3703 1 19.6071 15.2019 -22.6372 0.189524 4.23351 -1.52493
3704 1 16.3795 -4.47641 9.21215 -1.77059 5.12759 2.17105
3705 1 3.08023 -0.519347 3.71543 3.35424 3.55521 1.1701
3706 1 -13.9497 4.85589 -16.8059 3.69014 -2.58517 -1.25299
3707 1 18.2576 7.38356 -13.8267 -4.62227 -1.21513 -1.07246
3708 1 5.41695 3.41538 8.13254 0.0723567 1.51871 1.20314
3709 1 -20.8388 16.8815 9.24584 1.72789 1.59016 0.299457
3710 1 -7.37211 -3.41277 20.5958 1.0723 -0.892931 -3.38776
3711 1 -12.8562 12.108 15.5086 -4.02686 1.01604 -1.4608
3712 1 15.2512 25.1455 -4.83863 -10.3753 -6.64218 -4.16562
3713 1 0.223087 17.9976 3.73538 -0.163597 0.0371611 -1.70889
3714 1 -12.5044 0.206098 23.1043 -3.12284 1.8776 -0.893985
3715 1 18.4635 20.1135 17.0549 2.96639 1.70268 3.48845
3716 1 6.52408 5.09915 -1.99002 -0.644582 -2.34155 1.03221
3717 1 -6.07698 18.2731 -21.4782 -0.371214 0.0601719 1.99259
3718 1 -16.1536 7.3844 2.81438 -2.9284 2.19417 3.61938
3719 1 0.473077 16.9553 -3.65453 -2.31763 0.374296 1.40213
3720 1 15.8927 18.9691 16.6591 -0.547118 0.528974 -3.43603
3721 1 -0.881355 16.5873 -7.95325 -2.06578 -5.15196 -0.255943
3722 1 19.4113 -9.24286 8.72434 -5.35982 -0.629007 0.463906
3723 1 6.55713 5.84425 -16.1581 -2.73222 4.35032 1.10392
3724 1 -4.18475 -1.5174 -1.74229 -3.01954 -3.10271 2.67557
3725 1 -11.5956 21.9555 -2.98409 -1.84417 0.612548 -2.01585
3726 1 -8.46925 -13.3589 -14.3414 -1.49105 4.23276 1.66696
3727 1 5.42097 -7.75475 -21.6513 -1.00364 -4.37866 -0.566983
3728 1 16.569 -9.36589 -23.0001 0.500371 1.18007 -5.22821
3729 1 -22.8514 -8.18663 -12.8809 -5.21092 5.40023 -0.261764
3730 1 12.6528 -4.82553 13.9036 2.87262 3.71922 -3.46941
3731 1 4.4201 -17.6453 -21.621 -0.3685 -2.49851 2.20105
3732 1 21.0005 18.4898 5.05156 1.19297 2.25657 4.76468
3733 1 6.41529 -14.3533 -1.5249 1.8438 -0.683589 -0.616911
3734 1 14.2277 14.6768 -10.7757 2.11134 1.05162 1.23647
3735 1 -8.25312 18.3001 2.47002 1.87407 6.11926 2.82006
3736 1 -23.1599 16.8091 -9.79285 1.09975 1.35851 2.93004
3737 1 3.03397 5.94886 2.17534 -0.877676 -5.62981 -0.874083
3738 1 -5.44361 -5.83473 16.5655 1.51477 -3.65669 -1.25674
3739 1 2.38644 -3.41523 7.52281 1.78257 -6.17691 2.28269
3740 1 6.36492 1.49188 -20.1988 2.09476 -0.453681 0.346913
3741 1 -20.4174 13.0644 -5.62424 2.33744 0.850288 -0.0770685
3742 1 -1.02242 -21.5066 -16.689 5.85676 0.0819458 0.481895
3743 1 7.31961 -12.842 17.0057 0.192723 1.61382 1.11527
3744 1 -15.0098 17.3008 4.23148 -2.14028 0.0403336 -3.14809
3745 1 4.45886 -8.66469 11.0385 -7.74332 -3.15444 -0.0983318
3746 1 5.01363 -20.5884 -4.34326 0.520421 -3.86151 3.4365
3747 1 -19.088 25.2437 -20.2756 0.622904 -4.19714 1.08045
3748 1 -15.672 -1.34428 -18.3113 -0.0276403 -5.12715 -1.92968
3749 1 -20.8612 0.0800713 13.394 1.26538 -0.404853 1.82105
3750 1 12.9998 24.8891 -14.7608 -3.06034 -6.65117 -5.66183
3751 1 -5.42273 0.20003 2.43811 2.78024 -0.0231699 2.82982
3752 1 -19.1734 14.6273 -15.4893 -1.46317 -2.09121 -1.49697
3753 1 4.7705 -3.38344 -20.0671 6.38073 1.86262 0.317039
3754 1 -11.9147 7.47158 9.21302 -2.51941 -4.5128 -0.059698
3755 1 17.5388 6.49516 -8.10362 4.15626 1.65953 0.223113
3756 1 -10.911 45.7716 -21.6291 1.16701 4.43556 -1.02562
3757 1 0.651789 22.7816 1.99105 1.6404 5.59097 0.0672184
3758 1 22.2923 -7.78221 -12.5852 -4.05311 -5.84348 -0.367028
3759 1 -12.3528 6.94906 -18.2429 1.46741 -1.35786 -2.31286
3760 1 16.4792 21.6309 3.79738 -6.65239 1.11001 -1.55567
3761 1 17.4371 -13.0294 -18.5999 -4.60641 0.772443 -2.93855
3762 1 8.24806 -13.0357 9.41579 2.75272 5.04885 2.26839
3763 1 12.5119 9.73132 6.00493 1.93311 1.26941 -0.487153
3764 1 15.8372 -12.9449 20.7192 1.73808 0.913008 0.745251
3765 1 -23.4096 46.521 -2.02628 4.47974 -3.05128 1.40682
3766 1 -11.3153 19.2324 14.6046 3.84843 7.0089 -0.584509
3767 1 -11.6079 -21.4598 1.29122 5.32228 -0.751616 4.20608
3768 1 -0.0197798 7.26791 -17.0219 0.93468 -3.39511 3.09778
3769 1 -20.2141 -17.4153 8.31464 6.35294 5.04135 -2.54805
3770 1 -8.56064 -4.02443 9.50437 0.86934 3.93773 2.07267
3771 1 -17.2508 20.0662 19.1668 0.806876 1.01396 -3.98089
3772 1 16.4189 -14.8858 -1.74853 3.14466 1.98148 -0.322078
3773 1 2.21077 -2.12757 13.0013 1.389 -1.02536 2.52419
3774 1 -6.52179 14.4336 4.56952 2.74621 -2.33031 1.15703
3775 1 2.17065 -1.73426 -12.0178 0.427065 -4.53087 1.74444
3776 1 6.09342 -3.32826 18.8317 1.70364 -2.62013 6.53764
3777 1 10.9967 -7.8333 -1.2777 -1.45402 2.80422 3.95212
3778 1 6.08637 14.9527 -9.54184 -0.402012 0.677521 -1.11302
3779 1 -9.3967 0.222579 8.93744 -2.50605 1.17971 -1.79762
3780 1 22.8171 16.7055 -16.2636 2.34638 2.69507 -0.970344
3781 1 -1.8899 -2.42762 8.85199 0.0223601 4.51441 -0.844909
3782 1 0.0351324 -14.0493 -18.1489 0.539574 1.90513 5.04271
3783 1 21.1324 21.1779 3.32583 -2.59751 4.08723 2.07954
3784 1 17.2617 2.36612 2.50938 -1.82522 3.68027 1.47374
3785 1 -1.31972 -23.5704 23.0976 -4.06951 -2.50145 -2.94255
3786 1 19.5017 5.3456 18.0782 0.711232 1.95623 -4.20047
3787 1 7.51807 22.3958 -15.3635 -4.98328 -3.23246 -0.652495
3788 1 4.91049 15.805 13.8754 1.04649 -1.39875 0.147387
3789 1 19.9593 24.7659 -13.679 -2.03791 -0.243714 -1.96506
3790 1 4.02107 -17.4877 -1.31167 -3.29196 2.07828 1.96456
3791 1 -11.6792 17.1042 -12.9661 1.93246 -0.600655 -1.53074
3792 1 -13.6319 -7.76868 13.4963 -2.61227 -0.473774 5.36527
3793 1 -13.4814 20.7751 1.95882 -2.33313 -1.08677 1.58276
3794 1 -2.20376 -20.3833 -10.5101 0.534494 2.76328 -1.679
3795 1 12.9498 23.4813 19.5204 2.92982 -1.85348 1.32836
3796 1 -11.7864 -9.06517 -8.54274 0.776948 3.617 2.35862
3797 1 -14.8231 -11.9733 7.52357 4.74679 -2.04937 1.41624
3798 1 5.0838 2.868 -0.78605 -1.29294 -3.46446 -4.26759
3799 1 18.3708 20.6431 -7.6663 1.86045 2.71068 -1.29903
3800 1 14.9949 1.32157 -2.19486 5.75588 1.02712 0.149201
3801 1 1.42197 14.8258 -7.99533 -0.584266 -0.285967 -2.59776
3802 1 7.07575 0.375872 -23.0262 -5.21055 2.82888 -1.50277
3803 1 -20.1888 -5.20584 22.7568 -2.41052 -3.56035 2.90374
3804 1 12.1426 18.203 9.7925 -1.51009 -1.03472 -2.28801
3805 1 -3.90785 17.453 -19.7311 -2.60961 2.30516 -1.11191
3806 1 -1.31181 2.83681 -3.63677 -3.27995 4.14313 1.76849
3807 1 -8.73231 20.7345 -18.3482 0.521353 3.71375 -1.80702
3808 1 7.62614 -12.6765 -21.3725 0.214028 -0.236208 -0.465757
3809 1 5.01059 -23.1757 -22.1218 -1.59314 -1.85415 3.78083
3810 1 -18.1492 -2.71751 13.3639 -4.61144 -0.642062 0.188434
3811 1 15.3942 -16.3106 -23.0688 -2.60733 -0.174398 -4.61409
3812 1 -5.05803 -19.1892 2.00205 0.732271 1.95482 -0.877962
3813 1 17.5867 2.59342 -2.52886 -3.04485 -0.817472 1.22482
3814 1 5.23211 10.5844 7.27905 -0.454301 -2.89663 -1.57043
3815 1 -1.81444 19.4344 -23.5079 0.83338 -3.51554 -2.47561
3816 1 -15.1043 -7.13816 3.10892 3.54756 -4.04239 -1.42161
3817 1 9.87853 8.44198 -2.68875 1.19328 1.47757 -0.766006
3818 1 11.9871 18.1047 -23.0651 -1.86856 -0.999307 -0.561296
3819 1 2.44308 26.051 15.0504 4.13848 5.41221 2.88606
3820 1 22.8823 15.0621 -6.73083 1.83798 -2.80479 3.46246
3821 1 10.1645 -10.9739 14.2742 -3.45485 -4.03485 4.3283
3822 1 10.1571 6.21479 8.85323 3.68595 -2.68832 0.0236903
3823 1 -6.09046 -19.3301 -9.29911 6.88476 -1.15036 -0.165411
3824 1 -7.89535 45.6152 -8.11069 -0.392314 0.0137801 -0.355307
3825 1 20.4525 -13.6708 10.9212 -2.2068 4.04907 -7.00645
3826 1 -1.10634 17.5714 -14.3977 1.81978 -1.46144 -1.0313
3827 1 0.842915 7.44189 20.7418 -1.72378 -1.13585 -2.92005
3828 1 -18.2199 21.2303 -17.1237 -1.50362 -0.26881 1.61555
3829 1 -13.8175 -20.1978 -6.92544 -0.181409 2.15596 -4.81399
3830 1 17.6778 -11.6459 -10.5259 1.36194 1.19861 -2.10976
3831 1 -3.57036 21.1717 0.66217 2.02122 1.72994 4.37971
3832 1 20.8206 -3.74879 2.84612 1.4409 5.43455 -0.877121
3833 1 20.0758 -1.94747 -12.7626 3.54002 0.283705 -0.757537
3834 1 6.82269 5.61813 2.30525 0.579566 -3.15168 -0.923325
3835 1 22.0728 -23.7641 -2.78404 0.339957 -5.88029 4.09959
3836 1 22.463 12.0385 1.33219 -0.352116 -0.0246392 2.58383
3837 1 11.4115 12.8022 3.19687 3.52615 3.16882 -4.95204
3838 1 -5.5984 3.10652 -2.26261 -3.38764 4.43338 0.0378568
3839 1 21.9118 5.15795 1.70184 0.849214 0.367869 -5.41389
3840 1 -11.1226 -20.6375 14.4522 1.06394 -0.869764 0.0655527
3841 1 21.6784 2.36229 9.75575 -2.98707 2.35755 6.46816
3842 1 22.1714 3.61039 21.5939 2.92417 -2.88934 1.73742
3843 1 -0.4547 -19.113 14.1832 4.71506 3.63358 4.70132
3844 1 -21.5803 -14.4019 4.79879 -1.01595 2.86477 -0.931931
3845 1 -3.03503 2.96309 -22.8057 3.80381 -3.54237 -1.7064
3846 1 -22.0142 21.55 19.6894 3.05147 2.40035 -0.621498
3847 1 -14.9925 -17.6733 -14.4198 -3.16731 2.49565 0.260323
3848 1 6.05655 -15.6553 7.17926 0.213029 -1.48824 -4.25075
3849 1 17.8457 13.5461 -20.316 -2.04747 -4.13175 -6.21159
3850 1 20.4695 -21.5114 20.9358 1.64543 3.83571 2.27392
3851 1 -0.317363 6.08861 0.0601933 1.42308 -1.31179 0.280211
3852 1 -6.75137 20.5263 15.3405 2.13368 6.20025 -3.48314
3853 1 19.4641 -13.9701 3.52535 -1.30527 0.0826648 2.06433
3854 1 17.976 12.3695 -3.91631 -0.0230635 7.48124 0.026462
3855 1 -1.99941 -7.06929 22.7783 3.75893 0.452176 4.44927
3856 1 13.4541 -18.4127 -6.0174 4.36533 0.0554501 -4.49003
3857 1 -12.6903 46.929 -11.7237 1.94322 1.38427 3.11473
3858 1 15.9727 7.09009 5.09641 2.60541 3.91571 2.01456
3859 1 20.6029 22.724 9.76812 -0.683021 -3.08859 -1.51602
3860 1 14.6239 -19.441 -14.6533 -1.48661 -0.0683893 1.61013
3861 1 -17.1691 -11.7906 20.9202 5.65669 -1.80361 2.17401
3862 1 -4.92703 -2.30948 -17.7222 2.29803 3.50458 0.0963187
3863 1 -14.1566 -2.08998 16.0562 -2.74354 -3.8409 0.511428
3864 1 -5.23395 -3.62314 -14.3152 -1.59806 -0.300704 0.61534
3865 1 0.0707706 45.8186 14.4921 -2.40151 4.58148 -1.98098
3866 1 10.6665 -17.0132 6.54002 2.5663 0.459341 -2.0204
3867 1 -22.6788 -0.799387 2.06018 0.505724 3.38186 -2.92899
3868 1 7.53327 4.03421 -4.6487 0.581579 0.713113 4.20183
3869 1 -9.82298 5.43622 9.65148 1.82288 -2.43615 6.02936
3870 1 16.7293 -20.0571 -9.7841 5.6277 5.03268 6.71512
3871 1 17.9013 -0.381232 21.9996 -0.822755 2.38013 -2.5091
3872 1 22.5824 -23.1347 -8.93047 4.29655 -1.28129 -3.60332
3873 1 -4.14034 7.4446 14.5695 -0.22883 -4.90826 -1.39355
3874 1 -19.3401 46.6866 -16.4746 -0.283643 1.49903 1.38251
3875 1 -22.629 0.596214 5.91203 -2.42356 -2.59588 -4.87636
3876 1 -22.1408 -12.7721 19.3769 3.09325 1.12353 -5.59197
3877 1 -22.4855 2.35901 -4.72895 0.0290899 -2.29926 -1.20321
3878 1 7.683 -17.1072 5.54582 4.76888 -6.5746 1.36978
3879 1 18.7311 -13.9134 20.658 3.71362 1.4602 -2.40257
3880 1 -8.09455 17.3256 -23.6409 2.84668 1.93641 1.9275
3881 1 -15.1409 3.84518 -14.3337 -5.23854 0.0453317 0.0777711
3882 1 -23.6679 16.6121 -1.63032 -3.71407 -3.2794 1.11035
3883 1 22.0849 16.3355 -10.8086 2.04996 -1.76346 0.973556
3884 1 11.025 -19.1067 -7.47868 4.18743 0.640588 1.7464
3885 1 11.1155 24.7252 14.9693 -1.45552 -1.23005 -4.95658
3886 1 -11.7233 -15.8602 -5.22063 -1.53724 -1.72905 4.30141
3887 1 -0.493949 -12.0067 -20.2858 0.0340589 -0.857619 -1.26442
3888 1 -6.5678 5.22137 -19.0079 1.596 4.35013 -4.51478
3889 1 -16.809 18.3577 17.0056 0.886073 2.11964 -3.12191
3890 1 0.0540089 21.1464 15.1914 0.734414 4.90765 -1.0423
3891 1 6.39475 -15.468 17.9889 -1.34903 -5.46789 3.2838
3892 1 -13.142 24.2554 7.13395 -2.26837 -0.905843 -4.5461
3893 1 -7.47808 11.9184 11.3288 2.13268 2.46591 0.15573
3894 1 11.4363 9.46104 -15.0569 5.05175 4.30516 2.03575
3895 1 13.4334 -7.69644 3.57583 4.91542 3.02042 0.800815
3896 1 -7.46805 -8.91731 -2.30406 5.34069 1.18289 -1.92522
3897 1 5.41244 12.5441 22.9368 6.45613 -5.21583 -0.254672
3898 1 17.0321 -4.50587 15.1744 -3.5949 -0.732947 0.942846
3899 1 4.60394 10.1866 19.13 0.457647 -7.81541 3.25992
3900 1 11.0523 -17.4083 -13.0606 0.546042 -2.90625 0.265771
3901 1 -16.6622 13.5711 -12.2466 0.894027 1.88881 -5.71442
3902 1 12.5174 13.1224 -7.15877 0.270052 2.6831 -3.77253
3903 1 -19.3037 -16.3357 3.86245 2.35982 0.664928 -2.79739
3904 1 12.4906 -8.7257 -6.52031 0.633368 1.92971 3.1757
3905 1 0.374496 -10.657 6.72223 -0.034052 -0.259852 -3.57246
3906 1 -17.8633 9.85978 -9.07384 -0.240006 2.46114 3.43545
3907 1 -20.9253 -0.261485 7.95567 4.14573 3.74587 -1.65428
3908 1 -24.0511 -17.3208 13.2258 5.23193 -1.56055 2.68469
3909 1 -0.15677 -13.1588 18.5291 2.39346 -4.18991 2.55441
3910 1 -7.38591 18.6272 -7.71391 1.17885 3.329 0.459548
3911 1 19.6625 17.9399 -0.0721554 0.376561 3.41075 2.22362
3912 1 -7.83587 -9.21714 0.513917 0.763914 -0.33774 -1.85613
3913 1 -6.08961 6.26191 0.615477 -1.68488 1.30284 3.08351
3914 1 12.5453 -12.6713 -5.59608 -3.60673 -2.27043 -3.11023
3915 1 5.94587 -1.13283 7.1119 -0.0608779 -2.4403 -1.98761
3916 1 23.4205 -14.8295 18.9964 -0.873183 0.167707 -9.40927
3917 1 0.576888 -3.60939 -8.31791 1.95783 -2.08504 -4.74582
3918 1 11.7467 11.6901 -20.4353 5.78907 -0.380481 -0.10367
3919 1 9.2538 -14.8228 18.475 2.39656 -3.45695 -2.04697
3920 1 -12.6108 11.8923 18.3497 2.63101 2.52896 0.62355
3921 1 17.4996 8.99456 -16.2881 3.24345 2.18132 0.730127
3922 1 -16.8693 -12.8177 -17.5607 -1.92786 -1.02328 4.2337
3923 1 -24.054 4.0006 -8.59347 -0.382818 -2.24985 -1.0332
3924 1 -11.7806 -4.02976 12.962 1.89132 2.4717 -1.93903
3925 1 -22.2043 5.19183 2.09109 3.28103 -5.23254 -1.14025
3926 1 7.25598 -4.73014 21.1195 1.4894 2.29312 -2.13546
3927 1 13.5631 16.8023 -0.107195 0.492888 -1.31149 6.55286
3928 1 -18.8079 19.3913 23.7486 0.179547 3.23193 0.158796
3929 1 -1.70669 10.904 -7.46654 -4.00442 1.16633 -3.15849
3930 1 12.6708 20.3937 3.0797 -2.73439 4.94821 2.1785
3931 1 0.0751841 9.58998 0.643093 2.32492 -1.63778 6.64608
3932 1 20.9899 5.31319 13.898 1.2951 -0.170028 -2.48083
3933 1 -4.64096 -9.92467 21.1646 -5.63993 -0.411576 -0.372662
3934 1 21.9192 5.66214 -12.3183 -2.4314 0.975516 1.74444
3935 1 12.5233 -14.3121 -19.6891 -3.50049 -0.276791 1.25588
3936 1 1.19795 -22.2582 20.6994 1.85216 -0.653396 -1.91143
3937 1 16.1284 -17.7287 -17.5895 2.41872 2.14175 -3.1869
3938 1 18.4781 14.4326 18.8626 2.55537 -5.99752 2.70572
3939 1 23.1395 -2.73724 13.15 -3.10596 1.88634 -1.71905
3940 1 -0.565483 23.3077 -6.65044 1.04318 -4.84855 -5.6513
3941 1 -19.0894 1.64997 23.2234 -0.828311 -2.86246 1.31308
3942 1 11.8368 -24.3384 15.8885 -1.24422 -4.11401 -1.23983
3943 1 -19.2729 -21.1936 3.24404 3.15811 1.4296 -0.288841
3944 1 -13.1659 -7.12483 -12.1033 -2.31347 5.55638 1.33134
3945 1 -21.7614 -14.2465 -14.5976 -2.50912 2.77072 -1.67145
3946 1 -4.36195 16.8978 7.63259 1.59836 -3.8989 5.12944
3947 1 -23.1569 11.465 -23.7158 -3.18715 3.08323 0.139801
3948 1 10.677 16.5264 -17.7889 -0.433218 3.6494 4.66716
3949 1 3.88887 -14.0882 -12.1219 -4.59354 -2.43735 -0.499561
3950 1 -7.22935 -2.64588 -19.0901 -0.0182714 -1.47958 0.428503
3951 1 4.90211 4.53311 -13.8726 5.36095 0.293549 0.141151
3952 1 -4.07031 -6.33814 -14.3256 6.10425 3.09934 6.74426
3953 1 18.9485 -17.4103 13.8875 -0.055606 -2.49182 -1.93814
3954 1 6.56553 2.0453 -16.462 -0.355719 -1.72108 3.8276
3955 1 -7.6964 18.6671 11.1054 0.49208 1.74071 -1.59979
3956 1 -12.3508 13.8607 -3.62551 3.18185 0.454584 -1.40702
3957 1 19.7577 -23.9064 -18.0797 2.42885 0.956341 -3.55515
3958 1 -4.37199 7.82307 -5.61538 -3.45502 0.0479786 -1.75233
3959 1 -20.4477 -5.45258 -22.0889 0.622703 1.43312 8.12276
3960 1 21.45 -12.6967 -9.6467 -6.05919 -2.76954 -0.253808
3961 1 -1.67561 -20.7153 -4.31115 0.377711 -4.68762 -0.621267
3962 1 3.49073 -13.3735 5.00553 -0.498494 -0.737337 -3.95867
3963 1 -14.3982 -18.2716 -3.16872 0.85257 -4.7363 -2.25351
3964 1 8.94107 9.64793 18.213 0.751934 -2.79775 -1.86659
3965 1 -3.91544 1.74635 4.226 0.263693 -0.285434 2.55197
3966 1 -21.0603 19.523 7.92318 5.53257 -2.69823 1.10449
3967 1 0.522849 -6.71867 -5.14834 1.01892 -5.31138 -0.889395
3968 1 -2.56144 6.77881 -1.94793 3.06999 -2.2659 8.40163
3969 1 16.7512 -23.7784 21.5709 3.97056 1.3706 -6.57867
3970 1 -9.15335 23.0819 22.0776 -0.48975 -2.36565 1.25126
3971 1 -2.02262 0.0177754 22.9269 0.801879 -3.30345 -1.94347
3972 1 -4.70363 -8.6484 -9.04082 6.62971 0.708909 -2.73491
3973 1 -12.0001 -22.3343 -8.39235 -2.432 1.95224 -1.86294
3974 1 5.26623 26.3054 15.0608 -0.907707 0.350431 6.34241
3975 1 2.40471 1.75409 -14.8339 9.3661 -2.82634 3.10617
3976 1 -2.21916 14.6778 4.59482 -1.65253 -2.76599 3.60017
3977 1 -7.03075 -19.74 -20.3101 -1.04285 1.26388 0.423277
3978 1 -0.680569 19.9285 -9.62287 5.48147 -2.86951 -0.888064
3979 1 -10.2987 -22.8412 3.70185 -0.912885 -2.4201 0.256739
3980 1 -22.4315 -17.2201 -14.3435 -2.83791 2.78336 3.22788
3981 1 13.1506 -10.2373 4.78077 1.43825 5.71695 -3.62239
3982 1 9.23995 -5.66147 -2.64285 0.950044 -2.60041 2.1438
3983 1 -22.6203 11.2878 7.77373 4.81794 -2.7015 -3.99184
3984 1 -5.39721 13.5876 -19.6672 1.27766 2.62075 1.04016
3985 1 -13.1034 21.2428 7.46686 2.80362 -4.55105 1.01594
3986 1 15.5117 21.5407 -17.3444 6.0526 -1.27874 -2.3249
3987 1 10.9142 18.0588 16.3085 -1.83426 -2.59107 -1.16078
3988 1 21.7352 19.4228 19.1958 2.55866 -6.6101 0.819652
3989 1 -15.841 -10.2713 -10.8634 3.31283 -4.64278 3.9595
3990 1 11.0358 4.40295 23.4723 -1.35405 -9.54737 -0.506777
3991 1 -18.9911 6.82555 22.8034 3.60568 1.20308 0.441698
3992 1 21.4236 9.40583 -4.944 1.13361 0.441076 -1.75938
3993 1 -7.35737 -8.90746 -6.24443 -2.14985 -4.67355 3.1117
3994 1 -15.0405 -20.5925 -20.5736 -1.01899 0.602134 0.337988
3995 1 6.33823 -24.0571 4.59271 -1.07438 -0.114148 -3.02578
3996 1 4.02234 -15.1175 2.81984 -2.33776 2.45873 2.57092
3997 1 19.5134 46.7694 -11.1244 -1.49605 5.64048 -1.432
3998 1 -13.4128 -5.26652 1.62679 -1.26439 0.874783 -1.89992
3999 1 -8.64508 15.5982 9.32742 1.38025 2.60716 7.97516
4000 1 -19.288 11.7377 22.0993 1.80145 1.41386 0.432598
4001 1 -11.6235 25.9161 -4.67055 -3.11296 2.04983 -3.39769
4002 1 -10.6874 28.4558 -5.13775 -2.95 0.708247 -3.5346
4003 1 -8.18702 27.8669 -4.15592 3.375 -0.990122 -1.19655
4004 1 -7.04559 25.9668 -5.55525 -2.99275 5.62868 -6.07119
4005 1 -10.6071 25.9465 -9.97662 2.59521 -3.39078 2.12321
4006 1 -12.9046 27.5785 -9.46997 -5.27271 -5.32559 5.69168
4007 1 -8.54135 27.8114 -9.28302 -1.33667 1.60175 0.0887054
4008 1 -6.18666 26.2518 -8.31685 1.60584 -1.09228 1.32468
4009 1 -11.086 25.3119 3.05625 -2.69363 -0.9329 1.47537
4010 1 -10.201 27.6788 1.93692 -0.975567 0.0260124 0.763736
4011 1 -7.45153 27.9483 2.80076 -2.60874 2.62894 9.61325
4012 1 -6.29636 25.1352 2.26431 -2.6192 1.78371 0.662061
4013 1 -11.332 25.418 -1.90027 0.881357 -2.34093 4.72252
4014 1 -10.1104 27.6975 -0.994747 1.36278 1.16297 2.1285
4015 1 -7.36222 27.8256 -1.52347 7.61895 1.33807 1.38742
4016 1 -5.89712 25.5176 -0.641113 -0.690196 3.14164 -0.789389
4017 1 -11.0252 25.308 10.4767 1.0557 -2.57954 -1.36811
4018 1 -9.55842 27.8211 9.49587 -3.12209 -0.315284 -2.75978
4019 1 -7.17193 28.0846 11.3185 3.22931 -1.51436 -2.06724
4020 1 -5.27162 26.0956 10.8124 0.163315 2.64399 4.32207
4021 1 -10.9439 25.5121 5.72262 0.716111 0.721473 -3.07266
4022 1 -9.15771 27.6888 6.68296 1.41497 -0.145564 -0.294667
4023 1 -6.76339 27.5069 5.39075 -9.01329 -3.09492 0.141054
4024 1 -6.0404 24.9055 6.2675 1.14448 2.76149 1.50308
4025 1 -11.9393 30.5584 -3.92326 -4.06571 1.65039 0.190245
4026 1 -10.813 32.7926 -5.01573 0.372595 1.47665 3.16005
4027 1 -8.19152 32.5254 -4.26964 0.708357 -0.904641 -1.01712
4028 1 -6.93168 30.329 -5.05799 -1.56028 -0.798602 0.4516
4029 1 -10.7542 28.9238 -7.86174 -5.05584 0.798069 -1.22798
4030 1 -10.9178 31.8054 -7.72805 2.00368 -0.703408 -0.688784
4031 1 -8.30628 32.2524 -8.89444 1.706 -0.62959 1.90364
4032 1 -7.0762 29.8796 -8.02854 -0.941035 2.889 -5.67306
4033 1 -11.438 29.9594 3.11498 -0.661037 -2.43152 1.68511
4034 1 -10.0514 32.3194 2.48311 2.79657 6.32145 1.96039
4035 1 -7.38148 32.2844 3.05224 2.42787 -2.97272 -2.33066
4036 1 -5.80871 30.0696 2.10986 -2.12748 -0.750085 -0.82159
4037 1 -11.3717 30.3154 -1.38016 -0.840561 -0.147677 0.370522
4038 1 -10.393 32.5855 -0.316354 -2.27423 -1.51285 -5.63173
4039 1 -7.85976 32.4763 -1.46672 -1.14041 0.174881 2.12138
4040 1 -6.1064 30.3791 -0.670449 -0.531897 3.48212 0.969732
4041 1 -9.47111 29.8707 11.484 1.35223 1.56677 4.72657
4042 1 -9.06405 32.3858 10.1545 -5.67618 1.92038 -2.0114
4043 1 -6.22507 32.2669 10.1691 -0.870716 3.56625 -3.63299
4044 1 -5.53843 29.5273 9.45357 -2.75726 -1.19641 -5.03465
4045 1 -10.587 30.1621 5.73438 -0.104364 1.99269 -6.05506
4046 1 -9.54439 32.4261 7.23557 -0.196978 4.03642 0.0903586
4047 1 -7.05983 32.4383 5.87668 4.39551 -1.34901 4.23124
4048 1 -5.75642 29.9984 6.7841 0.475736 -2.67403 -0.0309252
4049 1 -12.0688 34.8233 -3.82822 -2.58542 0.225976 -3.12143
4050 1 -10.7222 36.9547 -5.00909 2.04746 2.68153 -1.04325
4051 1 -8.0693 36.9805 -4.23061 1.25331 0.80041 2.177
4052 1 -7.00921 34.8902 -5.55724 -0.225307 1.30507 -0.367982
4053 1 -12.5692 33.854 -8.18527 3.33781 0.0452144 -1.94254
4054 1 -11.18 36.2233 -7.69535 3.35142 5.61894 2.83522
4055 1 -8.37245 36.9447 -8.95117 -2.41006 -1.36998 1.8143
4056 1 -6.92369 34.7005 -8.22841 4.87673 -0.702621 1.49384
4057 1 -10.9451 34.5466 4.03217 -2.89824 2.94717 -1.16957
4058 1 -10.081 36.6878 2.56537 -1.78254 1.50377 0.505416
4059 1 -7.31888 36.7999 3.39374 -4.61216 1.67501 3.54963
4060 1 -6.13744 34.5929 2.11364 3.6087 1.61821 -0.795042
4061 1 -11.8835 34.8045 -1.05497 0.873654 -1.85765 -1.38081
4062 1 -10.0557 36.8709 -0.198249 -3.46714 0.0142795 2.01018
4063 1 -7.60023 36.8793 -1.51594 -2.32065 2.66866 1.35842
4064 1 -6.39387 34.7014 -0.661187 -1.52764 3.51214 -0.271146
4065 1 -9.81157 34.7456 11.5663 1.11621 0.399789 0.135001
4066 1 -8.77148 37.0219 10.2495 0.598647 0.318361 -0.851629
4067 1 -6.10582 36.9662 10.2797 2.63545 -4.88999 -2.0718
4068 1 -4.89906 34.5933 9.415 -3.73286 1.03098 -4.23347
4069 1 -10.7168 34.8118 6.78042 -0.537162 -2.52456 -0.65303
4070 1 -9.29098 36.8944 7.42678 -1.75421 7.43804 -0.248628
4071 1 -6.87125 37.1633 6.1527 0.335785 3.6221 7.09695
4072 1 -5.7211 34.6185 6.73206 -0.339537 2.1177 -2.41155
4073 1 -11.6272 39.2521 -3.5712 -2.05806 4.12624 4.41757
4074 1 -10.493 41.3375 -4.99189 0.97688 2.48538 3.82154
4075 1 -7.84836 41.5074 -3.95011 2.68862 -5.80923 -1.57429
4076 1 -6.84935 39.2914 -5.20177 -4.70523 -1.74008 -1.86316
4077 1 -10.9667 38.5717 -9.33199 3.27518 -2.6668 2.18891
4078 1 -10.5492 40.7773 -7.74574 -1.68638 3.00379 -0.0369542
4079 1 -8.03005 41.6707 -8.68712 2.94617 0.509283 1.29752
4080 1 -6.864 39.0368 -8.01434 0.102973 0.0830276 1.68624
4081 1 -10.7547 39.0963 3.74183 0.526578 0.513163 -0.0191457
4082 1 -9.95261 41.5719 2.33357 0.0490888 3.45221 2.41642
4083 1 -7.31909 41.2647 3.35186 -1.01448 3.50046 0.116199
4084 1 -5.84258 38.9923 2.45328 2.56193 0.221716 -0.796994
4085 1 -11.3312 39.1133 -0.952152 -2.66227 1.57448 2.57046
4086 1 -10.3952 41.5506 -0.459714 -1.07728 3.77475 2.30666
4087 1 -7.57116 41.6875 -1.11631 -2.58362 0.753073 0.850498
4088 1 -5.96275 39.3482 -0.454619 -0.607265 -1.32686 -0.00362441
4089 1 -9.64008 39.3489 11.3864 5.38494 8.91165 -7.56492
4090 1 -8.98626 41.6481 10.2494 -3.54312 4.25977 0.563494
4091 1 -6.17997 41.45 11.0641 -4.8895 5.19526 3.93899
4092 1 -4.80638 39.327 9.9852 -0.0218096 2.9589 -3.29929
4093 1 -10.3756 39.2925 6.41021 -5.12396 1.89045 1.6544
4094 1 -9.26672 41.5442 7.61695 -0.310263 -1.83307 -2.74361
4095 1 -6.75969 41.3068 6.05464 2.50429 -4.61243 -0.62956
4096 1 -5.28354 39.0951 7.00729 -3.51336 -4.43509 4.62571
4097 1 -10.5614 44.0152 -4.48786 2.94973 2.05924 6.76912
4098 1 -12.9845 44.8495 -5.85215 2.43919 3.10197 -3.01211
4099 1 -8.18526 45.4278 -5.29709 4.36359 1.39862 1.83058
4100 1 -6.32022 43.0679 -5.4866 -0.411962 1.44566 -2.04836
4101 1 -11.8239 43.3516 -8.1171 3.62769 -2.26651 1.04786
4102 1 -9.55864 43.9728 -9.90248 -6.15789 1.40384 -0.608996
4103 1 -8.57581 -23.3373 -11.6851 3.9499 3.08461 0.672821
4104 1 -6.08175 43.5964 -8.1227 -1.80189 -2.32387 -0.92087
4105 1 -10.9868 43.659 3.98236 0.699303 0.397157 -0.177884
4106 1 -9.55824 45.7164 2.58679 0.465962 1.93412 6.5282
4107 1 -6.87022 45.313 3.40779 4.05321 -1.25323 -0.28527
4108 1 -5.46168 43.3032 2.32535 0.0656185 0.0162147 1.75119
4109 1 -10.9689 44.0269 -1.76809 3.50668 -0.299487 0.219398
4110 1 -9.95784 46.1132 -0.346593 0.917905 -0.838162 -0.849987
4111 1 -7.22661 46.4712 -1.02578 0.782377 -2.9152 2.35388
4112 1 -5.90025 43.8424 -0.405387 3.39705 -1.51856 0.00501779
4113 1 -9.34752 44.4118 10.7244 -4.46858 -0.473064 -0.652896
4114 1 -7.09978 45.7208 11.6497 -0.215176 0.638005 -1.07901
4115 1 -3.43908 45.5646 10.5944 -0.312462 1.80732 -2.9019
4116 1 -5.68887 43.9526 9.90855 0.596535 -1.54225 0.185539
4117 1 -9.81569 43.983 6.43247 0.490116 -1.50319 -3.34151
4118 1 -9.45643 46.0337 8.4973 2.04012 -0.819504 -3.51315
4119 1 -7.35048 45.3727 6.25887 1.87923 -0.910133 -0.530368
4120 1 -5.42039 43.6942 7.03283 3.33618 1.62053 -0.856958
4121 1 -4.68212 24.7712 -4.27828 3.58549 -0.0954794 -3.8549
4122 1 -3.15213 27.3481 -4.52872 -3.85163 3.67127 1.98037
4123 1 -0.401626 27.5651 -4.31468 2.77541 2.63561 3.89164
4124 1 0.811971 25.7605 -5.80346 0.870768 2.47373 0.68238
4125 1 -3.29858 24.0784 -6.65798 0.945612 0.534772 -0.363816
4126 1 -3.3676 26.9308 -7.46547 -0.987198 -2.06014 2.20398
4127 1 -0.744276 26.8294 -8.03817 -0.0814223 1.83726 -0.601586
4128 1 0.486147 25.2772 -10.159 2.33416 0.408826 -1.27676
4129 1 -3.49154 25.3364 2.73301 -2.00635 5.74925 -1.73333
4130 1 -1.90696 27.416 1.92973 -2.13183 -1.01299 -0.704551
4131 1 0.671555 27.2942 2.94087 -2.31917 -1.83546 3.37676
4132 1 2.03935 25.2466 1.88654 3.92477 -1.74953 1.2499
4133 1 -3.35725 25.8191 -1.85543 -1.3073 -1.03866 2.2473
4134 1 -2.23694 28.101 -0.732808 -1.1227 3.88536 8.2975
4135 1 0.359221 27.6737 -1.57604 0.0773421 -5.30699 2.53207
4136 1 1.53282 25.1806 -0.794178 -3.32208 -0.126785 2.20971
4137 1 -2.3088 22.5941 8.98228 3.72638 1.0497 5.10521
4138 1 -1.63587 27.7194 9.17491 -2.4931 0.886954 2.8834
4139 1 1.01808 26.928 9.93366 -1.31691 0.897593 -0.281671
4140 1 3.84433 24.5895 8.88838 3.64015 5.19088 0.931856
4141 1 -3.15388 25.0186 5.56545 -5.11108 -2.82972 3.35686
4142 1 -1.9338 27.4521 6.45065 -0.695055 -0.617955 -0.0685235
4143 1 0.856305 27.2568 5.73296 1.22313 3.14535 -6.45123
4144 1 1.59676 25.3663 7.47988 -3.69896 3.04636 -1.23328
4145 1 -4.12341 30.0432 -4.74979 -1.91866 0.538189 -2.08406
4146 1 -2.52427 32.4688 -5.21887 2.8043 1.67236 2.6877
4147 1 0.087708 31.9704 -4.45889 2.76334 3.73622 -2.66145
4148 1 0.942643 29.5805 -5.67899 1.39396 1.71275 -3.22964
4149 1 -4.27299 29.7118 -7.83748 -0.510649 -1.1825 2.30464
4150 1 -3.01571 32.2754 -7.90669 -2.8729 1.11816 4.57321
4151 1 -0.811944 31.39 -9.58951 2.80336 1.79444 -2.33497
4152 1 0.64444 29.1358 -8.57428 -4.31738 -4.98565 -3.24314
4153 1 -3.11463 29.7907 2.90368 -0.828153 -2.43183 2.55206
4154 1 -2.03722 32.0397 1.91882 -3.29581 -0.702759 -0.480881
4155 1 0.69431 31.9158 2.73072 1.79735 -1.36829 3.38042
4156 1 1.88492 29.5971 1.83726 0.261109 0.0495599 -1.50789
4157 1 -3.65442 30.3925 -1.98384 -2.67313 2.34638 -2.87438
4158 1 -2.18455 32.508 -0.927345 0.562519 -3.02605 3.88334
4159 1 0.508436 31.9238 -1.54568 -1.83396 -1.85875 -2.80522
4160 1 1.90281 29.8612 -0.951941 -1.64785 3.26388 -0.302959
4161 1 -2.89782 29.8424 10.3644 2.8729 0.0826196 1.54842
4162 1 -1.47519 31.9326 9.71774 0.625386 0.119712 -0.387054
4163 1 1.37463 31.9786 9.98999 -0.840899 2.90951 2.35886
4164 1 2.14131 29.3677 9.46678 2.78048 0.376786 -1.63371
4165 1 -3.138 29.8874 5.78197 0.937628 1.28707 3.57591
4166 1 -1.75708 32.2396 6.93059 1.06724 1.51064 -1.17215
4167 1 0.756271 31.8614 5.6742 -5.87447 -0.523424 -0.435502
4168 1 2.30682 29.5954 6.30077 1.09842 -4.89677 1.38722
4169 1 -4.36064 34.6488 -4.3962 2.24481 -2.93045 2.74793
4170 1 -2.69733 36.7435 -5.26121 -6.58866 0.226114 -2.0779
4171 1 -0.00432065 36.6643 -4.59623 -6.94374 -2.01932 0.888312
4172 1 0.851017 34.4618 -5.78516 1.48352 -1.16911 -1.12928
4173 1 -4.21731 34.4916 -9.0041 7.40818 3.1125 -3.10353
4174 1 -2.45441 36.5059 -8.21621 1.02675 2.82361 0.869913
4175 1 0.082644 36.5655 -9.28852 -2.28293 3.4448 -0.693814
4176 1 0.613302 33.8547 -8.54434 -3.62604 -1.9341 -1.16076
4177 1 -3.473 34.3815 2.91834 -0.508933 -3.41507 -1.41289
4178 1 -1.93828 36.4774 2.10615 1.92038 4.81793 2.15087
4179 1 0.72971 36.6688 2.71373 -1.66875 0.342763 4.19458
4180 1 1.83029 34.3541 1.81283 -0.658881 -2.36047 -5.90512
4181 1 -3.76527 34.7602 -1.58529 -4.7793 3.97307 1.74788
4182 1 -2.41507 36.691 -0.577523 -2.10099 -1.70342 -4.82213
4183 1 0.120859 36.8981 -1.69444 1.3887 -1.48002 6.34261
4184 1 1.51463 34.4752 -0.861096 -4.93044 -0.0657374 4.31556
4185 1 -2.41406 34.3564 10.494 -5.43733 4.06011 -3.76876
4186 1 -1.05909 36.6378 9.47563 -3.39108 -0.3728 4.24935
4187 1 1.79622 36.4829 9.96744 3.68018 2.42236 -2.04261
4188 1 2.88148 34.0492 9.35105 -0.336035 -0.149281 -3.09373
4189 1 -3.11033 34.3496 5.69123 -2.38488 -4.19344 0.715152
4190 1 -1.36315 36.5219 6.55147 -5.82752 1.51665 -2.51384
4191 1 1.24242 36.6275 5.45 -4.7255 2.12977 2.50402
4192 1 2.03424 34.1826 6.53049 -0.574537 0.407683 1.21909
4193 1 -4.17814 39.0641 -4.58253 4.66177 -1.6111 3.10319
4194 1 -2.43295 41.2497 -5.31799 1.42549 -2.10919 1.01433
4195 1 0.233315 41.1512 -4.74849 -4.84314 3.07926 3.139
4196 1 1.56564 38.7401 -5.82374 -3.93481 0.30708 0.718064
4197 1 -4.28237 38.4309 -8.56922 3.57426 -0.368318 -3.43893
4198 1 -2.94619 40.9009 -8.17521 -4.50737 -3.64934 2.28708
4199 1 -0.0866689 41.2239 -9.04333 -0.399947 -3.82344 -1.34551
4200 1 1.4088 38.8975 -8.60785 2.49542 1.2903 0.543926
4201 1 -2.84994 38.9773 3.00439 -1.02435 2.95314 -3.77737
4202 1 -1.77243 41.2842 2.07595 -4.39984 -0.39353 -0.569867
4203 1 1.02462 41.038 2.65622 2.59281 0.0146522 -1.47489
4204 1 2.00247 38.7666 1.67182 -0.0432125 -3.68943 1.77315
4205 1 -3.51853 39.1152 -1.64043 0.620853 -0.772683 -0.391339
4206 1 -2.07036 41.3553 -0.689947 1.16758 -5.47667 -4.46493
4207 1 0.406089 40.8327 -2.00898 -5.16886 0.205207 2.2877
4208 1 1.82438 38.8029 -1.02793 -4.27764 3.81127 0.777789
4209 1 -2.17189 38.9911 10.2739 2.60397 -5.94884 -5.462
4210 1 -0.889202 41.4011 9.70482 4.4377 0.235129 0.596606
4211 1 1.7405 41.3206 10.0735 0.973746 0.201263 5.01468
4212 1 3.03549 38.8933 9.28788 -2.31559 4.05745 -0.890294
4213 1 -2.68493 39.0796 5.72369 1.35893 -1.53591 3.53648
4214 1 -1.04812 41.16 6.83934 -1.18288 -1.99716 -3.13604
4215 1 1.45222 41.0209 5.53909 3.55509 -1.43792 -0.57695
4216 1 2.76668 38.7292 6.53024 2.17637 0.807219 0.473188
4217 1 -3.88131 43.4603 -4.30889 -2.64548 -1.62368 4.5394
4218 1 -2.7716 45.6813 -5.33496 1.41984 -2.44983 1.15448
4219 1 -0.176298 45.6976 -4.26559 -1.60994 -0.483991 -1.00731
4220 1 1.32836 43.5708 -5.7438 -1.57081 -1.1153 0.192895
4221 1 -3.72385 43.2308 -9.29145 -6.18186 -0.849597 5.98197
4222 1 -2.92324 45.6864 -8.16085 4.86182 -1.48558 -1.88439
4223 1 -0.0875448 46.0094 -9.10806 -2.02945 2.272 0.906588
4224 1 1.09178 43.6215 -8.48295 -1.79877 2.34905 0.959953
4225 1 -2.89845 43.3627 3.4979 -2.00769 -1.05341 -5.21855
4226 1 -1.63057 45.4312 2.45169 -0.790579 3.79704 4.84304
4227 1 1.1445 45.1379 2.85749 -1.4005 4.80282 -4.67357
4228 1 2.36125 43.0657 1.4569 2.6492 -2.96728 -0.324794
4229 1 -3.55016 43.7201 -1.54736 -2.3073 0.240664 -0.177181
4230 1 -2.29576 45.8185 -0.292562 1.45736 2.06974 -1.85086
4231 1 0.299657 45.5213 -1.57796 -1.40697 3.1343 7.01652
4232 1 1.89015 43.0875 -1.21903 1.7646 -0.760347 6.47359
4233 1 -1.1874 44.4128 9.45813 -0.116687 -3.16545 1.0357
4234 1 0.0285092 45.8522 11.5966 -2.15848 -2.42797 -2.14895
4235 1 2.50419 46.0854 9.82394 0.0729214 3.28765 1.65105
4236 1 3.23284 43.4238 9.20769 0.344336 1.57246 -2.9568
4237 1 -2.7491 43.329 6.18491 0.0934715 -1.57474 5.88412
4238 1 -1.05567 45.2445 6.92969 0.134078 -1.25534 -3.59877
4239 1 1.52336 45.2446 5.56438 2.15584 3.19263 0.376239
4240 1 2.9962 43.2246 6.45671 3.59563 -2.886 2.83248
4241 1 3.5271 25.7328 -5.45207 -0.024164 7.76291 2.64739
4242 1 5.34375 27.6278 -6.67797 -0.755332 -3.05103 -2.98105
4243 1 7.89887 27.6263 -5.40486 -1.77729 -6.62197 -3.58657
4244 1 8.67534 25.3246 -6.79959 -3.77941 4.88293 -0.37687
4245 1 3.04205 25.6559 -11.2386 -2.38796 1.56365 4.08685
4246 1 5.11088 27.2538 -9.51428 -1.53486 -0.464909 0.145768
4247 1 7.45128 27.5766 -10.8731 -4.55732 4.3371 -2.47172
4248 1 9.05151 25.6735 -9.45411 -1.01474 -0.832945 1.04223
4249 1 4.79831 24.9151 2.64766 2.02142 -2.48742 2.72849
4250 1 5.82889 27.1965 1.22518 -3.10633 -1.08182 0.353065
4251 1 8.54572 27.1961 2.20455 -3.86261 4.48361 -0.202213
4252 1 10.3116 25.2312 1.07307 -4.52414 0.869764 -0.256711
4253 1 3.69313 25.4776 -2.68732 -2.8713 -0.542201 1.15514
4254 1 5.70606 27.114 -1.48191 3.6653 1.96232 2.55832
4255 1 8.19611 27.3459 -2.69111 -0.0944044 2.40281 6.52316
4256 1 9.52707 25.0801 -1.46341 2.4263 -0.780218 2.30583
4257 1 4.72914 22.2057 7.57134 0.162749 -2.11619 3.31462
4258 1 5.79128 26.7357 8.90973 -0.871558 0.566264 1.43768
4259 1 8.18342 27.112 10.4254 -1.4013 -0.142706 4.52257
4260 1 11.8604 28.2502 7.24838 -1.06576 1.56541 -1.64374
4261 1 5.86272 24.0725 5.29695 -4.73017 3.64476 0.187409
4262 1 6.06553 26.857 6.10625 -0.509443 -0.991926 3.46591
4263 1 8.77769 27.369 4.96357 0.237005 -0.311714 -2.41775
4264 1 11.2545 25.7941 5.635 2.36647 2.2807 -2.25385
4265 1 3.63746 29.4728 -4.96869 -3.89019 -1.83655 1.69669
4266 1 4.67841 32.0033 -5.92384 2.33312 -2.92582 -0.826569
4267 1 7.45162 31.9636 -5.36595 3.03962 -3.43513 -0.337423
4268 1 8.70401 29.997 -6.81877 -0.638023 -3.80903 -3.57554
4269 1 3.2189 29.5966 -9.14267 1.87482 0.594936 1.68436
4270 1 4.48765 31.7958 -8.60463 2.89721 4.74831 -1.06929
4271 1 6.83407 32.0981 -10.1581 -0.744475 -3.61242 -2.43201
4272 1 8.25423 29.8546 -9.65044 -3.54465 3.82909 -1.02276
4273 1 4.50022 29.2533 2.51435 0.0767273 4.40072 -2.56201
4274 1 5.69013 31.7696 1.51856 -2.05554 1.84025 4.16781
4275 1 8.46391 32.1736 2.12324 0.902463 -1.74539 6.87704
4276 1 9.23041 29.5755 1.12756 3.47589 -1.24262 -1.86218
4277 1 4.28202 29.314 -2.23195 -3.53525 -0.506023 -0.0224555
4278 1 5.35694 31.8168 -1.23843 -5.52336 -3.47211 5.26567
4279 1 7.78061 31.7998 -2.63947 -1.19576 -3.09586 -1.27279
4280 1 9.53804 29.5481 -1.65522 -1.59115 9.7002 4.25922
4281 1 5.02001 29.3893 9.88262 2.03622 -0.04707 1.35614
4282 1 6.3962 31.4679 8.67188 1.16561 2.88238 -0.573297
4283 1 8.99309 31.0084 8.71496 -0.506079 7.31873 2.56887
4284 1 10.3404 28.6318 9.66891 -3.54664 -0.609741 -4.38918
4285 1 4.92979 29.151 5.22281 -2.90343 -2.20266 -3.18289
4286 1 6.07519 31.6976 6.00764 -1.73878 -0.397879 1.77514
4287 1 8.66073 31.7345 4.8625 1.62557 3.11291 4.46137
4288 1 9.73853 29.6812 6.07016 3.47262 -0.351191 -2.56802
4289 1 3.60695 34.2296 -4.90267 -1.4088 3.0068 0.702161
4290 1 5.00563 36.5874 -5.90654 2.01161 0.254139 1.35011
4291 1 7.92438 36.0895 -5.8186 2.97865 -2.48406 1.10092
4292 1 9.0196 33.9132 -6.82916 -0.440755 4.62517 -0.945543
4293 1 3.44836 34.1348 -9.28882 1.29384 -2.44815 7.55034
4294 1 4.63416 36.6145 -8.62059 -1.10852 0.8871 1.29818
4295 1 7.20101 36.6079 -9.73459 1.39159 -1.48688 0.505763
4296 1 8.39904 34.1991 -9.48029 2.09203 -5.47604 -0.159767
4297 1 4.63078 34.1131 2.4267 3.31488 0.0569514 0.617924
4298 1 5.66317 36.3197 1.21603 0.555104 0.0541387 0.53184
4299 1 8.25051 36.2803 1.90896 -1.004 -2.15268 -0.294734
4300 1 9.24393 34.21 0.598886 -0.347823 -1.41233 2.90406
4301 1 3.93286 33.9261 -2.01162 -3.13789 3.71712 -1.55424
4302 1 5.44314 36.4378 -1.84142 1.33592 3.58357 1.43121
4303 1 8.05882 36.1351 -2.93415 -2.70436 1.10825 -1.03469
4304 1 9.40241 33.8795 -1.97918 4.13167 -6.3477 1.7834
4305 1 5.64606 33.8166 9.58755 -1.25149 1.11909 -0.00297715
4306 1 6.79388 36.0868 8.70351 -2.50916 4.92092 -1.08176
4307 1 9.53005 35.7149 9.08069 -0.355573 6.46204 3.64396
4308 1 10.4174 33.2957 8.0938 2.58706 0.242928 3.1241
4309 1 4.71237 34.1838 5.35501 -4.13609 0.0983058 4.0124
4310 1 6.50148 36.3857 5.82526 -0.997341 -4.10222 0.892734
4311 1 9.07288 36.0624 4.59341 -2.02058 -3.1631 -0.324106
4312 1 10.5086 33.6737 5.44087 -0.217143 1.42197 1.26324
4313 1 4.03236 39.0233 -4.89475 0.239301 -4.32793 4.75787
4314 1 5.23419 41.2235 -6.07885 -1.50912 -1.76456 -1.69295
4315 1 7.98774 41.0388 -5.33247 1.14936 -0.0631522 2.18839
4316 1 8.98213 38.702 -6.45265 -1.28129 0.857404 1.96422
4317 1 3.88384 39.1202 -9.50662 -2.37577 4.29373 -0.640808
4318 1 5.1479 41.5597 -9.03492 2.51924 -4.54774 -2.80419
4319 1 7.67713 40.951 -10.19 -1.73566 2.29361 8.1052
4320 1 8.88612 38.7392 -9.10536 4.69975 6.54311 -5.68152
4321 1 4.65854 38.6586 2.35055 -4.51384 -0.372655 -4.96997
4322 1 5.94198 40.9293 1.13816 2.93359 -6.38984 -5.04326
4323 1 8.58224 41.3953 2.09715 -0.315216 -1.1956 4.26569
4324 1 8.91891 38.8286 0.72477 1.48597 -6.52508 1.29976
4325 1 4.35378 39.0865 -2.08076 -3.86993 -1.49185 -0.0690764
4326 1 6.14778 41.1304 -1.54237 0.0916238 0.237499 -6.41224
4327 1 8.64173 41.0064 -2.70558 2.85205 -1.18611 -2.28701
4328 1 9.30297 38.43 -1.98103 -0.5514 -2.39928 -1.41108
4329 1 5.69755 38.6404 9.75168 -3.21008 2.62301 4.59569
4330 1 7.04085 40.8782 8.75809 0.785828 -2.36658 0.563092
4331 1 9.86926 40.485 9.29788 5.52371 -2.87001 -3.27762
4332 1 10.3606 38.0821 8.03124 1.95137 -5.31332 -5.68146
4333 1 5.02737 38.7265 5.00147 0.0877735 1.23628 4.07893
4334 1 6.87664 40.6615 5.99334 3.73206 -0.697824 -0.760097
4335 1 9.31018 40.9998 4.57772 -4.6972 -0.264847 0.999583
4336 1 10.3484 38.2701 5.37215 0.826433 1.41042 0.0397518
4337 1 4.4343 43.6881 -4.89831 1.84355 -1.72682 -4.08296
4338 1 5.83343 44.9126 -7.17629 2.20015 4.44982 0.887934
4339 1 10.5983 45.2869 -6.14863 2.32268 0.710074 1.07814
4340 1 8.35741 43.7179 -6.40687 -4.95549 -0.762447 -6.29242
4341 1 3.7285 44.0275 -9.06853 -6.60107 -0.756828 -4.68881
4342 1 5.12814 45.3057 -11.2173 -0.0616513 -0.620175 -3.12291
4343 1 7.29994 45.6001 -9.6165 -3.48392 3.12721 4.16106
4344 1 9.03087 43.281 -9.14717 3.23725 -1.83715 3.08558
4345 1 5.08138 43.678 2.34949 5.77985 1.00583 5.7076
4346 1 5.85651 46.422 1.94274 0.0716997 2.74258 0.64054
4347 1 8.63038 46.3733 1.44034 -2.44719 3.9626 -6.97771
4348 1 9.38993 43.7047 0.765958 1.44226 0.00515845 -2.33499
4349 1 4.43191 43.0998 -1.98966 0.588611 -2.08395 0.301794
4350 1 6.3549 45.3497 -3.22674 -1.23113 -4.2314 2.37736
4351 1 9.1468 45.0381 -3.57836 -2.66265 -3.61412 6.07421
4352 1 10.1234 43.1185 -1.87729 5.04273 2.82322 3.26633
4353 1 6.10868 43.6633 9.73719 -0.329702 -3.65878 -2.97068
4354 1 7.98321 45.5433 8.6549 1.21723 -4.42492 -1.52504
4355 1 10.6773 44.907 8.77939 1.47269 -3.21675 2.24233
4356 1 11.5427 42.4157 8.45031 4.30906 -1.45757 -0.544851
4357 1 5.55327 42.9888 5.13418 -3.50493 -2.77902 1.43994
4358 1 7.44726 45.2008 5.96369 2.74896 -1.9866 -0.732509
4359 1 10.3362 45.2662 5.6898 1.78799 -2.29043 -1.39913
4360 1 11.1861 42.6167 5.64846 -2.43042 0.178295 -0.770317
