ITEM: TIMESTEP
9000
ITEM: NUMBER OF ATOMS
4360
ITEM: BOX BOUNDS pp pp pp
-2.4288110901998884e+01 2.3478946802061863e+01
-2.4323365858842486e+01 4.6839801458842480e+01
-2.3887628720195572e+01 2.3879427120258441e+01
ITEM: ATOMS id type x y z vx vy vz
1 1 22.5431 -21.5776 12.0239 -0.967186 -0.327932 -0.496104
2 1 -8.22985 16.4461 2.34121 2.56359 -1.70452 -2.20222
3 1 2.69248 -5.18973 -23.3745 2.8204 -6.52949 -3.64535
4 1 4.42388 -1.42145 -6.90723 -0.893099 -0.428274 3.81502
5 1 -17.8545 -22.7712 21.2607 2.62782 -2.39335 1.86499
6 1 0.604617 17.7905 19.7854 3.6375 2.67008 -3.45887
7 1 7.94685 20.9353 5.88573 -1.12718 0.903267 -2.27306
8 1 -22.913 -12.034 -15.7303 3.3438 2.15996 -4.89263
9 1 -9.22463 6.52891 5.15602 1.68423 0.474673 -1.68492
10 1 -1.9678 -8.25381 14.1494 0.926733 -0.748418 1.57605
11 1 10.6371 -9.95412 18.5225 3.93233 -1.7427 1.2796
12 1 20.4711 -7.12847 23.8294 2.87966 -3.12139 3.01848
13 1 -21.2206 -13.9403 13.0033 -2.00492 2.82656 2.7652
14 1 6.19872 2.2508 -10.1125 0.108838 -0.0825284 2.04346
15 1 -6.96767 0.729231 -11.7243 -2.04884 4.68279 2.78227
16 1 -17.727 2.24095 4.90855 3.99212 -0.20895 2.18628
17 1 17.8759 -4.82584 17.4053 0.757627 -2.55458 1.66874
18 1 21.5093 24.0888 3.18359 0.592158 -2.66761 -1.42627
19 1 -14.5145 25.3803 18.5469 -2.03551 3.21264 2.86071
20 1 20.7441 3.85112 20.2157 -2.62092 3.38217 4.68736
21 1 -19.431 2.54483 10.2345 2.93943 0.324843 -5.16989
22 1 -14.0865 -1.54782 -14.1834 7.01746 0.2473 4.37634
23 1 -7.56904 45.4223 20.4108 3.40023 -2.6817 4.55533
24 1 9.58924 18.4875 -4.85132 -2.26025 2.41515 0.894523
25 1 5.99373 25.8986 16.7042 -2.66378 2.3455 1.61904
26 1 2.61706 17.6915 9.88648 6.41623 -0.0666309 4.11341
27 1 -15.969 11.3852 -2.06822 -4.04054 0.759667 0.271709
28 1 -19.6943 10.5899 2.87712 2.82327 0.310714 -2.29095
29 1 -10.8438 -10.3713 -8.96298 -3.20142 2.44135 -2.75462
30 1 22.4604 -3.03401 -22.8229 3.46599 1.74919 3.30771
31 1 1.00193 -16.0037 -23.8034 -3.6508 0.889552 -0.729116
32 1 -7.97614 15.0433 -17.6887 7.48799 2.53982 1.24689
33 1 2.6541 1.01849 -13.2704 1.55444 0.62345 0.570059
34 1 -19.2738 -24.0019 14.745 -2.9466 4.55925 3.96969
35 1 18.8567 5.08616 11.8276 2.61155 -3.64697 -1.32808
36 1 -14.0313 17.9938 -14.0953 0.0752288 3.80147 0.211629
37 1 -10.9325 -6.46558 -1.37536 1.51132 4.20975 -2.28172
38 1 18.5792 9.74868 8.81498 -3.78412 0.904693 0.0767292
39 1 -3.36589 8.49735 -20.4054 1.07693 -2.47707 -3.71304
40 1 -2.94285 3.59859 -15.7077 1.70126 0.526409 3.60612
41 1 4.43077 -4.55598 -9.84308 1.2278 0.555833 0.481804
42 1 -18.6035 -14.9038 1.64651 2.03467 3.73387 4.9335
43 1 -13.4229 -5.4579 4.66967 1.5443 1.67967 2.7767
44 1 -3.23146 -17.6841 -10.5479 1.52489 -2.92203 -3.08207
45 1 -11.7352 16.8023 -4.6176 -2.3872 4.2721 -0.0397082
46 1 -21.2781 -21.1621 18.6322 3.51651 -0.498364 1.6966
47 1 -8.14473 7.13658 20.1192 -1.32776 -3.11189 -3.05237
48 1 8.11503 2.77536 -8.04414 -0.686954 0.481538 -2.07989
49 1 22.0342 11.9038 6.23302 -5.22428 -4.65344 1.55869
50 1 16.6428 -22.1223 11.5248 -4.31384 -3.18243 -1.69742
51 1 -11.2665 -0.213636 22.6057 3.4627 -3.32326 -3.58289
52 1 17.977 2.19296 -15.4846 -1.59123 -2.27509 -0.803629
53 1 -4.44405 22.442 8.15705 -3.59837 0.583222 -0.80258
54 1 -20.0286 -9.11836 -10.4491 0.73308 -1.16371 2.7616
55 1 -5.28551 -5.50278 -16.0121 1.52595 1.693 0.00625641
56 1 -14.2688 6.07797 2.97728 1.64132 0.769163 0.945825
57 1 -16.2694 -9.92103 -2.41143 -1.60869 2.91469 4.24986
58 1 5.97973 -20.2314 -4.23631 2.32804 2.31995 1.1886
59 1 -22.6598 13.4381 18.4305 -0.530292 -1.81164 -2.1785
60 1 1.95043 14.8699 -20.5741 4.59483 2.27828 -1.80658
61 1 -15.8378 1.41017 1.49527 -1.32272 -3.23459 -2.55832
62 1 -3.78815 -10.1178 16.6718 1.43705 -6.56965 2.66129
63 1 1.58536 10.7263 -17.3342 4.0807 1.47376 5.53048
64 1 -12.2644 1.4945 1.65532 0.564961 -3.73365 0.528242
65 1 18.3311 -0.868601 9.00325 -1.2735 -1.39917 1.62432
66 1 -9.54663 -16.4051 -12.1844 2.51507 -1.37008 0.153349
67 1 -15.1436 23.1443 -10.8177 -4.20289 -0.512318 1.63833
68 1 -2.88813 14.7285 -20.2344 2.17246 -2.96923 3.91656
69 1 -5.35067 14.5675 8.25251 -3.12643 1.15971 -1.20716
70 1 -18.5762 17.1773 -14.4979 -0.248642 -0.722961 -1.42621
71 1 -10.0672 5.78888 0.278845 2.11059 -2.31187 -0.320239
72 1 22.9951 15.0952 18.5659 -2.09742 -2.13877 0.420602
73 1 -10.9509 -18.7453 13.7526 0.664126 1.75905 -1.76477
74 1 -0.513762 11.3533 -15.6388 4.52421 0.863442 0.25
75 1 -19.4304 1.34039 -10.7642 1.77512 2.98498 1.29482
76 1 22.5033 -7.7038 1.36366 0.589197 -1.21287 2.55168
77 1 15.175 -22.9681 -1.59625 2.95718 1.95383 -0.766658
78 1 -16.8459 12.7576 -7.01795 -2.92826 -7.0472 -1.23082
79 1 22.0516 -1.67842 -15.9623 2.31986 3.60313 -2.14756
80 1 -14.1045 16.8287 -10.1054 -0.0885222 -1.54898 -1.75754
81 1 1.60917 -14.8123 -17.6416 -1.45908 -4.34839 2.74485
82 1 4.00692 -22.3669 4.75469 3.45708 -5.2376 2.38463
83 1 -19.8104 13.8119 0.526151 -2.7305 3.99108 0.119978
84 1 18.5912 21.8908 20.424 -0.124156 -0.284067 -3.4242
85 1 5.908 12.576 -4.78388 -4.94474 -2.70455 4.45601
86 1 12.9443 8.72626 13.2323 -3.27758 -2.05937 -1.68317
87 1 -4.26244 19.3287 -4.09062 2.58732 1.49547 -1.5619
88 1 -10.9279 23.3337 -16.9921 2.61466 0.432875 -0.885571
89 1 -9.92844 -3.79873 -23.7061 2.18686 -0.570795 -2.71171
90 1 7.39754 -4.68274 7.19195 1.76572 4.8224 0.194348
91 1 16.0584 20.4334 -19.4259 -4.27597 4.46753 0.759937
92 1 17.641 45.4104 -0.816205 2.6243 -2.3216 1.94487
93 1 -17.4425 -24.3173 17.1591 1.94952 -3.21093 4.28405
94 1 23.2866 2.94358 -9.78059 -0.350301 2.37091 4.40844
95 1 -1.78091 -3.81246 -11.7509 -3.09828 3.10911 -4.5603
96 1 -21.1966 -17.5349 20.8912 4.66485 -1.91123 -2.03058
97 1 -7.40938 -17.581 23.2519 -0.420897 -2.74725 1.64792
98 1 -0.920891 17.9218 10.1683 -3.54813 -5.44648 1.67215
99 1 16.5173 -21.94 -5.94346 -2.70263 0.914597 2.08357
100 1 22.9989 -16.6919 -23.3588 -3.25352 -4.17689 -2.99304
101 1 2.28333 -23.7827 -13.3933 0.732052 4.17669 -5.50734
102 1 3.50872 4.36434 6.37857 -1.96082 0.522521 -5.1144
103 1 17.7838 22.5993 17.8532 -2.7604 0.0199189 -2.01269
104 1 -16.1126 46.6555 -10.4553 2.07654 2.79621 2.68306
105 1 5.29325 18.1738 -19.6938 -2.688 3.30629 1.47782
106 1 13.3644 3.54565 7.3929 -0.712455 -0.0528681 1.36494
107 1 20.9213 -4.60271 12.2007 1.90153 -3.56958 -0.378956
108 1 -12.3088 3.99921 -23.2696 -5.07158 0.451549 -2.44693
109 1 -13.7223 15.3306 -13.0451 3.31661 -1.8881 4.45568
110 1 10.8388 -10.9018 -8.3578 -1.66777 3.77483 -0.388111
111 1 19.7419 -3.92193 -12.6734 2.90278 5.59736 5.57741
112 1 -19.1512 2.51386 -22.3476 -0.736077 -3.7075 1.21962
113 1 -5.46311 -5.33277 18.666 -2.2153 0.488027 2.07398
114 1 -24.0909 -20.2213 17.1207 3.53626 5.50812 -1.7479
115 1 8.74399 10.3842 5.20521 -7.27481 -2.54314 0.789209
116 1 3.8468 -15.3131 -19.2236 -4.3107 -3.33472 -3.81255
117 1 20.1126 15.744 -18.2249 1.3383 4.40052 -3.88864
118 1 7.14456 -17.6739 -8.56636 -2.10597 3.21907 -1.71815
119 1 14.3655 8.86375 -8.13415 -0.467979 -0.76989 0.0855137
120 1 0.76107 -6.33168 16.7005 -2.90416 0.753191 -1.45018
121 1 -6.059 -20.1645 21.9931 -0.179146 0.0472231 0.890836
122 1 -10.827 6.12601 22.9356 2.22736 1.9094 2.62756
123 1 9.36246 16.8932 5.54471 -2.13554 0.350853 3.76368
124 1 22.9844 -22.814 -16.1621 -1.33584 4.99219 0.799473
125 1 13.5025 9.42948 0.34745 3.02623 1.63848 -3.35371
126 1 -10.6802 3.05626 -7.25443 1.63919 -0.5256 -2.86594
127 1 10.24 -2.10059 14.6659 3.60422 0.691893 -0.259917
128 1 -22.4978 -1.00417 -9.7982 -5.26292 -1.60991 -2.83866
129 1 14.2023 -10.3988 5.80713 2.17565 6.14996 -0.234268
130 1 -12.7462 16.6464 -18.6949 -3.92911 -0.0706654 -1.63704
131 1 4.41021 -8.9048 -21.2082 -4.51907 -2.95499 -0.882662
132 1 -8.66424 -2.23769 -20.8394 -1.89762 2.53431 -2.19323
133 1 -12.8295 0.883742 15.4547 -0.566966 -1.44505 -0.552969
134 1 18.7198 -9.29289 20.7111 -1.26734 -2.91255 0.659081
135 1 -16.761 -5.7418 -17.2602 -2.87865 2.39881 -0.460824
136 1 -1.52163 5.74916 -4.54543 0.289321 -1.48728 -1.89377
137 1 -12.8279 2.71784 -12.9964 -4.96305 5.04442 3.14272
138 1 10.1017 19.2585 8.70274 -7.73284 -1.89613 -1.67923
139 1 -18.546 -21.724 -15.2814 -0.774397 -2.62537 -4.99591
140 1 3.42803 -7.7785 18.7992 1.52527 0.817111 2.84431
141 1 12.2299 -18.3923 3.07963 -2.40869 0.958846 -3.86579
142 1 11.8608 3.25156 23.4697 3.55618 -3.77489 1.01501
143 1 -6.82558 -2.57494 -4.64328 2.70761 -1.11259 1.21045
144 1 -22.4388 -9.33178 -15.7905 2.23346 0.24268 2.63341
145 1 16.4382 6.04816 17.7097 0.463756 3.04023 3.3124
146 1 -11.4069 -9.16979 13.5655 -2.48971 2.03902 5.11076
147 1 12.2592 21.8403 4.69779 0.960559 0.738462 3.4032
148 1 -18.4737 14.9903 11.3513 0.281537 6.62736 0.599059
149 1 -16.6556 44.887 -21.1813 -2.26222 1.43496 5.17025
150 1 18.7534 8.44006 20.6092 0.721266 -0.18286 -2.40676
151 1 19.909 2.06618 22.5285 6.21246 -2.5615 -4.74904
152 1 -7.34594 0.245504 20.0024 2.54214 0.599785 0.509219
153 1 9.25703 -14.2415 -3.35636 1.98818 -0.360255 -0.112984
154 1 -7.94678 23.6301 -8.54952 2.2719 -2.3463 -0.15743
155 1 -23.1749 -22.066 -20.4172 -3.19931 -0.455565 -0.967643
156 1 16.3357 10.202 17.2949 -0.830856 3.14521 -3.52648
157 1 13.5225 -12.8392 -16.5563 2.57322 -1.81555 3.03948
158 1 9.38305 6.90524 3.83394 5.33285 4.41132 3.31758
159 1 -22.3277 -9.94097 12.7146 -0.688254 3.0754 -2.65358
160 1 -6.60486 -15.2918 -3.71211 0.296901 -0.140429 -0.122891
161 1 20.0397 3.58442 -17.1754 4.78378 4.65836 -3.13428
162 1 -17.458 -8.8639 20.1556 -1.08618 -5.20548 5.24782
163 1 1.56746 2.21979 19.7527 -2.40303 -5.53746 -3.12917
164 1 16.6963 7.39144 12.7502 -0.0370811 3.05176 3.31013
165 1 -18.2964 12.6775 17.2673 -3.11949 2.92013 1.78513
166 1 8.33647 20.7645 -21.7607 -0.503575 -6.66485 -3.46761
167 1 -12.6672 -0.212831 -3.14471 2.7004 4.71081 -6.11535
168 1 19.578 25.5644 -3.54404 -2.81438 -6.26727 -0.0711481
169 1 5.7009 23.6435 -12.9293 -4.675 0.196287 -0.31714
170 1 -4.44277 -19.398 -15.395 -3.16799 -4.91393 -0.72512
171 1 -14.0603 3.48408 15.4577 -0.919052 3.2274 -1.55043
172 1 -18.401 22.4147 -18.3282 2.23818 -0.303046 -1.86878
173 1 -22.0175 0.980117 21.5889 3.72149 -2.06965 1.95204
174 1 -20.6062 7.02712 -23.4094 0.730711 3.11824 -0.244338
175 1 10.8293 16.242 7.92829 -5.85858 -0.0401564 -1.73853
176 1 -5.46647 23.0361 -2.3298 1.82438 1.00911 0.0135539
177 1 -4.24998 -21.7288 10.6467 0.379194 0.327162 0.0791655
178 1 -16.7207 11.6596 6.92926 -0.542215 5.93822 1.26282
179 1 -5.25379 -6.60356 -10.1398 -2.4912 4.92027 -1.98769
180 1 22.1709 20.1519 10.5435 -0.120751 -0.0460601 3.70992
181 1 -5.16277 -6.34691 -18.8903 -0.0671011 1.14761 -0.546895
182 1 -22.101 -1.14193 16.6342 0.207993 -0.866648 -1.79241
183 1 21.0995 14.2647 -3.06017 0.622269 -4.86789 3.09136
184 1 6.40113 46.7917 23.6767 -2.40485 3.28115 -2.29827
185 1 21.8374 24.0412 15.9275 -2.53462 -0.248521 1.90934
186 1 14.5918 22.4024 -9.64153 -3.16825 2.81919 -0.578952
187 1 -11.171 10.5794 -6.89728 6.43619 0.362097 3.74225
188 1 7.49613 -21.2686 -6.86883 -2.12729 -3.00323 2.42312
189 1 -2.46873 -3.66399 3.35279 1.16386 3.41009 2.45518
190 1 -15.4767 10.5089 -13.1247 1.97715 -0.483734 3.71369
191 1 5.20739 -3.84536 -22.1696 -0.374365 1.45266 2.54156
192 1 9.06857 5.11203 -2.91311 3.64832 3.97916 2.38441
193 1 11.0237 -2.0375 2.9033 -2.50014 0.394624 -2.07467
194 1 0.850518 25.3991 -20.8699 1.90106 -0.140914 -1.08931
195 1 4.59302 0.0246293 -9.3968 4.20781 1.73858 4.80147
196 1 -18.8816 24.4021 8.35294 -2.23633 1.31865 -3.60063
197 1 -23.2807 -3.54664 22.8002 2.18743 1.51403 1.60646
198 1 -8.34918 -22.6114 -18.952 -3.58568 4.31817 0.766648
199 1 -23.844 -3.9089 -16.1147 -1.63402 -5.83666 -2.54662
200 1 15.6927 6.14611 -16.7092 2.78311 -2.39955 1.85666
201 1 7.07926 2.45958 23.6022 -2.62514 -2.49234 -0.741549
202 1 11.2104 15.4064 10.5802 -0.0281419 0.00725619 5.08308
203 1 -23.836 19.432 8.10352 -0.719543 1.67529 0.944529
204 1 -7.18806 -13.9617 -8.99535 3.97909 3.42438 -1.61804
205 1 17.6039 -6.61594 9.51172 -2.7459 -0.415223 -2.47041
206 1 -4.15507 -12.1224 -14.6164 -4.33352 1.77871 -0.0267636
207 1 -6.46595 9.72301 23.7324 2.4432 0.978664 -1.57379
208 1 2.18612 -8.34082 14.9092 5.9781 3.95924 1.91277
209 1 -4.7182 17.4168 -17.1651 -1.18229 -2.06221 2.71743
210 1 -18.2517 12.9133 -1.69305 -4.00729 0.762713 1.25805
211 1 15.9454 1.83608 6.49414 -1.49188 -0.616438 1.78971
212 1 -16.4544 24.693 -3.97277 0.427226 4.04589 6.31073
213 1 -23.3163 -21.38 -2.3548 -1.65138 -0.583455 2.00194
214 1 17.5277 -4.09387 -22.1004 -3.76111 -1.89243 2.28446
215 1 7.60158 23.6815 16.2738 1.37393 2.61883 -3.25552
216 1 -17.3387 46.6772 9.76929 -3.14222 -1.40568 -0.0486933
217 1 3.38359 22.126 5.38972 -3.41768 -3.89171 6.68727
218 1 14.4466 3.02953 -3.49856 2.32908 -1.98768 -4.21149
219 1 -6.47393 24.1201 22.9981 3.26179 -0.101012 -4.97369
220 1 2.47387 22.3645 15.1012 2.72358 2.98591 3.6972
221 1 -17.62 2.01745 -2.1021 1.79864 -0.61559 -1.82993
222 1 -10.6292 -6.05736 1.74102 -2.06421 -3.76088 -1.40685
223 1 -23.4988 -5.91863 0.0244933 -2.777 -4.77302 0.0105044
224 1 -13.9669 -3.86106 -21.8173 2.60289 4.3687 -0.932378
225 1 1.64728 -13.0622 -6.68308 1.68736 -6.89782 -6.08259
226 1 -24.0042 18.8455 -12.6412 1.9839 -0.316233 2.45251
227 1 15.3659 16.2806 2.86554 1.1932 -0.0783132 -6.04239
228 1 -10.6047 19.6251 1.34743 -1.53003 -3.22657 6.32199
229 1 11.294 9.58343 -11.1753 -2.94452 2.61883 -2.95879
230 1 -9.17077 15.0937 19.8542 -3.982 1.95366 -2.81037
231 1 -22.6645 -4.72342 -22.3093 2.40463 -2.03545 0.661331
232 1 -2.35936 -15.0151 11.4503 5.68783 -1.62069 -3.25659
233 1 -10.1919 17.054 11.7337 -0.386086 0.364883 1.66251
234 1 -6.78254 19.1798 8.97943 7.58493 7.98531 0.975482
235 1 22.9238 -2.56151 -10.326 -1.85976 3.84051 4.41204
236 1 15.9366 -7.26446 11.7925 -5.6838 1.67226 1.57157
237 1 -17.8745 20.8342 0.658601 -0.285719 -2.15844 -4.71006
238 1 17.1484 -1.69794 -23.6995 -4.77905 -0.993464 1.19289
239 1 -20.7827 18.3904 16.3238 -2.05209 -3.12318 2.87227
240 1 11.8715 0.0933975 16.2301 -1.56799 -0.0760367 -1.3214
241 1 -23.9139 -12.4048 9.64872 -0.40152 -1.77064 3.90823
242 1 -8.89563 -4.15074 -13.7922 0.118103 1.92496 0.980187
243 1 -7.0959 -8.93644 11.4274 2.9854 -1.72465 2.35371
244 1 -20.3226 13.7073 -23.8906 -3.06147 1.24204 -0.91055
245 1 -12.4472 25.8036 -12.6903 1.40077 3.93831 -2.98432
246 1 10.8659 3.74563 20.8158 3.17627 2.2023 5.53218
247 1 -24.1325 -6.99784 13.8465 -0.0694663 -3.59469 2.30365
248 1 -17.5847 10.7287 -11.069 1.8142 1.2684 -0.526323
249 1 -0.58285 -18.7646 10.2728 -1.07526 1.17071 4.97941
250 1 0.0132763 -2.26057 7.07911 -2.7095 -2.71037 1.21039
251 1 -21.557 -1.76349 -21.4189 3.1057 -2.38692 2.11596
252 1 18.0907 16.9156 -10.614 -2.06619 1.36526 -1.21802
253 1 0.305643 -3.18093 -23.143 2.36865 -2.87045 -1.60145
254 1 6.18719 -10.7306 -9.55463 3.90339 -1.18517 1.65933
255 1 -23.8762 -22.2239 9.58206 -0.826151 2.42924 -0.273095
256 1 -11.9241 -5.52405 -12.2631 3.65345 3.64429 -3.65691
257 1 -1.87112 3.47111 -18.4109 -0.380449 -5.94501 -0.575781
258 1 -7.30534 0.347896 -4.89028 -3.95296 -1.06756 6.74505
259 1 14.9384 -19.2696 -23.0558 -3.38593 5.01344 -0.0657304
260 1 11.8047 5.10234 -8.03873 -8.58122 -0.388886 1.55169
261 1 -2.25011 -23.5372 11.8229 0.438886 -1.31697 -2.77781
262 1 17.1896 22.5379 10.237 0.866636 0.897413 -0.990877
263 1 -20.1136 9.10883 -11.0413 -1.70344 4.68699 -2.41305
264 1 17.5534 0.981126 14.8414 -2.39307 -3.62508 -3.442
265 1 15.2436 -18.5924 -9.11292 1.16736 -4.40429 -2.9696
266 1 22.4353 5.3078 -16.6396 0.660309 -3.45394 -4.12543
267 1 -11.1561 20.6357 -10.2779 2.59516 -4.60866 -3.49806
268 1 -20.8461 23.3516 -10.7229 1.93883 -0.286548 0.35249
269 1 -20.1498 -8.42206 -13.2897 -1.66935 2.36937 -2.34018
270 1 -21.8039 -17.5732 14.1989 1.51291 1.28846 2.1828
271 1 2.63355 23.7787 -11.8957 -2.20389 -1.77637 -3.19222
272 1 12.4368 -17.4958 10.5288 3.38303 -1.89661 3.24117
273 1 -18.6602 -8.63959 13.3534 1.4643 -1.45115 -4.56007
274 1 11.7495 -14.8998 10.8966 4.22764 -1.03276 -0.376431
275 1 12.9534 24.5202 -22.5207 -0.652533 0.329941 1.4433
276 1 22.3888 7.49187 -5.3781 -0.119413 -1.63991 2.86203
277 1 11.5107 -14.0633 -18.0042 -2.51691 -1.46226 -2.41233
278 1 19.2096 10.0566 18.1332 1.1344 -1.43806 2.57307
279 1 -23.2752 -1.17404 1.35989 2.8232 -1.38592 -0.142778
280 1 -1.66449 -21.7684 -14.9364 0.228273 -4.74547 -1.04447
281 1 13.2943 23.8154 11.2642 2.20787 -0.176679 7.23018
282 1 11.1529 12.5935 11.3685 0.298533 1.1597 -0.702566
283 1 -3.33452 45.6593 -23.3374 -1.56446 -2.15954 0.783919
284 1 3.33903 13.8595 1.23253 0.549139 -0.822192 1.27488
285 1 -13.7933 20.4564 13.2001 2.63983 -3.76137 -2.53835
286 1 -5.6695 17.0055 1.19365 -0.20005 4.34299 -3.34961
287 1 2.15715 -8.17296 -7.5786 -2.36242 -2.04922 -4.12621
288 1 16.173 25.345 4.92006 1.76987 -0.518219 1.41604
289 1 -8.83637 -22.389 11.089 2.8583 4.52343 4.8612
290 1 -9.06167 -10.0832 -16.7745 5.13633 -2.76071 4.07227
291 1 -14.2592 -18.3894 12.5345 -1.00945 -0.0306858 -0.223725
292 1 14.5339 7.06736 1.05522 3.07101 -1.90686 -1.87171
293 1 13.903 1.88879 10.8835 -3.11408 -3.88948 -5.15052
294 1 -6.74152 1.42152 1.61358 -3.12941 -3.99661 4.88398
295 1 0.550607 9.92459 9.64229 2.50343 1.40997 1.98409
296 1 1.31055 14.2225 -2.08234 1.84302 1.09764 -1.61746
297 1 14.8068 -4.48942 -4.44958 -3.46838 2.30928 -3.42113
298 1 17.7274 -18.4318 -22.1604 3.43951 0.263659 -3.70249
299 1 6.10455 46.3024 -16.408 1.47044 -0.164499 3.37888
300 1 19.8549 -4.68157 20.4766 2.64025 -1.99599 3.94948
301 1 -6.64069 23.5065 -18.9521 -2.17887 -1.54332 0.283727
302 1 -1.39751 11.6467 -0.959698 -5.29575 2.1387 0.922399
303 1 -18.371 -16.3434 -9.91183 4.19105 -1.46193 0.718212
304 1 -19.441 -16.2247 13.0837 3.63342 1.78734 -3.38487
305 1 4.4766 -17.599 19.4778 1.87683 -0.513154 -0.594676
306 1 13.3449 20.1195 -10.6668 2.23513 1.50346 1.22974
307 1 13.0663 12.2102 -23.1833 -3.2745 1.60199 -2.6088
308 1 -15.7036 -19.2775 2.13052 9.01746 -3.14405 -1.45385
309 1 5.85008 -20.7616 18.6106 -5.15968 -1.46666 -3.61204
310 1 1.80505 15.0779 13.8651 -1.92728 -3.46983 -3.6441
311 1 11.7964 -10.8716 1.17984 1.45424 4.64287 0.895594
312 1 -6.96798 1.95324 -9.18846 5.45625 -1.48033 -3.44245
313 1 -15.7462 -16.3928 -8.56491 -1.40843 3.18273 -0.534563
314 1 -15.6194 5.92625 -6.45201 0.234945 -1.77675 1.19013
315 1 -14.9656 -22.0374 1.80888 2.42501 -1.42599 -0.759932
316 1 22.7397 -7.2606 4.34603 -0.720479 -2.5627 -1.82007
317 1 -11.7288 -11.7486 22.8457 -0.152766 -5.74549 1.35949
318 1 18.901 -20.7722 18.9134 2.27695 -1.00655 -1.1213
319 1 -12.9695 3.33499 12.3091 -1.4948 0.346795 -2.22083
320 1 -1.29807 1.63016 8.72924 -1.13875 -2.83748 3.20543
321 1 -18.1019 -11.6514 -12.4731 4.55234 -1.81999 1.81294
322 1 -12.6254 14.3819 -0.583843 6.13358 -1.14191 1.96531
323 1 -13.8924 6.01981 5.92662 -0.682877 -0.0600107 -2.97705
324 1 21.5102 1.30985 2.28044 -4.80737 -1.58826 -0.818023
325 1 -0.351356 -20.4846 17.5104 2.29149 -1.50198 1.71772
326 1 -18.8552 7.88063 1.94964 0.0799825 -0.0500029 -9.34293
327 1 -9.52555 -9.03734 20.3865 3.39442 0.383236 -2.23509
328 1 10.5641 21.9807 14.4481 -3.20777 2.032 0.667361
329 1 0.451577 2.1906 -9.97794 -1.25254 0.24973 -4.1823
330 1 -12.023 -23.3577 21.5878 -4.7667 -1.77187 1.75133
331 1 14.1142 7.41439 3.71762 -0.673693 -5.33511 3.6133
332 1 7.25127 -1.63661 -7.3548 4.42205 -0.122392 -1.06173
333 1 7.30704 -11.1292 -14.064 1.2987 -2.26623 -3.97693
334 1 4.67212 -23.4761 -3.31199 -4.63116 -0.239374 1.10899
335 1 23.1403 46.1423 4.30552 -1.9365 3.98416 0.529461
336 1 18.3552 17.7006 -21.8644 -3.39408 4.6977 5.4869
337 1 -19.2829 20.631 3.21524 -2.35665 -1.40757 -1.74401
338 1 7.57475 -8.59369 15.2235 2.7948 -4.57577 4.66841
339 1 -3.39311 -20.4054 -23.5348 2.20855 -1.94098 4.75038
340 1 -15.8952 1.18257 -17.7761 -0.307756 -0.588965 -2.37282
341 1 -12.573 1.38332 -10.2621 1.53291 4.40182 1.75428
342 1 -0.148484 -17.5043 -14.089 4.51005 1.08262 5.92854
343 1 -3.68565 -14.06 -7.7357 1.62224 1.62612 4.25851
344 1 10.1971 -18.5134 -11.1513 -1.54895 -0.0765679 -5.5819
345 1 -10.1024 -1.097 19.845 -2.49588 -0.627605 3.23355
346 1 16.3291 3.84393 4.34303 -0.530485 2.26414 1.40066
347 1 21.1082 -8.48787 8.31689 1.10976 -0.393034 1.14535
348 1 -12.6122 -1.69246 9.78061 -0.470043 -4.58341 3.99803
349 1 -4.19714 12.8614 -23.6478 -2.13362 -2.92221 6.52734
350 1 -23.2787 20.5565 21.7096 1.92389 1.60449 1.33129
351 1 -13.9987 5.05894 8.92859 0.0791851 -6.20717 -0.667458
352 1 13.2844 4.30168 0.439343 3.66322 0.58503 0.280119
353 1 18.9236 -23.1737 -16.1752 -1.95405 -3.33627 2.67416
354 1 7.52163 22.9076 -10.5209 3.78878 -0.499008 -2.41942
355 1 -5.3694 -0.0455861 8.34957 4.57728 2.41793 2.23267
356 1 -2.42406 -18.0713 23.3463 5.79628 -0.154899 -2.32117
357 1 -5.58498 -15.3095 1.96037 -1.64441 -1.58129 -2.17989
358 1 17.1783 -14.1908 9.18935 -0.0955533 -1.29476 5.02001
359 1 -15.1676 -18.8433 -12.1418 6.41349 -3.84734 2.47828
360 1 3.80546 15.2046 -1.26548 -0.679505 -5.55629 -1.28461
361 1 -22.4706 -22.2679 -5.90073 -0.334771 2.15117 -1.47867
362 1 -19.5113 13.0102 7.30039 0.196741 1.03104 2.21168
363 1 -18.2628 -20.1134 7.7529 1.33453 4.1087 -1.46537
364 1 -10.3629 7.61056 -6.63304 0.290816 -4.78325 0.0493632
365 1 1.13408 -17.3159 17.0972 -2.94948 2.71664 -2.8459
366 1 -22.1518 1.47556 -10.9428 3.57205 -3.50544 -2.11266
367 1 4.25122 16.2631 -14.7891 1.2595 -1.70368 0.714748
368 1 3.56623 -5.85567 11.7841 1.96322 -0.0409611 -3.84162
369 1 14.2585 5.44771 -14.0724 -0.551389 -4.14788 5.42931
370 1 1.10699 -12.6735 22.6538 0.779876 0.153369 -2.83778
371 1 -10.7378 -23.8713 17.5053 1.48616 2.17282 -0.647628
372 1 -7.65197 24.4398 9.04867 -3.18063 1.26092 1.43274
373 1 -15.5825 5.71319 22.3862 3.11902 2.79908 -1.96415
374 1 -5.29653 19.2798 -12.1257 3.53464 -4.65561 3.77136
375 1 -22.2141 -6.32626 22.8703 -3.56029 0.416853 -1.37239
376 1 -8.27255 -10.1705 -11.9273 0.266538 0.849881 -3.69509
377 1 13.5479 0.744114 8.10143 0.90457 0.886305 0.749369
378 1 17.5401 -14.592 -4.00413 3.26591 0.296426 -2.90579
379 1 22.273 23.6714 0.29859 4.43076 2.461 -1.21832
380 1 8.71832 17.3548 -18.054 0.315266 0.489045 1.52176
381 1 -22.3253 -14.9969 15.4458 -2.95183 4.01373 -0.413604
382 1 12.8807 14.8293 -3.23842 -1.16102 -1.93047 1.35844
383 1 11.9474 -24.1476 6.23451 0.161787 -4.43169 1.26795
384 1 -9.52504 11.7808 -8.94497 -0.165726 -1.15012 -1.31722
385 1 -7.04941 4.67769 19.5392 -1.75355 -4.27953 -2.57988
386 1 18.6543 -3.74622 -17.5295 0.521962 3.14793 -2.35644
387 1 5.46792 -19.0765 -1.04363 -2.13087 3.27032 -2.35019
388 1 -18.6919 46.7071 23.6649 0.3329 2.83429 0.704988
389 1 -13.8456 8.15085 8.83787 -2.3662 -1.66842 3.33867
390 1 12.2438 7.33286 6.98003 -5.2274 4.29718 1.73639
391 1 16.3065 0.347397 17.5105 -0.0245548 1.30399 -3.78645
392 1 20.3253 -12.2452 15.8141 1.46316 -1.28025 2.29602
393 1 -11.1924 -17.4177 -14.4193 -0.876589 -0.185424 -2.06988
394 1 -11.0858 13.115 -5.42255 0.658844 1.93975 0.533477
395 1 -8.92048 45.4707 17.9857 4.22729 1.86926 -0.701184
396 1 11.19 -21.1948 -0.57361 3.09041 2.72814 0.977465
397 1 4.66262 -21.8801 16.1339 2.38773 -5.77529 2.97889
398 1 -21.7105 -22.9241 -8.80911 -0.0138968 0.296553 0.0593249
399 1 11.9779 13.9866 0.177114 -0.686158 1.04044 -0.316441
400 1 -21.0978 -18.0292 -4.35264 -0.861915 2.24268 -0.186401
401 1 -23.7457 -17.5487 -5.12486 -0.236821 3.3616 0.527181
402 1 -0.806873 9.30458 -21.9036 5.42685 -0.00942955 -1.30427
403 1 14.2984 -1.5379 -23.3754 1.42936 1.76553 -1.14357
404 1 -14.0268 0.075066 3.51253 5.81129 0.755322 0.690194
405 1 5.84302 -23.7731 -7.11476 -3.24172 -0.785269 -0.686857
406 1 -8.94422 -22.0532 -23.3104 -3.59073 -1.62845 -5.54765
407 1 2.8105 -10.0902 17.242 8.21156 -0.89737 -1.60754
408 1 -3.33228 0.538473 -15.2307 -3.44828 0.660383 -2.99129
409 1 0.719261 1.80177 -5.64 -5.07676 -2.42924 1.5622
410 1 -12.4287 11.2454 2.13685 -4.18656 0.32252 2.46804
411 1 -2.81231 -1.30291 -5.61249 2.80618 -2.09853 -1.62706
412 1 -18.5951 -4.91062 9.11178 -3.71302 2.5875 6.57112
413 1 -23.6445 23.3125 -1.59037 -0.345789 -2.12821 0.661584
414 1 6.04144 16.6508 -11.5692 -3.86064 2.26075 0.308459
415 1 -18.5352 8.12983 -7.55636 -6.87535 -2.36106 5.12885
416 1 -23.7382 1.05296 11.34 -3.25515 -5.21549 4.75676
417 1 -12.533 2.76338 9.68407 6.12067 -3.03184 7.56026
418 1 22.4375 20.9634 6.0708 -2.01856 -3.11223 0.0427095
419 1 -23.6179 3.94792 22.8111 -0.204297 1.8845 2.85473
420 1 -3.06958 -2.99347 12.3327 -1.12115 -2.58983 -0.279796
421 1 -13.75 45.8234 -16.9837 -0.300196 2.69659 5.91981
422 1 -3.47881 18.9656 -20.6806 0.610033 0.714637 -0.891013
423 1 -8.6681 3.18263 3.13345 3.19962 -4.31849 5.71568
424 1 6.31613 -6.55831 0.000358044 -0.59269 0.0328602 3.17065
425 1 -21.4778 14.9071 16.366 -3.18256 4.96535 2.96949
426 1 -17.1899 -1.76634 -9.32573 0.632172 1.54043 0.719245
427 1 -14.1009 46.5905 20.2115 -3.06417 -5.89693 0.575507
428 1 9.71735 11.92 -9.04889 -5.86323 -0.452435 4.10144
429 1 -9.79509 9.52602 -15.6176 -1.24093 -2.4547 -0.377388
430 1 -21.61 -1.22051 23.3108 -3.45179 3.16384 0.0722561
431 1 6.11504 -6.86874 -14.9405 3.19391 -3.51159 -1.88071
432 1 5.49456 -4.9977 13.9791 -0.0418733 -5.35067 -0.90438
433 1 -20.8431 2.35424 -16.8462 -2.21334 1.034 -1.35265
434 1 -13.2131 -3.69487 -10.0778 2.07882 -0.660666 3.128
435 1 0.933843 22.9522 6.75204 2.88241 0.500635 -0.00331127
436 1 -13.5497 -11.3116 -8.69338 -2.0463 0.0371449 1.69692
437 1 19.0788 18.1223 -6.10429 -3.49575 3.36269 -2.83288
438 1 -17.9171 6.66924 -4.84897 3.18545 5.57482 -2.3587
439 1 -4.26096 21.2112 -6.17154 -1.93075 -4.10014 -1.81224
440 1 -8.57467 12.9563 -15.1634 -2.83234 -2.80979 4.0972
441 1 19.0911 0.818708 -6.59939 -0.499506 -0.0550148 0.579597
442 1 4.23558 3.00949 15.2788 1.4957 5.32506 -2.3307
443 1 19.8808 24.3117 13.7149 0.478728 -1.19349 -1.43267
444 1 -20.4561 7.63286 -18.2695 -0.314113 -2.48792 0.955584
445 1 14.4885 -10.8369 -13.4712 0.394633 6.39567 1.75945
446 1 22.2559 -15.207 -5.34831 2.43169 3.6823 -1.19592
447 1 5.59117 22.4065 14.3528 4.05834 0.367968 6.58819
448 1 -13.3268 -0.358884 13.0423 0.133772 1.96278 -4.01672
449 1 12.1023 -6.97462 0.891159 4.81722 1.4495 -0.640114
450 1 14.6517 -21.879 6.64355 -3.30215 -0.945356 1.79062
451 1 -21.8297 -11.9582 -20.8871 1.41384 -3.50808 3.80577
452 1 22.407 14.8595 3.20027 2.49494 -2.84265 -6.04947
453 1 -16.8335 17.0948 10.1895 -0.446944 -4.64149 -8.79526
454 1 -7.55763 -4.71143 -17.6988 3.1494 0.865651 -2.31317
455 1 13.237 -8.44808 18.7746 -1.57571 -2.28293 -0.65354
456 1 -3.99589 18.1603 -23.4757 -3.62043 -1.91206 -2.11501
457 1 7.67305 21.4445 18.443 0.534086 -5.65026 -5.23889
458 1 21.2994 21.0726 16.0873 2.11728 -1.26313 -1.03257
459 1 -1.99287 7.30223 -17.2108 0.365134 2.93864 0.789372
460 1 3.57979 8.19211 -23.1115 -2.14216 0.187657 -0.191963
461 1 1.42238 -0.820001 -16.633 0.489551 -0.233051 -1.8658
462 1 -3.99667 -18.9171 19.4154 -0.308431 -1.70832 4.82889
463 1 8.0238 13.1385 12.6324 3.21302 -3.19369 2.37221
464 1 -14.847 -22.6074 4.46021 -5.51271 3.91281 0.0262334
465 1 -1.38127 -13.1494 5.34888 -1.96154 -2.98452 -1.08148
466 1 13.5572 12.7719 -18.6723 5.14026 -0.0635395 0.659375
467 1 -7.53638 -11.5541 12.5606 -1.46734 -5.57927 -3.41733
468 1 20.7048 16.8414 -8.10844 0.193302 1.63279 -1.09591
469 1 -23.8322 -13.867 12.0569 -2.46309 -5.60247 -0.73246
470 1 -20.3943 5.98087 -14.3121 3.85257 -0.921395 0.176492
471 1 18.0734 -10.2205 -10.3333 -0.577557 -1.27044 -0.197683
472 1 -13.8898 -4.595 18.4058 -4.41891 1.70441 -2.65128
473 1 5.41264 11.9065 11.9696 1.43388 1.63118 -2.40863
474 1 1.89702 -5.38405 -8.83635 1.42597 1.58656 5.07447
475 1 21.7239 12.9157 -18.0704 -0.125066 -3.0069 0.352001
476 1 -12.7895 -4.09542 -1.93167 -5.5098 3.47509 -1.21737
477 1 -11.6926 -8.97684 -14.0974 -0.447704 -0.1638 -1.49806
478 1 5.15784 -2.38209 -19.3716 -2.25422 2.39673 -0.942973
479 1 13.6746 -19.3831 15.1252 4.33289 -2.23841 4.08342
480 1 0.441736 -11.2708 10.7258 -0.259971 2.76761 -0.485249
481 1 -5.40201 6.43757 -17.6149 -0.0577041 -3.14233 -1.7969
482 1 -21.79 -1.80001 20.183 -3.17326 -0.406609 -5.44662
483 1 7.89851 -18.4293 -2.9047 -2.05454 -0.763149 1.41644
484 1 22.9153 -13.8872 -11.5823 -1.02953 1.77011 3.81024
485 1 22.2485 -21.9614 -18.6179 0.846221 0.3746 0.357033
486 1 15.5883 2.13814 -6.01456 -1.22614 -4.4723 -1.0368
487 1 3.81131 25.1431 17.9551 3.4113 1.43809 2.10389
488 1 -3.26038 -14.7394 21.6963 0.760847 0.184172 1.13341
489 1 -13.0902 22.9014 -12.8023 -4.64747 -3.39391 -7.871
490 1 16.8659 -17.0517 -14.6834 -2.08097 -2.97394 1.31113
491 1 -19.8355 -11.6626 8.76233 -2.01216 2.56392 -2.86634
492 1 -17.7112 -17.4335 -12.8129 -1.55236 -1.39192 1.84237
493 1 14.2061 1.76614 -15.0273 -1.3626 -3.99282 1.28081
494 1 7.49931 0.673627 4.78203 1.34473 0.725013 3.6644
495 1 -4.32277 -8.70741 -4.52525 1.18335 5.07106 0.267912
496 1 4.05511 7.39161 -11.2312 2.57178 -1.70444 -2.42204
497 1 11.3381 16.6927 23.0389 0.51694 5.49773 1.42195
498 1 19.7284 -0.891158 22.4201 -3.76163 -2.80126 -6.85204
499 1 21.5011 1.22026 -8.05185 -5.10893 1.77275 2.8255
500 1 -5.32946 -16.939 9.90825 1.96079 0.85702 -2.23639
501 1 -13.7979 -13.7098 -7.17766 -0.133987 1.54103 -1.8967
502 1 13.0827 -17.1044 18.8697 -0.83811 -0.137377 -1.06539
503 1 9.6744 -0.625933 -13.8885 -1.22467 6.3493 -2.31306
504 1 0.658994 7.02083 6.15266 -2.58293 -0.565966 -3.55663
505 1 -5.34725 7.68755 -22.4802 -4.22251 -0.860113 4.3732
506 1 -0.0269952 -21.5874 -17.2826 1.60479 -3.11358 -1.54709
507 1 13.0668 20.7374 -16.0742 0.0352898 -1.60183 1.13114
508 1 -1.02076 20.9142 -11.6244 0.895786 4.34449 4.79539
509 1 22.9889 10.9866 -15.9916 0.904636 0.939304 -1.8966
510 1 10.5518 -16.2224 17.2081 -2.29456 0.118564 -2.34213
511 1 7.79943 -14.4501 4.39015 -1.8781 -0.207611 -0.491853
512 1 3.08958 -2.58425 20.6754 -1.37624 0.997187 5.08534
513 1 -16.9039 -15.3388 20.9529 -5.47507 -2.57185 1.76674
514 1 -14.912 21.4096 19.9922 -0.567822 3.79904 -2.48977
515 1 -1.63394 5.65337 16.8591 -1.94087 2.02241 9.30861
516 1 10.5299 -23.0776 -3.61396 -2.12421 1.86577 -0.816131
517 1 -17.4349 -1.18567 -21.7305 -5.50758 -2.65178 -0.39536
518 1 22.4478 46.8023 1.73084 -1.12118 0.0223393 -7.13911
519 1 -20.1908 -12.0999 -8.2651 2.64345 -2.93901 0.0291221
520 1 -4.62686 46.7694 -15.2157 0.357171 3.31308 1.94544
521 1 -10.4076 24.6056 -7.85938 3.16039 -3.04902 4.45845
522 1 3.50992 -15.6181 6.67686 0.790457 -2.56154 -0.75164
523 1 -10.8163 -16.7724 -7.49518 1.95594 -1.32024 -1.58795
524 1 -0.444369 -3.51838 19.2714 -2.26783 -0.125551 -0.677689
525 1 -7.92945 2.57624 -3.09812 -0.324904 -2.86161 -0.265715
526 1 -19.9287 17.7541 -2.88918 -0.757231 0.0667541 0.869242
527 1 -3.5948 14.652 -9.08726 0.724305 0.843734 0.190222
528 1 -18.6334 15.1462 -10.0228 -2.95 3.57205 -4.44561
529 1 -7.50196 -12.9928 7.76704 2.12542 2.72942 -2.61593
530 1 -8.74349 2.25355 12.5714 0.49665 -1.06756 1.56041
531 1 22.6421 -9.74019 12.5835 -4.27315 -2.4285 -3.08499
532 1 -11.4509 -1.31156 1.41267 1.8414 1.04387 1.56287
533 1 -8.99927 -20.287 15.0615 -2.78697 -5.98498 1.36434
534 1 19.3063 8.60492 -10.8377 -0.785917 -1.90781 3.22307
535 1 6.48847 9.11025 8.24707 1.57001 -4.54136 5.49458
536 1 -2.91816 -8.21158 4.14427 4.42577 4.71066 -0.841448
537 1 9.02622 -6.64149 3.26407 1.21093 0.416674 -3.49749
538 1 -21.1256 -2.0408 14.1368 0.239322 -2.75809 4.3687
539 1 18.732 8.83845 -7.92764 -1.94554 0.77213 4.07315
540 1 -13.6252 -9.18035 3.47017 2.74227 -4.90233 -1.28275
541 1 -11.5104 1.39886 18.7796 -0.694288 -1.06748 -1.47071
542 1 -24.1214 5.18117 -6.65969 -1.54073 -4.43988 -5.09358
543 1 23.1019 -18.6621 -15.7349 -0.797267 0.962015 3.75095
544 1 -2.48524 -21.0517 -20.8985 0.138424 -0.175127 -0.897524
545 1 20.2786 -21.2312 14.3132 0.856573 -2.20667 8.57396
546 1 -6.04745 -16.879 -14.9788 2.20309 -1.15471 -0.55791
547 1 15.0659 -15.1857 -20.1092 0.984713 -0.184008 0.35701
548 1 10.5839 2.01516 18.3094 1.28869 -2.00173 1.62766
549 1 -20.3954 -3.78568 7.1989 2.29505 -1.64262 -3.9443
550 1 2.42947 -22.5767 -16.0768 -0.401504 2.71552 -3.59727
551 1 5.81544 5.86524 -18.335 1.92396 1.13167 1.79221
552 1 -2.08011 -16.1284 -4.36198 1.32923 -2.93099 -3.3604
553 1 -12.1402 7.08714 1.47663 -0.57301 -3.10698 -2.47498
554 1 4.28881 21.2705 -17.5928 0.5263 0.477347 -5.16407
555 1 -13.6233 -14.9467 0.27446 6.43922 -2.80424 -3.04221
556 1 -11.4935 19.34 -1.46379 -0.194403 -0.685313 -3.16208
557 1 11.1764 46.4169 -10.4553 2.14789 -5.2487 -0.766216
558 1 -6.0847 -10.4565 14.733 -1.17572 -5.4339 0.22878
559 1 -8.38459 -19.5661 7.20908 -6.01938 1.77675 -3.48612
560 1 22.7807 -21.6932 -4.87879 -0.237503 0.280718 -0.963289
561 1 8.28845 -24.0418 19.1751 -5.24856 3.62658 -2.8255
562 1 6.42277 7.46445 23.8912 -1.57242 0.494184 3.97873
563 1 5.0705 -19.8659 5.77303 -0.382005 -1.5666 -0.800634
564 1 -12.4599 -17.7211 10.4552 0.185079 0.153097 -0.654609
565 1 12.0246 -19.8293 19.2995 -6.01958 2.02216 -6.8457
566 1 19.1402 15.7273 14.0224 -1.56602 2.11257 0.704761
567 1 -21.0052 25.8153 -4.82553 -1.44305 0.835863 0.18622
568 1 2.69041 -6.95589 7.83388 1.16302 2.71502 -5.32087
569 1 -5.52319 23.8289 -14.4836 3.62643 3.77055 1.99974
570 1 22.9482 12.9587 15.0105 -1.46231 1.28684 -2.24443
571 1 -4.25093 -12.1589 20.2013 -0.837347 3.37824 1.53845
572 1 10.4094 45.9623 2.20895 -2.39899 -3.27877 -2.67454
573 1 20.1554 -6.97185 5.92708 0.212039 -2.51219 -0.626437
574 1 13.9079 -23.2833 -6.53386 -4.81171 3.70004 2.16278
575 1 -15.1429 5.64615 -3.51001 -1.26865 -0.709992 -4.03744
576 1 20.3659 -0.99611 15.787 0.661761 4.946 -3.32197
577 1 -7.38281 19.1621 -1.89253 -1.2366 2.24286 -0.931817
578 1 -23.6231 19.8269 -20.4851 2.46099 -3.87379 0.515195
579 1 2.35741 -20.896 -12.8763 2.32294 2.61371 0.5696
580 1 -5.69956 1.86303 -14.1949 2.40565 -3.81503 0.822545
581 1 -16.9194 -9.31442 15.5026 -2.01128 -0.926529 -2.55287
582 1 -2.4652 -13.1542 -18.4275 -4.21938 1.30744 -2.91161
583 1 -23.0135 24.9849 12.1393 2.48335 -3.75455 1.22174
584 1 16.6833 -0.342315 -12.3687 -2.21397 1.91615 -0.417516
585 1 -6.44686 12.7734 15.9775 1.05635 -2.54944 -1.61019
586 1 16.2262 22.9427 -20.7016 0.648342 1.14351 -2.03898
587 1 -20.1836 46.8033 -12.5406 0.892817 -3.43465 1.04113
588 1 -21.5601 24.2048 7.26769 3.57216 -2.46743 2.08981
589 1 -0.189468 3.38295 -0.894138 -0.768457 6.07588 0.398048
590 1 -5.3382 18.4547 20.2868 -0.842895 -0.724148 2.39166
591 1 19.4725 -21.0789 11.2212 -0.138623 4.02195 2.25963
592 1 -16.5294 -14.3463 10.5736 -0.694646 -4.00629 -2.62802
593 1 -13.4015 -22.2133 15.8367 0.384553 4.92352 2.63196
594 1 -17.8963 0.061336 2.79433 0.631923 0.144985 -0.215998
595 1 9.32112 -16.7365 -23.2353 -3.13693 4.82614 6.03917
596 1 -12.2256 -19.1945 5.01772 -1.57437 1.48869 5.77731
597 1 -22.8461 45.765 -13.2092 2.6291 -3.5467 1.22784
598 1 14.2185 -15.3747 5.19813 -2.51961 0.920356 0.592486
599 1 11.2938 -13.0273 12.8261 3.94478 -2.62657 -0.0115889
600 1 -22.6884 22.1954 17.8938 -1.46609 0.680018 -0.121924
601 1 0.969475 -1.62128 21.9924 0.745136 1.81451 4.7161
602 1 -10.4138 8.51462 19.2124 -0.0837594 1.57593 7.1979
603 1 -4.55855 5.7376 -3.9121 -4.41975 1.86451 0.7481
604 1 1.05814 25.742 -23.8353 2.50309 1.07378 -4.64591
605 1 -17.5956 -1.52513 17.2893 -3.15553 5.24477 -1.54279
606 1 2.24184 -2.31809 -18.9948 -2.10031 -1.66737 0.1179
607 1 -0.596702 -2.15951 16.6948 -4.35746 6.53683 0.166201
608 1 3.25487 8.50678 -8.61624 2.01617 1.67052 4.29369
609 1 12.4692 -20.7265 22.1805 -3.9748 2.85814 -2.2384
610 1 13.6432 -4.31047 15.0876 -2.62843 2.31816 -0.101692
611 1 -3.03883 -5.96736 -3.58376 -1.6873 0.289561 2.45481
612 1 -5.82367 10.8678 -17.0006 1.11511 1.54721 -2.11908
613 1 13.0524 8.33961 -23.3639 -2.29835 -2.76175 0.437605
614 1 -17.3982 -9.50161 -5.98874 4.20691 3.15763 1.32672
615 1 10.5161 -5.37908 21.1135 -3.84135 -3.08719 2.40853
616 1 15.6484 -0.839689 20.0818 4.94131 -0.152446 0.143638
617 1 -13.5518 22.6661 -15.744 -2.97581 -1.58819 1.51392
618 1 14.4823 7.68963 8.90062 -1.27996 0.302521 -1.35719
619 1 15.9006 -0.351322 10.5447 1.27666 1.87084 -1.92582
620 1 21.0935 -15.4959 -8.35729 -0.389503 2.54925 3.45461
621 1 -9.40301 17.6272 -12.1504 -0.293082 1.91877 -3.26648
622 1 -22.0468 -9.28772 2.3768 -6.90268 0.417874 0.743229
623 1 22.0668 -16.4468 5.86039 5.60993 0.720308 2.48976
624 1 -8.87093 2.35793 -20.8508 3.37504 -1.6053 -3.78845
625 1 -2.2284 -9.62764 -2.22053 -0.379926 -0.47954 4.46477
626 1 -5.84385 4.38376 -15.5097 3.49982 0.456249 -4.14025
627 1 21.6493 13.3386 11.2112 3.29831 1.41232 0.0133719
628 1 -21.3654 -15.9711 -1.10813 -1.38475 0.720182 2.83779
629 1 -7.0643 12.8938 -3.77809 -2.55354 -1.60892 4.03441
630 1 23.5122 24.1306 9.8404 5.26276 6.28193 -1.98759
631 1 -5.69983 -17.0013 18.3623 -2.60055 2.98586 1.69518
632 1 -14.8886 -17.3942 0.109663 -0.536697 -1.45433 0.0167403
633 1 8.88726 5.6142 21.4158 -0.356286 -0.138042 1.58998
634 1 -7.67118 2.30724 17.8292 1.66137 1.25228 3.1511
635 1 10.3327 13.9629 -6.92969 2.10276 4.19392 -3.87919
636 1 -22.6771 2.90158 -14.8718 -2.33466 -2.00671 1.36106
637 1 -7.81743 46.2712 -23.154 -2.46739 -1.51845 0.463252
638 1 11.5211 18.8117 -7.02616 -1.8137 0.466413 -2.16711
639 1 -10.926 -19.6996 -23.3213 0.130955 2.19033 5.7051
640 1 0.659675 0.575065 6.46361 3.64463 4.00585 -3.22345
641 1 -14.7974 21.9586 5.3162 -0.977377 -0.792093 -1.34431
642 1 -6.80274 -1.38067 4.79792 0.0458511 -1.83902 5.67846
643 1 8.83687 -19.4411 6.18415 1.19408 0.934636 0.0110344
644 1 -7.30679 14.1366 -1.35443 5.05026 0.488507 4.02844
645 1 -11.8682 -13.003 -18.4161 1.75101 6.59525 1.98116
646 1 14.0063 24.4608 14.1015 1.56313 -2.85941 -0.58015
647 1 6.30107 1.53247 -4.42581 -1.13642 1.3498 -2.96989
648 1 21.4094 -15.5383 22.0635 2.26343 0.0105159 3.45909
649 1 9.4366 -18.6085 18.5732 -2.51136 -1.51894 2.13332
650 1 -9.39148 2.74406 20.2387 2.06065 4.36576 -3.11627
651 1 -19.4591 6.03455 -11.5877 4.5978 -3.63103 -2.64719
652 1 -7.82235 -6.35234 -20.3034 -0.177865 1.97482 2.04999
653 1 -20.7384 -22.2021 -16.9165 -0.278967 2.94825 3.3765
654 1 -11.7088 -0.749178 -17.4037 5.8165 -5.41988 -4.49884
655 1 -2.77778 -9.91529 -10.8071 -0.509357 -2.20202 -2.06859
656 1 -0.230511 22.0897 -9.1241 -0.138259 -0.722456 2.16011
657 1 -2.20506 -7.21916 -9.68613 -1.6928 -4.13854 1.92907
658 1 19.252 10.0557 13.4653 -1.11626 -3.65573 2.46273
659 1 9.0728 1.41405 21.7507 -4.92079 1.30352 3.16113
660 1 7.89679 2.17098 7.33572 4.37343 0.142443 -0.55946
661 1 -18.9148 -7.30298 -18.3394 1.36942 2.26521 0.602325
662 1 2.66656 -8.05762 10.3328 1.01795 5.14454 -0.402799
663 1 -11.5218 -18.4044 -11.5732 -0.477956 -0.879284 -6.35189
664 1 -16.5535 -21.1633 11.2191 1.50252 -0.9823 0.517701
665 1 -3.39046 -5.18209 15.4719 0.92008 3.38917 -1.28149
666 1 -9.46909 -6.56746 -12.0779 -4.64135 -0.478628 -1.88936
667 1 -21.6702 -21.6493 23.2298 1.88159 4.3712 0.561024
668 1 -11.7823 15.48 18.3962 6.58835 -1.15031 -1.08617
669 1 9.75726 -16.3436 14.5048 2.14161 -2.70922 -1.14819
670 1 0.615858 -11.0289 -4.88471 -1.63236 -0.782453 6.75335
671 1 19.8851 14.9138 3.95137 -1.05015 4.53355 3.56707
672 1 23.1791 7.58381 -9.96814 4.10918 -1.17639 -0.147083
673 1 -2.26854 22.5581 -22.9974 0.599937 3.2605 -1.80379
674 1 -11.1423 1.65565 -19.046 1.33668 -4.72388 -1.82218
675 1 -21.0818 -13.6578 -6.02308 -2.13045 2.41227 5.09225
676 1 5.86073 0.764629 18.2177 -0.649317 4.29543 3.11273
677 1 -22.9461 -11.8736 -12.6471 1.31946 3.50771 3.78733
678 1 -20.68 -5.6904 0.566086 3.61927 -3.36485 1.17061
679 1 -19.8684 3.10453 -8.43832 -1.37379 -2.92681 2.93436
680 1 6.79823 20.708 -8.71495 4.84691 -0.0733608 2.39199
681 1 -3.15141 1.12964 -7.26718 -0.984892 3.16084 -2.73433
682 1 -2.36361 20.1 -8.0782 -0.359535 2.42113 5.02417
683 1 3.30788 5.76438 -17.0052 -4.54884 -5.47769 3.58594
684 1 10.8502 -22.5131 -12.1521 -6.38481 0.319985 4.41249
685 1 21.357 -0.395992 6.10873 0.219474 2.35605 2.83425
686 1 -12.9846 -1.14004 20.004 3.70473 -4.0368 -1.49385
687 1 -15.5033 7.6051 11.0113 -2.83446 1.41862 -4.35857
688 1 -12.287 -13.7245 -14.8701 -7.24446 -5.50253 5.6373
689 1 -3.84731 -3.40687 -2.4343 4.35826 -4.4842 -0.395668
690 1 -2.55212 17.4407 -5.25726 -0.190906 3.43293 -0.921929
691 1 0.223983 8.04829 14.1815 -1.17174 -1.59293 4.52575
692 1 -9.23288 -2.94139 4.10663 2.75187 -0.268604 6.07381
693 1 -9.47638 23.5692 2.44645 1.39738 -4.39266 -3.05891
694 1 10.2847 -19.4459 1.47434 -0.205794 -3.51768 -4.61656
695 1 8.32654 -9.86534 -7.38967 -2.82928 0.438288 -4.14415
696 1 -8.76736 -22.1553 8.0152 -1.75253 -1.19465 4.79535
697 1 -19.6451 16.2754 -18.7635 -1.21512 1.18454 -6.29943
698 1 23.2347 -12.8764 -4.9403 -1.39804 -0.107422 -0.310642
699 1 -15.764 -11.8471 15.9097 2.27397 0.432642 -2.10786
700 1 4.35544 4.74345 -20.5881 -2.13659 -0.31877 1.25655
701 1 14.3481 -1.98775 8.80409 2.11598 -3.75667 2.05535
702 1 -14.2404 -3.2991 13.8366 3.11454 -1.4397 -0.723692
703 1 8.42954 23.6445 -21.1249 0.326147 -3.88836 -1.46968
704 1 -10.0662 -10.1414 9.09319 -6.61029 -2.30176 2.69779
705 1 5.45357 19.6045 -15.3672 4.37308 2.26024 -1.89689
706 1 3.65908 1.93933 21.8591 0.613205 3.21145 2.05579
707 1 -18.1579 1.16387 20.9476 0.961062 -0.908949 -0.999875
708 1 9.65883 -7.00524 -20.1723 2.85397 4.62458 1.55624
709 1 -11.4245 -2.19656 -6.20792 0.0437567 4.63115 3.0252
710 1 -4.05665 -9.64391 12.5481 -0.217537 -0.661007 -3.42602
711 1 -15.3177 -7.11341 -13.2449 -2.52293 1.89044 -1.99745
712 1 4.32781 -14.604 15.7851 -1.62997 -6.81862 1.18288
713 1 2.24228 4.45066 3.77461 5.5531 -1.61553 -5.84565
714 1 18.0137 -8.30304 -14.0319 4.68799 -1.92044 -2.38649
715 1 5.52434 16.4899 12.7881 -6.91828 0.665287 -0.748754
716 1 1.76378 -22.0592 9.87573 -2.81269 -0.624854 -3.03622
717 1 -13.615 -5.33342 -14.5706 -1.72678 -2.88206 2.86229
718 1 -11.0056 -6.17268 6.23516 2.85477 -0.651334 -0.63163
719 1 13.442 -8.19651 11.4846 -0.738836 2.39459 2.09111
720 1 0.35485 -5.90607 -19.8166 -0.773631 -2.02569 1.82347
721 1 -11.5635 -11.181 -16.0912 0.965348 -3.07707 -0.988516
722 1 6.9406 -23.1051 -14.2157 0.885044 0.993808 -1.6667
723 1 -21.0358 15.3486 -6.62488 2.65224 0.0978877 -1.14893
724 1 -7.77519 22.7155 -11.4441 -0.780487 -1.39281 -1.08775
725 1 4.01855 20.4597 -21.2121 1.02874 2.69536 1.78689
726 1 -5.25706 -5.64125 21.4758 -4.51761 -3.3276 0.997964
727 1 7.52474 -2.25957 -13.0545 -3.84484 0.293654 3.14056
728 1 -9.00264 16.0954 -8.16236 0.747314 -0.937067 -4.67999
729 1 -13.6677 13.7943 16.7798 2.90748 0.723512 -0.1324
730 1 16.9064 -20.2285 -18.9919 -0.220317 -2.07587 -4.87926
731 1 -12.4228 12.1561 -23.0562 -6.23343 2.48395 2.73132
732 1 13.5037 -23.3062 -9.3123 5.45799 -2.6856 -1.17464
733 1 -14.6453 -15.1798 4.36214 -2.02798 0.251491 -3.52287
734 1 -19.4733 20.8706 15.9973 -0.0665032 0.918062 1.74376
735 1 16.4283 8.97559 7.3627 -2.08234 -1.18916 -3.96238
736 1 4.49673 23.1623 -6.09442 -0.341541 -2.9529 0.335808
737 1 22.5903 -18.5531 4.03118 0.648182 0.507773 -1.87029
738 1 -12.2235 8.63132 15.7563 -3.74681 4.05156 0.965531
739 1 -15.4893 -20.8651 -1.05577 0.573798 -2.15266 -0.112854
740 1 15.7881 12.7357 20.9623 2.97171 -0.861889 1.33152
741 1 -13.7116 -20.5767 -16.1048 0.0814262 2.27263 3.46642
742 1 -5.13 45.2176 18.8389 -0.584629 -3.16059 4.639
743 1 22.8511 21.333 2.2365 1.5213 5.23164 0.469948
744 1 9.02594 -13.293 -14.4355 2.09987 -0.131144 -2.654
745 1 -22.8304 3.76461 18.5699 6.51803 1.34064 1.26442
746 1 -16.2287 -6.01023 -21.9722 1.77963 -1.14169 1.04888
747 1 10.3499 -11.1808 3.41624 -3.4594 -0.642084 -5.48068
748 1 -10.5943 -21.7491 19.4762 0.629581 -0.149191 -0.699584
749 1 0.526416 16.0539 8.64135 -5.85354 -1.37394 -0.898566
750 1 15.1514 -6.36371 -12.4775 2.81221 -3.71016 1.1593
751 1 -16.8926 10.026 -16.4061 2.24294 3.41233 -6.26585
752 1 23.1226 -21.0671 4.95212 1.23273 -1.04949 -2.58984
753 1 -14.7346 -18.0406 22.7252 -0.578139 2.99784 2.83651
754 1 -14.7217 25.2721 13.6723 -0.604746 -5.98428 0.294181
755 1 10.3191 9.06539 -23.3549 2.4984 -1.53503 0.80867
756 1 -6.73844 -3.38523 -1.8583 -0.467147 -4.20727 -3.4227
757 1 -18.3273 15.2514 -3.33629 3.3168 0.180381 -2.70776
758 1 -14.7462 -15.0649 19.2263 1.45566 1.61796 1.10031
759 1 1.33215 15.7385 -12.1571 -0.313885 1.75108 0.036047
760 1 1.4123 9.74209 12.282 -3.93786 4.53113 -1.70496
761 1 -9.45855 -12.3607 -7.33959 3.82996 -1.94731 5.78519
762 1 4.03966 19.1547 23.8951 -0.306347 -2.51956 2.0613
763 1 15.7941 5.20377 7.90063 -1.14889 -4.61451 -6.08283
764 1 21.1542 2.19836 6.72693 0.139414 -0.310645 4.11432
765 1 21.1639 8.68583 9.36579 1.30894 -0.97106 -0.849754
766 1 -11.5566 18.9864 -15.3351 1.02155 0.0484243 6.44531
767 1 -4.19254 -13.4613 -3.10582 1.6365 2.03321 -0.27313
768 1 -7.67502 11.1957 9.61046 0.232762 2.4239 -2.00828
769 1 14.1804 26.1802 18.2756 1.49156 -4.79288 4.51418
770 1 -4.72684 21.9742 23.8705 -4.68392 2.22225 1.97956
771 1 11.8444 -18.1388 13.2241 -1.48733 3.20513 1.07685
772 1 7.47824 7.70542 5.86282 -0.173409 -2.39127 5.44165
773 1 12.543 -20.8095 11.8758 -4.38046 -1.91925 -5.96277
774 1 14.826 18.8799 13.7918 3.28669 1.32615 2.36887
775 1 22.7165 -18.6597 -12.126 -2.04385 -8.54237 2.11327
776 1 9.44051 -0.396129 -20.2615 3.2429 -1.20041 -0.492138
777 1 21.0822 -9.97855 -9.68369 -2.72978 2.99991 -0.420251
778 1 1.89073 -19.4553 -18.3151 1.60566 -0.950429 -1.34451
779 1 8.43532 0.486026 -6.0704 4.96757 -2.82422 3.25952
780 1 -7.74325 -9.89941 -19.3744 2.69879 1.90732 3.38902
781 1 -19.5288 4.56732 5.34936 -2.38155 -0.682228 0.188525
782 1 20.9718 -9.01856 -14.3828 -0.403256 4.81538 2.16817
783 1 1.13384 -15.1857 21.0768 1.77147 -6.17282 0.249844
784 1 11.8102 17.3987 -3.24146 0.247393 2.10492 2.44308
785 1 -3.1449 22.3394 21.4387 0.0418787 -1.81682 2.04867
786 1 -22.2659 23.5946 22.7297 -0.94427 1.44817 2.25335
787 1 9.20081 11.4512 -14.1804 -2.00359 -3.78281 -3.88334
788 1 -20.4142 9.56383 5.23483 -2.94116 -6.20441 1.48659
789 1 -15.1827 19.3432 1.1989 1.72195 0.512869 -7.87947
790 1 2.14279 -2.16086 18.0261 0.3443 0.0126455 1.57537
791 1 -3.68851 24.3433 16.2214 1.53219 4.18032 -3.85707
792 1 -23.38 15.0401 -8.2872 -1.41544 -6.55363 -7.26807
793 1 23.0229 -10.4476 1.73468 0.585573 -0.758924 5.85574
794 1 7.23641 16.1373 -22.848 1.8939 -0.352678 1.13261
795 1 21.1867 -6.59773 19.1206 -0.598413 0.519804 -7.87032
796 1 -8.29934 -14.9483 -14.1105 5.20903 -2.2536 -1.81501
797 1 -19.7652 -11.3385 13.4875 -2.32424 0.586342 -3.88885
798 1 -16.4497 0.915621 -6.14261 -2.38214 1.65984 -5.4751
799 1 -10.4033 18.797 -8.04328 4.19382 1.76609 4.54995
800 1 -19.473 -8.86331 17.2515 2.6325 -4.05328 -4.17476
801 1 19.8318 12.9697 0.388638 2.27395 3.70939 -0.899175
802 1 -19.7684 -21.4691 13.5238 -0.842243 -3.29639 0.059121
803 1 18.498 -14.3471 -8.03354 -5.46741 -3.59245 4.93691
804 1 12.3579 -20.6678 -10.4666 1.4351 -2.03945 0.0911396
805 1 10.0135 24.2406 22.4914 0.501846 -2.31857 3.34786
806 1 -2.30453 -11.8398 11.5582 -4.6659 1.71508 -4.53445
807 1 15.7832 21.7906 -23.3167 -1.08606 -0.449611 4.57678
808 1 -0.373028 -20.0579 -13.0875 -1.06671 3.48454 -5.04912
809 1 -5.21967 25.6031 -17.0453 -2.07468 1.2795 1.38371
810 1 -20.1274 -15.2296 -3.63343 -0.825958 -0.912711 5.40974
811 1 -14.4126 -5.06744 -5.2249 0.639953 2.58409 -2.09279
812 1 5.96524 -12.9332 -7.38476 1.95341 1.7879 -1.31473
813 1 -15.3607 25.01 -16.5714 0.395074 -0.181272 -2.52743
814 1 -20.9178 -0.933612 -2.34633 -0.0489794 -1.58126 3.25363
815 1 -18.3887 5.63393 -17.2026 -2.01543 3.77955 1.99454
816 1 23.0049 -17.638 16.9046 -4.29142 -0.987925 5.13986
817 1 10.4853 -8.70498 15.9807 3.40245 -1.36598 -6.85403
818 1 -10.1981 9.95586 22.539 0.358655 -1.143 -0.391601
819 1 9.60074 12.579 21.0659 -3.48951 -0.941493 -3.32936
820 1 2.29808 14.3098 6.99334 5.42999 -8.78341 1.46074
821 1 -23.4577 46.1983 -22.6206 -0.0456903 -3.56996 -0.405052
822 1 18.3676 -14.1577 14.5564 0.941853 2.15941 1.67999
823 1 5.28725 -9.92431 7.02658 1.93228 -0.641318 -2.59482
824 1 5.15321 -19.852 -8.10774 -4.03215 2.06288 -3.42194
825 1 -23.8968 2.62044 3.42849 4.30526 1.59344 -1.80664
826 1 -12.8876 7.84701 -3.15643 0.113252 2.93462 2.24178
827 1 -2.00456 0.286262 5.06782 -1.12809 1.91306 0.264037
828 1 -7.73318 -19.8477 12.1441 1.48988 -1.1462 -0.272212
829 1 20.1145 17.4073 22.1446 -3.07492 1.25059 -4.50588
830 1 -12.1782 -10.1488 19.232 -6.40184 1.34261 -0.182197
831 1 -1.64905 -12.8164 23.2177 -0.771811 -3.26591 3.33657
832 1 -6.40703 -1.10686 12.35 1.09734 -0.101562 -2.57407
833 1 -12.2003 -6.5324 -6.14675 -2.89526 5.30132 -2.91032
834 1 2.16192 9.90324 0.0378762 0.94571 0.324492 2.34965
835 1 3.7085 9.99944 -20.8775 -5.52202 4.60381 -0.0489535
836 1 3.45091 -11.1403 19.8194 0.164408 1.24977 -1.54524
837 1 -18.7802 -15.6378 -6.35967 3.66246 0.743711 0.736643
838 1 22.5615 -21.5627 2.03571 -0.422791 -5.38207 -1.11029
839 1 20.9922 20.3284 -6.46047 -3.81049 3.78427 2.0708
840 1 3.52486 -16.8289 11.878 -2.10907 1.35424 -2.77669
841 1 18.3995 2.04813 7.91059 0.899366 -3.06232 0.423408
842 1 -5.88625 -23.2634 -3.36984 1.81034 1.20282 -1.88658
843 1 20.8122 -5.58328 14.8189 0.438441 2.72522 2.21666
844 1 19.778 -19.372 -23.9691 0.272101 5.07918 -1.44724
845 1 18.5365 8.0147 -0.423286 0.902737 0.581358 -3.28996
846 1 8.1118 2.77474 -12.444 -2.76974 -1.08756 -0.795515
847 1 -14.122 46.055 -14.2317 4.36249 3.40855 1.73838
848 1 -4.35832 17.4354 -14.2499 -4.03963 0.744678 1.88152
849 1 -23.6063 -12.5461 -7.47352 0.991629 2.82261 -2.26147
850 1 14.1503 -20.2221 -20.4243 0.26497 -1.72702 -1.05632
851 1 -21.2294 18.4551 -13.4317 0.475608 4.67927 -0.932183
852 1 11.7986 -4.14393 1.07886 -0.633162 0.196493 -3.84261
853 1 15.5047 12.2518 -16.3179 1.41969 -0.783705 0.560144
854 1 -21.6227 -11.8708 2.54908 -2.88167 2.23198 -2.80703
855 1 -16.6492 24.3892 -18.8184 -1.16381 0.1914 2.66282
856 1 -21.4867 -5.56574 -9.33686 6.263 0.918578 0.0144691
857 1 -23.624 -5.33002 11.3779 -2.05681 -5.23426 0.607473
858 1 16.182 -12.3407 13.3217 -2.57833 4.90066 -2.85261
859 1 -13.5025 -7.59931 -0.386402 -3.08122 -5.65398 2.43791
860 1 8.21759 -8.81499 -15.6633 -5.49923 -3.38173 0.86366
861 1 -24.1819 21.8748 -11.6933 2.9306 0.693612 1.14206
862 1 -2.01157 13.3237 -6.79596 0.926378 -1.89835 -0.0451741
863 1 17.3368 -18.9916 5.32472 3.00424 6.32578 1.13154
864 1 -16.1575 4.70517 19.0787 -3.08842 0.408591 -4.29759
865 1 -0.162763 -21.1528 11.7367 4.12873 1.3694 4.53129
866 1 14.0105 -3.13014 19.1245 -3.7209 2.27601 1.26758
867 1 -0.980175 13.4616 18.3019 -0.964794 0.44224 -2.31538
868 1 2.92849 16.9253 -5.19413 0.888525 -6.34716 -0.928424
869 1 0.00556588 17.8683 2.01831 5.40752 6.22207 -3.22682
870 1 14.3579 19.1884 17.8217 3.81552 0.0885096 3.85115
871 1 7.66014 8.96792 -21.731 1.56539 -2.63819 1.5425
872 1 -6.51229 -4.19322 -22.022 1.99005 -1.89795 2.2683
873 1 -6.95783 0.766738 -22.1084 -0.978928 -6.06066 3.83352
874 1 9.9936 -0.553766 0.848504 4.34558 0.858135 3.05142
875 1 19.0531 13.4818 10.5857 -6.17893 0.980081 -0.625675
876 1 13.842 -16.0048 -8.99021 -1.44349 -0.159085 -3.13211
877 1 3.40187 -19.4003 17.4287 3.08741 1.20759 3.14598
878 1 6.72733 12.1382 21.5006 -2.53983 2.62618 -2.65954
879 1 18.4994 6.13602 -17.7898 0.504208 -1.15081 -1.78998
880 1 5.51335 14.7103 20.7334 -2.88913 1.11557 3.37293
881 1 -2.6452 -5.22099 18.3024 2.16595 -5.55035 -5.63863
882 1 -13.6557 -2.61577 0.191998 -0.424248 -1.89391 2.487
883 1 16.3964 14.8508 -6.67358 -4.10515 4.22546 1.90232
884 1 20.2717 -19.2205 -16.8647 -0.336899 1.75498 2.07248
885 1 -6.42269 -20.2423 -0.633808 -0.945275 3.46943 4.97605
886 1 -6.90986 23.8906 4.0067 -1.60528 3.33149 -0.346595
887 1 10.8054 -22.3524 19.2444 3.19434 0.021668 -1.71627
888 1 -7.53642 17.8913 -16.6117 1.08048 -3.45765 0.0491958
889 1 -14.5251 -0.478212 17.4525 4.56038 0.193422 -0.298267
890 1 14.5722 -21.549 13.6084 -0.246166 0.605699 -0.220326
891 1 -22.0768 -1.1067 5.45383 -1.60975 -3.72204 -5.36389
892 1 3.25581 -10.2711 -4.1416 0.641921 -1.44423 2.82201
893 1 19.9054 -7.35166 2.89704 3.13992 -1.304 5.9033
894 1 1.83937 15.7755 22.5878 -3.36751 -1.53722 -0.809291
895 1 2.81115 -23.7056 7.11181 1.64421 -3.38826 1.9306
896 1 13.1878 0.11992 21.1086 -3.09981 -2.94297 1.4545
897 1 -12.4629 -21.3366 9.70638 1.75318 4.28705 -1.748
898 1 14.6431 3.02954 -23.6433 3.13951 1.94027 -0.818167
899 1 15.0559 -22.6316 18.277 1.99424 -4.78482 0.38214
900 1 -16.7582 -13.6451 -10.1634 0.434748 0.234345 -4.02103
901 1 5.19248 -23.5816 8.64939 2.77566 -0.744753 0.393538
902 1 -10.788 15.7679 1.05763 5.9583 3.02115 -1.49085
903 1 -7.65223 26.7977 -17.6797 1.40039 -1.99497 1.3992
904 1 -9.365 -5.952 -5.74917 -3.28859 -0.928707 0.449714
905 1 22.9007 -7.73881 22.9137 1.89769 4.95952 3.3805
906 1 -6.85225 -21.8479 17.9807 -5.78114 -2.98056 -5.03656
907 1 -17.0251 2.13228 -9.44254 -1.83002 3.94497 0.584187
908 1 -7.11678 -16.4052 13.6533 1.21863 1.23021 -5.89981
909 1 15.3911 -24.3164 9.96414 2.23377 -0.480243 5.57611
910 1 -10.6593 6.59761 -4.01275 0.703466 1.04675 1.80898
911 1 -0.54709 16.0818 -20.7734 -1.01162 -2.64811 2.08925
912 1 -14.8126 25.2451 -8.75763 1.23402 4.37287 -1.91211
913 1 -4.73477 21.7264 17.3507 -6.37494 -2.70741 -3.29818
914 1 -23.6318 16.1156 11.6766 2.98395 4.12893 1.32962
915 1 13.1855 -7.3561 -15.9777 3.72695 2.34303 -0.176761
916 1 -15.8262 -17.0209 17.4412 -0.650569 -2.8079 0.488679
917 1 -23.9483 3.33143 -22.1676 7.23196 3.86879 -2.6089
918 1 -5.28424 8.87885 2.74386 -1.26813 -4.91561 1.11747
919 1 -10.124 18.3861 14.3392 -2.36447 -2.17547 0.723563
920 1 3.34302 16.9356 -22.0578 -0.721135 0.597625 4.74343
921 1 12.4374 -9.40095 -18.2331 2.19595 2.14115 1.30686
922 1 -13.3559 2.14403 -17.1615 -1.11149 -2.49467 -0.717122
923 1 0.733211 -12.1267 2.45482 1.2726 -6.41604 -1.96115
924 1 -7.84174 18.477 4.64373 4.36473 8.29301 6.14062
925 1 1.90767 9.42075 -2.72593 2.75877 1.8141 1.94112
926 1 1.29313 -14.4326 7.832 -2.11848 3.06362 -1.89434
927 1 8.41347 15.0332 20.009 0.501424 0.422165 1.80817
928 1 10.5484 -18.4925 8.78678 -4.3655 0.699255 3.11893
929 1 -6.00533 -13.6638 -6.42075 -2.16078 -4.91244 -5.69199
930 1 -18.3741 -18.8905 -15.2655 -3.61324 3.10142 0.811306
931 1 18.712 -4.81231 -8.32304 -0.813061 1.01015 1.30152
932 1 -18.4263 17.0797 16.0029 -2.61763 0.263207 2.67682
933 1 -16.427 -22.5919 -22.9887 -2.41365 0.310709 0.669896
934 1 0.303638 18.8201 -20.8677 -1.08197 1.38123 -2.31307
935 1 23.0121 -11.3638 -1.02792 -4.39996 -4.94634 -0.57218
936 1 9.63581 12.4467 16.4763 2.1879 -1.07621 1.1789
937 1 5.50627 17.1747 19.7571 2.31017 1.75446 1.60771
938 1 17.2355 10.052 4.6986 1.31314 0.690933 -1.33648
939 1 -5.32555 -12.9028 -17.2301 -0.0878451 3.68608 1.40068
940 1 20.879 3.58444 -11.7168 -0.662712 0.386787 4.20515
941 1 -22.5753 21.9834 8.94619 1.96932 -2.96803 -1.35748
942 1 -4.87325 -15.7109 -17.3188 -2.51562 1.46961 3.64721
943 1 14.9368 -8.14991 4.23352 -0.281525 1.17444 -6.53626
944 1 -16.2638 -3.13776 -23.3521 1.08737 -0.741149 -2.22677
945 1 6.4356 45.9619 17.2908 -2.3706 -1.92282 -1.42031
946 1 -15.4812 -7.33596 4.766 -1.76486 1.53687 -0.406998
947 1 -11.0485 21.1411 20.5908 -2.64662 -0.96439 -2.71616
948 1 -21.874 5.15 -4.90497 2.23838 3.83916 0.443965
949 1 -1.64092 14.546 21.8496 0.513421 -3.08417 1.47764
950 1 -20.1455 7.10767 10.3109 5.31272 5.40764 -1.02294
951 1 -9.23878 45.5165 -15.7917 -0.743599 -0.160737 4.01048
952 1 12.327 -13.7116 -11.6709 -1.71949 2.45182 1.08064
953 1 15.0552 -1.95989 1.22459 -0.943549 2.00615 -2.17306
954 1 16.3367 3.24453 -13.42 0.130061 1.24024 -1.84951
955 1 -12.5872 19.3022 -17.986 -4.51717 1.36163 0.580877
956 1 -12.4194 -6.36202 -8.93796 -2.02051 -0.284189 -0.345388
957 1 -3.64609 -2.34079 15.2105 1.09304 0.749701 1.89188
958 1 3.33626 13.6671 19.4151 1.89223 -4.20671 -0.573054
959 1 -15.0296 -15.1357 23.2493 2.86838 1.41527 -3.77392
960 1 0.930723 -20.5068 4.22639 2.96998 -2.86545 -1.82164
961 1 -5.6208 12.3305 1.29671 1.26155 -5.89956 3.20781
962 1 -3.44109 7.27113 -7.7965 3.41871 -4.13364 -0.54472
963 1 -15.2831 26.3582 -13.159 0.0563246 -1.25475 -0.94062
964 1 11.8527 -15.6792 -22.1688 -1.66922 -1.62379 0.211122
965 1 -14.7707 14.1924 8.92282 -3.61601 0.554562 1.61185
966 1 -16.5496 -4.59522 15.0141 4.80393 -1.8845 1.36473
967 1 18.7121 -5.49221 -14.9999 -0.403848 5.70775 0.34613
968 1 -2.74962 23.7222 -14.7028 -8.37678 8.46647 -2.58684
969 1 15.9123 44.7469 1.30036 -0.212103 -0.410797 -4.23089
970 1 -2.43845 -22.9006 -12.0057 1.6329 1.11894 -1.84216
971 1 15.143 -4.68342 21.2178 1.8881 -2.85474 0.971423
972 1 -8.52575 -18.756 1.04471 -1.97373 -1.09378 -2.88705
973 1 -10.5294 -0.846522 17.0718 3.10615 0.0614627 -2.4752
974 1 -2.34583 23.4093 -11.7049 0.502121 2.34142 -3.93969
975 1 -7.50888 -10.2163 7.59867 -2.96899 -3.17569 -2.36811
976 1 -19.1637 -3.81908 11.7108 1.63601 1.64611 -1.16091
977 1 4.93861 46.1872 12.9684 -4.43582 1.457 2.37207
978 1 4.4966 15.5774 23.356 3.77138 2.28469 -3.59755
979 1 9.11571 23.0877 -18.3236 0.256759 1.65791 -1.22724
980 1 3.35749 23.8045 10.7837 0.569855 -3.61906 3.14026
981 1 4.86089 -5.85613 -2.41126 3.92456 -3.89177 -1.99319
982 1 -5.49932 -4.77513 6.83705 1.46335 -1.66757 -1.07408
983 1 -18.4814 8.70536 17.6885 3.20882 0.0652264 2.16933
984 1 -14.8613 19.1924 -5.35562 -2.12264 0.703915 -1.82046
985 1 -16.5154 19.6154 11.8205 -3.80091 1.32753 1.85885
986 1 -2.36734 7.07129 13.3618 0.451742 2.89947 -0.27697
987 1 -21.4615 -19.0457 11.046 -5.71384 -4.68672 -1.13775
988 1 -11.5494 -22.8303 7.48072 -3.0889 -1.75048 -0.0353395
989 1 11.1576 -0.274101 -5.10771 -3.95092 -4.51212 -0.867156
990 1 10.7138 -6.75313 13.3943 -2.89211 -2.38786 -2.39613
991 1 -7.70547 -4.81681 8.54493 1.60425 -5.19088 2.94329
992 1 -21.726 11.8111 5.95679 1.36289 -2.43624 -0.736835
993 1 23.2668 -0.323884 -23.5576 0.30282 -6.57322 -0.693377
994 1 22.7309 -15.4152 15.2029 -1.53816 -3.83044 1.67545
995 1 6.83122 2.41012 2.69132 -5.21713 -0.486828 1.83838
996 1 21.0922 7.6725 -17.4671 -1.0009 -1.82517 0.894249
997 1 -23.1057 24.3101 -22.3091 5.29453 4.99286 1.29022
998 1 -1.72366 12.5709 11.6453 2.09167 1.11372 2.38471
999 1 23.0188 9.59003 7.33653 0.316951 1.37567 1.34157
1000 1 16.8123 17.4417 -8.22552 2.69394 -6.62965 0.413044
1001 1 -21.1825 -1.17146 -7.18948 0.267774 -4.4889 1.88255
1002 1 -12.4149 -15.274 2.62788 1.94137 1.41753 0.824405
1003 1 14.4551 -14.2133 11.6575 -2.63037 -1.29663 1.66609
1004 1 -24.1143 25.2555 7.35089 0.364555 0.201205 -8.08376
1005 1 -14.7443 16.7265 2.1581 -1.24744 -2.72296 -0.89546
1006 1 -23.7883 10.9897 16.9193 -2.84169 1.3154 -1.10805
1007 1 13.8613 -1.98381 16.3865 -3.0918 -0.30293 3.00471
1008 1 3.85889 -6.37764 16.2742 4.04537 -2.31648 2.07787
1009 1 8.47756 -20.1884 3.43521 0.928332 4.08016 -3.52677
1010 1 -13.9041 7.08741 -8.66817 -2.30484 0.256054 -3.57569
1011 1 -19.7581 2.62353 -0.0392446 5.00183 -2.51268 1.71825
1012 1 2.74018 3.05895 -0.277854 0.0260466 1.59174 3.62588
1013 1 5.6217 -15.7265 2.48012 -3.33052 -2.92924 2.44254
1014 1 -20.4122 -23.429 3.6615 -2.06736 -1.23609 7.44858
1015 1 0.900508 7.49157 -23.5119 -0.833918 -1.34551 -2.37363
1016 1 22.822 5.31128 9.45848 -2.64436 1.6523 1.88279
1017 1 -7.09264 4.99152 16.0533 2.1904 -3.60549 1.87857
1018 1 -22.5998 -20.809 7.00344 5.22735 2.56101 -1.23925
1019 1 7.03071 18.5227 4.68167 3.99487 -0.51622 3.51954
1020 1 -18.7395 46.3732 7.27309 0.174128 -0.0660451 2.16538
1021 1 21.5997 -19.0347 -4.77467 0.41356 -2.646 1.15587
1022 1 -9.67399 -21.3255 -14.4055 -0.0760496 -3.57006 -4.39261
1023 1 10.1908 -0.258383 5.02667 -1.47513 0.781936 -0.587631
1024 1 -3.12352 7.35946 20.9453 2.8758 3.55665 -3.37077
1025 1 9.56128 5.96799 -19.7859 -0.917008 0.336735 0.660372
1026 1 0.90346 10.8961 -13.2769 2.97807 -0.014651 -3.99193
1027 1 -21.2306 -0.0445825 11.442 2.3703 2.69902 -3.3969
1028 1 -6.84756 -12.3847 -13.1995 0.781843 -2.24343 -0.469576
1029 1 13.4217 9.46556 -3.35764 0.557525 -0.793514 1.30197
1030 1 -17.69 -17.2463 23.174 1.43637 1.73797 1.04637
1031 1 -6.90949 -10.9685 -6.53014 -3.54679 -3.10506 1.07337
1032 1 13.5754 6.11044 17.2796 -0.721643 3.14109 2.77581
1033 1 -1.50824 -17.8656 1.64206 3.59583 -1.83686 -1.54512
1034 1 -13.529 11.5068 -11.4087 3.9305 -3.42322 0.521014
1035 1 9.1969 17.5686 -2.02336 -1.98587 -0.459672 -0.183837
1036 1 1.43246 -14.4435 17.1204 1.20185 -0.31328 0.257263
1037 1 -9.47786 -16.3152 16.2814 -1.04625 0.234715 -2.90011
1038 1 -3.0715 9.88082 12.6167 -0.702857 0.137428 -2.29604
1039 1 19.6295 22.9702 -9.58491 5.53636 -2.1901 4.22273
1040 1 8.61575 -4.68656 -23.1189 2.66056 -0.494125 4.23078
1041 1 -2.42228 9.77717 -14.1726 1.90082 1.16309 2.70241
1042 1 10.7831 -6.7847 -23.1564 3.56993 -3.72497 -2.85783
1043 1 18.0511 8.8665 -4.98731 -1.90814 -8.3445 -1.68924
1044 1 -5.12038 22.0063 -12.2307 -1.51446 -5.22352 -0.626869
1045 1 -4.81084 -1.44395 23.1837 -2.12403 -1.2258 -0.445277
1046 1 17.3362 15.7166 -14.5245 6.20713 -2.64412 1.69448
1047 1 -18.9293 1.16059 18.2883 -3.2536 1.42859 -0.929933
1048 1 -1.04541 1.32193 -22.8972 7.76288 6.34782 -4.69465
1049 1 22.0751 -1.19942 -12.9715 -0.789822 -2.86316 1.82235
1050 1 14.4072 21.9112 17.2153 -1.09435 3.67329 2.46577
1051 1 -0.569969 2.17598 11.4101 -0.926923 0.365741 -4.39048
1052 1 -19.9005 -4.38064 -21.2086 -4.64176 1.03972 -1.08787
1053 1 7.06246 6.07344 -21.2096 -4.17729 1.19903 -0.799586
1054 1 -17.3223 23.5086 0.774305 2.45698 0.494673 0.0776439
1055 1 -7.63936 19.0387 13.7412 2.4834 2.25784 2.272
1056 1 -10.8807 21.4531 6.34756 2.80794 2.00234 -0.0605819
1057 1 -7.17629 -19.1243 -16.5019 -0.729527 1.98839 -2.12877
1058 1 -0.171696 -1.76264 -9.13861 1.31411 -0.155918 2.37446
1059 1 6.65557 -22.2229 -17.8589 1.1874 2.75274 -2.61774
1060 1 -20.1765 -9.96314 5.5324 -1.28277 -0.330991 2.43274
1061 1 9.29665 6.34641 -13.6904 -0.113291 -5.08282 3.93646
1062 1 -8.7224 -0.850594 10.4311 1.94787 0.554002 2.651
1063 1 0.992445 18.9696 12.0123 -2.20502 2.72292 -2.61705
1064 1 15.1676 -17.7829 6.31768 -2.44559 -5.3737 -5.51164
1065 1 11.3974 20.0804 -18.2092 0.150609 -0.327986 -1.04453
1066 1 13.0371 -5.47564 23.0206 2.19978 -0.470142 -0.360403
1067 1 -22.6813 5.4947 7.64137 3.8562 0.79789 0.173529
1068 1 -2.64917 15.0661 1.37605 4.23611 0.160959 -0.799351
1069 1 -21.4913 20.5872 -18.4758 0.96302 -3.02148 -2.8353
1070 1 -7.88343 8.34716 9.91011 0.628802 -0.836531 1.12729
1071 1 -18.1641 26.1793 -12.1001 3.28973 0.979341 2.93267
1072 1 14.4794 8.30425 -18.2041 -1.76012 -0.216434 0.0242584
1073 1 -0.265331 46.2984 -12.6642 -0.920075 2.19774 -1.70004
1074 1 -10.1685 12.8055 -17.5864 -3.24747 -0.404926 -0.447951
1075 1 0.639885 11.8715 16.2451 -0.860407 0.665018 -2.11957
1076 1 21.1657 5.73108 23.3632 4.47053 -1.35053 -2.78724
1077 1 16.3808 -7.56692 -7.56762 -0.431639 -0.74168 -1.09021
1078 1 7.91024 -10.9359 11.6243 1.56209 0.960585 -6.26697
1079 1 -14.4306 0.625043 10.6653 1.71133 -1.97677 3.47357
1080 1 -19.2782 -6.40437 -7.9208 -4.72404 -1.72405 -0.264844
1081 1 6.8358 -5.96882 16.4208 -2.13009 -1.64563 -2.62461
1082 1 -16.3492 -18.2056 -6.1434 2.9569 -2.02988 5.01367
1083 1 -0.492346 21.7229 -18.1214 1.58186 2.40356 -5.60319
1084 1 -4.55686 -17.4445 -5.11492 1.66006 -2.86437 2.54823
1085 1 -9.7574 -14.8638 -1.34164 -2.98041 1.28751 1.82197
1086 1 -13.1009 9.80598 -5.08601 1.67484 -0.721771 1.31158
1087 1 9.59479 -4.06454 -19.4601 1.98718 -0.290342 -0.195947
1088 1 -21.5261 23.9509 4.33476 -3.40193 2.05394 -3.60203
1089 1 -14.1143 6.47608 15.354 3.35599 -4.44548 1.07384
1090 1 -20.7653 -17.8186 -12.2405 -3.25775 -2.43523 1.19203
1091 1 -14.3108 10.7698 8.05585 -4.96958 -4.46521 0.146832
1092 1 -19.3999 -18.5762 -6.75772 4.61112 -2.82361 -0.466965
1093 1 -23.9888 8.66003 3.1817 0.289528 1.31674 -4.59041
1094 1 -24.0661 19.5193 -23.4334 -3.41976 4.75266 3.85276
1095 1 -7.2781 25.4891 -12.4026 1.76316 4.70174 -1.75276
1096 1 9.57345 15.2614 -14.4735 -2.96467 2.7295 -3.30439
1097 1 16.0109 26.268 12.6644 -0.619055 -2.40862 2.9173
1098 1 -9.42466 -3.74573 19.4489 -3.6414 1.46418 -3.12217
1099 1 17.5545 12.4699 18.6193 1.58078 0.918718 0.402605
1100 1 8.34842 -8.55653 19.1249 -4.85379 0.160994 0.23951
1101 1 9.16948 -15.7433 11.6845 1.10395 3.21523 -2.85886
1102 1 13.4774 -15.2357 16.7738 2.07863 -2.40131 -0.0362131
1103 1 21.6161 6.67223 16.3722 7.824 2.28825 -1.49302
1104 1 -22.1534 -1.97308 8.44261 -1.45142 1.93855 2.47995
1105 1 21.5782 -0.695176 0.0352847 1.63761 -0.396266 -0.460645
1106 1 -16.1097 -17.6746 4.298 1.40865 0.144597 -2.95311
1107 1 1.40566 -11.3315 -1.74771 4.79729 -3.0184 -1.23079
1108 1 12.742 15.0695 21.3337 1.37584 5.06281 -1.08726
1109 1 -17.7898 -5.7251 4.26605 0.95423 -1.15885 3.71823
1110 1 -13.6186 26.8338 9.77081 -0.342473 1.37566 3.65446
1111 1 12.4878 -7.78625 8.82873 1.18135 3.73334 0.564179
1112 1 -1.00572 -18.3599 20.8592 5.44561 1.6446 5.0113
1113 1 -19.4808 23.5918 23.1321 -4.905 3.47606 0.665778
1114 1 -17.0101 -0.551783 10.7176 -0.349064 -1.58891 -0.948908
1115 1 22.7776 22.2093 23.4291 -4.01137 1.64949 3.38368
1116 1 -13.8486 1.50665 6.24112 1.68049 -2.34475 3.00514
1117 1 -2.97325 15.74 9.5766 -0.238911 6.51452 0.643303
1118 1 19.315 -2.08264 -15.0633 -3.25444 -0.518656 -1.68783
1119 1 8.50663 -13.185 6.78604 3.96959 -1.51085 7.12803
1120 1 -6.47778 -11.8407 -2.24943 -2.0144 1.71619 1.48065
1121 1 12.8684 -3.63827 -22.3119 -4.27449 4.33192 -3.00516
1122 1 -10.4728 22.9835 -1.42711 -1.9246 1.77042 -3.37454
1123 1 14.7278 -7.44432 0.179482 8.72136 -3.5001 -1.99059
1124 1 -2.25251 11.9629 -17.7966 -5.52365 1.74411 2.78779
1125 1 -22.8565 7.82877 5.66556 1.57386 -1.32343 3.4365
1126 1 -1.39097 -13.6819 -11.5235 3.10929 -1.95669 -2.9
1127 1 14.3484 15.7072 -8.40053 0.148279 0.693074 -1.76448
1128 1 0.97922 12.4455 0.323982 2.0171 0.9631 1.31654
1129 1 1.41384 -7.69864 23.765 4.36604 2.80385 0.630391
1130 1 -5.84293 13.8697 -16.0207 -0.124302 -3.2345 -4.00216
1131 1 18.1604 -9.88052 -3.72142 -7.48985 -0.84248 4.74272
1132 1 23.2195 -4.76835 18.356 -5.00051 -0.776635 0.0108915
1133 1 10.8891 10.951 18.6586 -1.29572 1.58759 -1.49606
1134 1 14.8369 -22.5913 21.0252 -1.99145 -0.0759202 -2.22047
1135 1 5.08623 -1.28056 -23.3361 -1.41599 -1.77151 3.20014
1136 1 -18.942 -21.557 23.6448 4.70143 0.290175 0.913116
1137 1 6.19581 4.42704 4.91343 -5.27057 1.86673 -0.79862
1138 1 -22.6038 -23.155 5.4046 -3.41184 -5.26336 3.07293
1139 1 -8.87545 11.9133 4.51354 2.346 -0.0889485 2.77162
1140 1 17.4626 -8.54544 -21.3526 3.86177 -0.880022 -1.59783
1141 1 -20.1478 9.43669 11.712 -0.3868 3.65504 -5.00711
1142 1 8.31134 15.3241 10.3882 -5.3805 2.83484 2.01995
1143 1 2.39318 -10.159 -11.9828 -0.901531 1.27763 1.53662
1144 1 19.6322 0.164997 -12.97 -1.35929 -2.31011 4.19724
1145 1 2.68302 21.6421 23.3061 -4.89644 4.7079 2.74803
1146 1 10.2274 18.8034 19.2978 1.42159 0.825544 -6.36182
1147 1 -5.49587 9.77505 -1.13624 0.14894 3.84934 1.93778
1148 1 -10.5793 11.6814 13.7771 1.54805 1.15807 0.0566701
1149 1 1.81621 -14.9412 10.6275 -3.39897 0.574386 4.36395
1150 1 -14.1252 16.4319 10.5797 5.83541 -3.81278 -4.5587
1151 1 -20.428 -23.8603 17.5285 -4.72766 -1.4737 3.08363
1152 1 -15.2143 13.9943 19.213 1.98333 2.85346 2.0192
1153 1 -2.91433 -21.5424 -0.425018 -1.60632 0.615408 3.81082
1154 1 4.05782 12.7911 -21.0623 -4.67611 0.27692 -2.92779
1155 1 7.4599 -21.0853 15.1799 -1.70543 -2.17282 -6.37109
1156 1 -14.8705 -10.6985 -21.946 -3.00576 3.03413 3.13055
1157 1 1.85914 0.0181286 -10.4433 -0.76003 0.352602 -1.98285
1158 1 -16.0865 2.01153 18.1196 3.13648 -1.47684 -1.84225
1159 1 20.2971 -8.18344 13.4874 1.95054 0.884448 8.99257
1160 1 -9.92257 7.34863 -10.2429 -2.81152 4.63572 2.49567
1161 1 -7.27655 46.0517 -20.2163 -0.421809 0.753792 2.74927
1162 1 10.1695 9.53047 2.56984 -1.14153 -0.661489 -0.279135
1163 1 -21.0389 44.8912 12.5959 3.3264 -4.44608 3.77206
1164 1 -20.2233 -14.4329 10.3265 3.84507 3.09541 1.83772
1165 1 15.3426 23.5928 0.16781 -1.38121 3.65427 0.334528
1166 1 -15.8559 25.717 16.1385 -1.13264 -3.9954 -5.08862
1167 1 0.624889 14.9959 20.0663 0.411964 2.6915 4.26318
1168 1 10.6669 -10.6721 -2.55681 -1.00424 -3.43041 1.22923
1169 1 13.4837 -7.94189 21.6166 2.46935 -0.751874 0.20769
1170 1 4.17316 15.4677 10.5536 0.441688 3.135 -7.04463
1171 1 20.6756 -1.36194 -8.95607 0.108585 3.08385 1.30514
1172 1 -22.1569 -16.3884 -16.4891 -3.4755 1.95104 4.62215
1173 1 7.34347 -20.6643 21.1788 -4.09816 -0.609981 -5.56519
1174 1 -20.6723 -20.9174 -19.4557 2.72004 -0.0613752 -3.43367
1175 1 -10.7854 15.0783 22.0124 1.77159 -3.57987 6.35195
1176 1 -2.29858 -13.4883 13.8813 -2.87944 0.737539 3.46947
1177 1 8.76361 3.07741 -16.9997 0.728215 -0.752386 -1.04122
1178 1 -3.30711 8.53412 9.98839 4.9986 2.53816 1.62589
1179 1 7.30586 -8.01763 -9.27284 1.60771 -5.62384 3.72848
1180 1 -8.87171 45.7896 -12.8484 -3.37812 9.35716 1.67231
1181 1 9.95906 18.1825 -9.54099 -1.01879 -0.93595 -1.0402
1182 1 21.1008 8.0471 0.511448 -1.35998 -1.75573 -2.91578
1183 1 0.754741 -5.52559 -13.9091 -1.65934 -0.270242 -1.75328
1184 1 7.07976 20.8376 23.2787 -1.28042 2.18185 6.34329
1185 1 15.7279 13.0538 -23.7579 2.69515 1.63335 -5.35291
1186 1 5.84964 -9.32474 -0.423162 -4.02854 -1.22528 -1.09124
1187 1 -12.8442 17.0386 -7.39477 3.25769 4.6939 -6.6645
1188 1 4.75687 -0.707361 -0.223634 -2.62821 2.0049 0.835702
1189 1 14.2721 14.3056 4.72326 0.110817 1.72284 -2.63939
1190 1 13.6263 -1.60533 -17.0739 1.57926 3.63936 1.52037
1191 1 -3.4075 -0.880873 -19.6353 -1.13168 -2.18722 3.06592
1192 1 -15.1257 -0.0574575 -10.3318 3.52588 -0.515154 -2.21268
1193 1 10.7765 -1.43101 20.8114 -5.27207 3.97369 -1.0755
1194 1 7.36313 16.8949 -5.61517 -2.62811 0.68961 1.50639
1195 1 14.8032 -10.0951 -16.325 -0.959944 -0.248205 -1.3552
1196 1 6.69024 12.9923 -11.4712 0.484267 4.24111 -1.47947
1197 1 -18.306 18.6359 20.9451 -1.73479 0.83634 0.366244
1198 1 19.5425 -23.6643 9.87761 -3.09741 2.23597 1.71473
1199 1 -14.996 6.60765 -11.3355 -3.22336 3.43776 -0.714783
1200 1 11.3088 -10.1209 12.1451 0.161231 -2.64393 2.09944
1201 1 22.9178 -20.1692 20.1761 -2.45096 2.79458 2.48803
1202 1 -16.1834 -1.43323 -4.47584 4.37024 -1.27828 0.200637
1203 1 -14.8174 -13.2364 -16.2418 1.80177 -4.16922 1.61248
1204 1 -1.77002 23.3033 1.7394 -3.32251 0.229354 -3.21663
1205 1 -4.68437 -19.3489 12.3877 -3.54517 1.10267 -0.252151
1206 1 -23.5685 -20.6394 -22.8346 2.56173 2.49101 0.743551
1207 1 15.4566 -6.54971 -18.5805 -0.880359 -0.18477 -1.37608
1208 1 22.9549 -6.15856 9.12649 -1.5488 1.64665 -7.64546
1209 1 -0.77377 -6.03762 -22.7643 -3.41704 -0.400888 3.18628
1210 1 -3.428 21.0708 -1.82937 -0.459798 -0.86592 -2.32766
1211 1 -18.2526 -12.1562 11.1061 -4.76436 1.87515 2.2121
1212 1 20.4093 6.16794 -9.81691 0.144537 -3.65298 -1.93655
1213 1 -22.7717 -16.7612 18.6166 -1.15788 0.234541 -1.19016
1214 1 16.2252 -2.70649 -1.17478 2.00063 -3.40786 2.48053
1215 1 6.63312 8.74906 -10.2598 -1.66044 1.49083 -0.868554
1216 1 12.0325 -4.29168 -9.3262 4.75274 -2.92826 4.97823
1217 1 15.1579 -14.8868 2.52193 -2.02851 0.52276 -1.28275
1218 1 14.7267 -4.93932 -9.87725 6.16627 3.00215 -0.742907
1219 1 13.8474 14.6539 9.51031 -4.15352 2.53594 5.53933
1220 1 -21.112 23.3318 15.6566 4.70758 2.12224 -0.682704
1221 1 3.14868 23.9124 -19.7815 -5.02298 2.77771 -2.63996
1222 1 19.3674 22.1155 12.1092 1.45862 2.97534 -3.3019
1223 1 -22.6421 8.21996 9.26687 -5.19466 0.127779 -3.9998
1224 1 13.1704 -8.05929 14.6746 -1.37962 -2.09653 -5.43791
1225 1 1.4939 -20.5972 19.3785 0.283266 1.64009 -1.33151
1226 1 -22.4463 14.4378 2.74986 1.95175 -2.39995 1.0128
1227 1 -2.97266 -7.89902 0.986731 1.89641 1.80234 -2.28373
1228 1 -23.4421 -21.1057 -12.5729 -3.62653 -0.773663 1.98169
1229 1 18.9397 -17.8937 -0.82118 0.821634 0.264967 4.29966
1230 1 -13.5939 -18.117 -9.74495 0.0155291 3.95745 1.13283
1231 1 -20.7828 -8.71301 -4.65711 -0.374757 -3.84712 -1.22086
1232 1 -20.0327 18.4673 23.3415 -0.50183 -0.673944 2.86345
1233 1 -8.18664 1.29287 -17.9868 0.427054 -5.37635 2.89496
1234 1 15.7613 13.9213 7.35018 -0.509246 -2.81439 3.8749
1235 1 11.7323 16.5349 1.69373 2.36948 2.33103 0.173668
1236 1 -5.95233 -20.6576 14.4957 5.36221 8.38715 -1.34205
1237 1 -17.6883 22.7185 14.6609 0.532928 -3.26667 -0.692976
1238 1 11.2168 -4.1198 -12.2433 2.67771 0.831433 5.09976
1239 1 -1.43978 -23.1969 6.64904 -6.52631 4.97876 -5.25048
1240 1 -5.00974 -23.331 2.19589 -0.215987 -1.69797 0.775953
1241 1 11.2019 14.4035 -19.6198 -0.738909 6.48638 6.04655
1242 1 8.31045 -18.4962 -15.23 3.64196 2.95586 2.54195
1243 1 11.1496 18.004 -21.8172 4.6142 -1.74538 6.62819
1244 1 -16.2896 1.5606 7.29847 -2.11504 0.928262 0.811975
1245 1 -17.9092 12.03 -22.7164 1.13032 -7.50269 3.73226
1246 1 -5.45552 -16.2515 5.73616 1.5061 -0.588856 -2.07933
1247 1 -5.13056 -4.47851 -8.25284 0.318928 5.34401 1.99745
1248 1 10.9527 5.1483 18.0502 -2.87419 0.12883 1.69227
1249 1 8.54077 13.2953 -20.2349 -1.3967 -2.44072 0.657686
1250 1 6.28877 1.80869 20.9197 0.642148 -0.130603 -0.257974
1251 1 22.7956 1.37607 22.0389 -0.267761 -5.2813 -2.06607
1252 1 20.7891 -20.2143 0.152358 3.22662 -2.85035 -0.737675
1253 1 12.4465 21.8579 -2.19414 -0.742998 -1.62682 -2.44716
1254 1 -21.2538 -18.45 6.33566 -0.945671 -4.58368 -1.07405
1255 1 -5.08774 -9.82476 8.98387 2.68207 1.17472 -1.75563
1256 1 5.54906 -18.9646 -20.8905 -2.42238 -2.24626 5.67319
1257 1 -5.23426 -23.2407 -12.8061 -3.34551 -2.35229 0.931193
1258 1 -15.2049 9.98175 21.398 1.25668 3.79466 -1.69384
1259 1 18.568 -11.8778 7.6911 7.655 -1.49406 2.49134
1260 1 3.94392 -10.8609 -16.298 2.40897 -1.56039 2.95405
1261 1 11.4003 -8.19205 -9.34559 -0.749631 3.66191 -4.77873
1262 1 13.1831 -14.4916 -5.74556 0.964303 2.18342 0.647656
1263 1 -14.8426 -6.082 -2.57971 -1.53555 -1.37405 0.716411
1264 1 -22.8536 -9.88709 -2.54851 -2.17271 0.688746 -4.11534
1265 1 -7.17761 14.4208 -11.6889 0.573526 1.18633 3.61308
1266 1 17.3725 -7.50356 5.89531 1.7218 4.77676 4.47424
1267 1 22.7003 -14.4825 3.76174 0.255098 -1.28203 -0.876298
1268 1 -21.4096 -13.7902 -17.7969 0.987901 3.1242 -8.04452
1269 1 9.386 -7.71767 22.0868 -0.917178 3.21087 -2.22539
1270 1 21.5563 16.0356 12.048 1.83358 -1.74856 -1.36062
1271 1 -0.880103 3.41407 18.4699 -0.0826093 3.68593 2.33388
1272 1 -23.9216 9.36308 14.3276 -0.832917 -2.82868 2.17445
1273 1 18.7324 5.70705 19.3911 0.311326 2.49507 9.50532
1274 1 20.0379 18.3779 -17.4329 0.330308 -3.36667 2.78851
1275 1 3.03836 4.54558 11.5474 2.81701 -3.24646 -0.0929054
1276 1 0.140533 -9.06165 -19.3497 3.09089 -2.40746 1.61677
1277 1 -9.20633 25.1124 -5.32565 5.6094 1.61861 -2.2694
1278 1 16.1703 -6.64317 -22.7526 0.538406 3.22642 2.65887
1279 1 -20.7815 15.7709 -12.1199 -2.21463 -0.821349 -4.48614
1280 1 0.627135 -4.02817 -3.7083 1.32692 -4.09414 3.61105
1281 1 15.0022 -11.7619 20.8932 2.03787 -4.88154 -1.08068
1282 1 12.7147 -20.0575 -2.69763 -2.85923 -0.232869 -2.34514
1283 1 5.39982 -20.5979 -13.8085 0.249123 -2.53455 1.68566
1284 1 5.15782 -12.2369 0.486968 -1.51185 2.27627 -0.483236
1285 1 -11.2424 24.653 16.0426 2.71635 0.388305 1.1275
1286 1 -6.30585 6.63857 -13.9002 2.5125 -0.0186416 0.223021
1287 1 9.95334 -19.2948 21.5483 0.543186 -1.24582 1.57156
1288 1 -2.17295 -5.53414 -13.9885 1.60362 -0.65708 -6.30001
1289 1 20.1394 -10.0487 -7.03643 0.477527 1.99101 -4.91837
1290 1 1.65673 7.2723 8.73742 2.90326 0.844277 0.605107
1291 1 -18.8891 16.6739 1.14372 -3.51985 -0.0123081 -0.635139
1292 1 -4.70837 18.4247 -1.41606 2.20209 -3.36333 1.27088
1293 1 -8.27435 0.76637 -0.870543 -2.263 -4.57813 -1.95095
1294 1 14.951 -11.2403 -8.06524 0.868429 -6.02105 5.53802
1295 1 15.0514 5.84087 -1.52035 0.246569 -1.55028 1.3129
1296 1 -8.15557 -11.8918 4.17193 -0.66143 -4.83975 2.38354
1297 1 15.3673 15.8158 15.8991 1.15369 -0.329677 -1.57831
1298 1 0.00112314 -8.02049 -1.14157 -1.07007 -2.14893 -1.36915
1299 1 -10.8347 -10.1058 -5.91949 0.16213 0.936017 0.926023
1300 1 5.00442 -1.87779 -3.1404 -4.36767 -3.20265 -3.83171
1301 1 11.978 13.841 -13.1366 3.06305 4.38122 4.28737
1302 1 -1.90661 -2.72014 -21.7135 1.37296 0.715592 -0.224466
1303 1 -6.00158 -7.95805 -14.7213 0.307315 3.88675 2.58293
1304 1 3.81595 0.274075 -4.42649 2.29753 0.472059 0.201631
1305 1 -5.82397 5.09842 11.3757 -4.0319 0.341363 -4.89444
1306 1 6.13323 -22.0033 -1.42516 3.64866 -0.516773 -2.08605
1307 1 -14.0919 44.8102 -3.96118 1.8617 0.256672 -5.8706
1308 1 -19.1707 -0.247995 5.31988 1.28174 -4.23444 -0.931605
1309 1 -2.95548 -10.0774 -6.69143 1.27586 2.02096 -4.01535
1310 1 0.237009 -18.1946 -4.97898 0.607876 -5.96925 -0.438543
1311 1 2.70555 18.6991 -15.0075 1.60475 -2.21675 0.379203
1312 1 -15.3171 -7.95362 7.44198 4.9861 -2.01934 -3.25319
1313 1 17.3355 18.7938 21.9792 0.920161 2.38502 -1.41939
1314 1 -16.0095 10.0459 -19.3235 0.902466 -3.20053 -2.35863
1315 1 -19.6306 -13.8238 -22.9463 0.996264 6.19064 -4.8041
1316 1 21.8151 -11.6249 -15.9654 1.75102 2.33788 -0.125183
1317 1 -11.3593 7.7669 -13.794 -3.42854 -4.65109 -0.0896638
1318 1 22.2863 18.9127 0.206553 1.00217 1.85556 -1.73591
1319 1 10.4819 21.4575 -0.0652618 -4.4025 0.822323 2.60614
1320 1 15.8204 -9.02279 -12.0092 -4.75003 1.85035 -5.15338
1321 1 8.89615 -19.8308 -8.99637 -1.02153 -1.01535 -4.29407
1322 1 0.864724 -16.0417 -6.8552 4.79194 -1.89399 5.02527
1323 1 13.6601 -13.7889 14.4244 3.73093 4.70455 0.918591
1324 1 -9.79797 -20.6649 -20.7448 4.29304 -0.914989 0.0451985
1325 1 -5.37841 17.1659 5.12841 -0.242611 -0.464478 -0.6683
1326 1 -17.6055 -19.6761 21.8585 -0.836011 4.81027 -2.63745
1327 1 -9.04516 22.2329 -23.0303 1.47189 -5.6963 2.46504
1328 1 11.2698 15.1371 4.34664 -4.84841 0.710669 2.16792
1329 1 22.3834 -15.3605 -2.474 -2.52802 -0.666524 3.40213
1330 1 -9.43946 15.355 -5.30412 -2.70389 1.96096 -1.35722
1331 1 -18.4775 6.00557 -1.90755 -1.99624 2.66787 2.36046
1332 1 12.2784 -20.8572 -22.6898 0.883389 1.0963 2.57512
1333 1 -1.37184 8.92962 5.63927 -3.83419 -4.38781 3.04869
1334 1 14.3905 -8.90637 -9.44523 0.839137 6.66793 -0.13467
1335 1 -14.6287 27.4845 -15.6675 -1.13387 0.221549 -3.92511
1336 1 2.69562 19.3265 -6.74197 -4.35071 -2.87288 -0.648504
1337 1 6.81263 -20.1548 8.26544 -0.759314 3.09512 -1.11138
1338 1 -0.149921 6.08228 -0.334486 -2.07313 -1.15909 0.621906
1339 1 1.86243 -18.2683 20.7916 -3.92565 0.303613 4.9759
1340 1 -19.5849 19.3785 11.5078 0.100338 -1.41861 6.9527
1341 1 4.45632 9.49857 11.8729 2.8588 -3.69829 0.512342
1342 1 3.85026 -23.8574 -17.9578 3.64702 4.60547 -3.37754
1343 1 -13.6606 -8.86406 -3.32417 1.89168 1.31736 -0.480428
1344 1 20.4404 -10.8879 5.46782 1.02719 -1.1824 -3.71951
1345 1 22.1786 2.02188 -18.245 -1.22036 -1.37467 -0.793616
1346 1 15.8277 -6.43326 -15.3228 0.864087 0.219375 8.11388
1347 1 -16.9476 -13.2414 -19.7718 -2.09196 -1.82628 -4.65439
1348 1 3.36196 12.3182 -13.4509 1.07537 0.50047 -4.54789
1349 1 1.79251 -11.7897 8.35817 -2.01428 -0.35868 -0.943398
1350 1 -15.1423 0.694129 -2.57057 -3.5009 -4.82004 -2.81136
1351 1 19.6823 -15.3504 17.2061 7.08725 1.40264 -2.62919
1352 1 5.98951 24.5593 21.0857 1.52858 -1.62333 -0.604804
1353 1 6.4349 24.1884 -1.96996 -0.84899 -2.4079 1.8212
1354 1 -1.67262 -8.32454 -13.9418 -0.0676093 -4.06853 5.59334
1355 1 -4.69293 26.1042 18.0759 -5.31017 -3.34265 -1.26557
1356 1 -19.774 -11.869 -1.59919 2.08852 -2.97442 -1.78313
1357 1 -20.5101 -12.001 -11.0574 -2.61099 -3.6522 -4.72323
1358 1 -12.2113 25.2942 -23.1203 6.77667 4.25248 2.53307
1359 1 -21.4806 46.6859 23.0522 2.09342 0.177778 -0.368993
1360 1 16.3023 -13.6931 6.48045 4.8402 -2.35982 -0.285581
1361 1 -6.3593 -21.8903 4.01461 -0.875264 -1.19967 -2.25029
1362 1 20.084 21.8187 7.37051 2.22907 -0.681932 2.52469
1363 1 -14.2574 -11.3824 -19.2325 -0.519154 -0.117063 -1.35126
1364 1 11.9171 -12.2965 -14.1288 -1.64237 0.708964 -2.78398
1365 1 6.35084 -6.10755 -18.7222 2.84445 3.40105 5.17307
1366 1 20.2739 -16.3341 1.20524 0.948881 -1.10446 5.2487
1367 1 -9.92272 -12.2861 10.8628 -2.56489 -1.097 4.58862
1368 1 -18.0053 18.359 -1.00918 1.21108 1.02887 -2.33118
1369 1 22.2481 2.43268 -3.6198 -1.70195 -3.08651 1.5989
1370 1 -2.18318 -10.4741 21.3527 2.04892 6.14008 2.34338
1371 1 -20.7675 11.822 -2.64318 2.03322 2.18157 -5.39729
1372 1 -8.90407 12.4395 7.19389 -0.419335 3.9346 0.0773471
1373 1 -15.1932 -7.13849 14.3812 -3.31276 -2.97822 7.71087
1374 1 -18.5841 24.5444 16.7713 0.271411 -0.272116 1.75503
1375 1 18.4696 -9.51447 4.03267 -0.504004 -0.777674 -0.505971
1376 1 4.99849 7.34459 -6.45813 -6.85988 0.4021 -6.2517
1377 1 -14.901 24.6684 -22.7389 1.86747 -4.02618 -0.522893
1378 1 7.48193 -10.7505 3.40743 0.482204 3.95874 -0.433175
1379 1 -18.7689 -19.1137 5.30547 -0.0548443 5.50577 2.15694
1380 1 13.8609 20.3874 -6.23814 0.11302 -1.21637 0.376351
1381 1 17.8761 18.0065 9.91692 -1.10018 -1.74447 -3.59829
1382 1 14.7519 -12.4481 9.54871 1.39755 4.93578 -5.61775
1383 1 -6.51694 44.6984 -16.2227 -1.5837 2.11347 -4.81015
1384 1 0.707415 20.2768 -13.6882 -5.48788 -4.16234 -3.37604
1385 1 -18.3284 22.2559 11.9579 0.874383 4.94948 -0.0910101
1386 1 -8.04095 8.71129 2.14996 -3.18652 -0.712333 1.36578
1387 1 -18.6005 -0.24682 -0.644582 4.71406 -1.3809 -1.52135
1388 1 11.4817 -4.26069 18.5692 -1.57984 4.11891 3.39311
1389 1 18.4383 -7.54177 0.396021 -0.281967 2.35441 2.8185
1390 1 5.19234 -2.17242 12.1935 1.44363 5.03824 0.55278
1391 1 -13.0487 22.5787 21.8545 -5.51274 -1.8022 -4.59312
1392 1 19.9479 3.70105 2.63659 0.643582 -1.73809 -1.73704
1393 1 -0.357009 -7.01335 1.72537 -1.03219 -0.0986466 1.59656
1394 1 5.01955 7.27303 1.86765 -8.78396 0.0673118 -5.24609
1395 1 0.898293 9.87389 -7.60714 -4.39977 2.42636 1.37795
1396 1 -18.2221 -9.19576 7.95806 0.763399 3.80085 -0.982103
1397 1 2.26857 20.8222 -9.27773 -0.523883 1.23977 -1.41669
1398 1 2.57277 21.5594 -4.69092 -1.75767 0.124102 -4.98438
1399 1 -1.29778 -22.8256 -2.40408 4.16733 3.87561 2.51216
1400 1 -13.2818 16.4791 -21.5854 0.395852 2.02285 -1.23222
1401 1 22.4522 -22.7754 21.3458 0.81198 6.31154 -5.29708
1402 1 -18.9164 -5.02309 -15.5708 4.37364 8.08214 -1.47373
1403 1 15.9228 45.868 14.4355 -5.67907 -1.91419 3.04365
1404 1 18.6743 -10.4199 10.6547 -3.4982 0.65801 0.709561
1405 1 20.3603 21.1086 -22.8595 -1.92545 2.04859 -0.38642
1406 1 -10.3665 2.73403 -11.703 -0.358838 -2.44729 -0.368208
1407 1 -21 9.82693 -0.49431 2.72724 -1.33168 -4.24115
1408 1 -7.09236 -4.83816 -11.3007 -3.60474 -3.22734 -0.0371109
1409 1 -2.96481 5.45504 -22.3593 2.59787 -6.37573 -9.84704
1410 1 1.52849 -21.6761 -20.573 -4.87029 -4.31447 -0.464487
1411 1 18.0864 -0.0418158 -21.7586 1.92495 -0.352343 0.724719
1412 1 -20.7057 12.5761 -11.9354 0.110503 2.08192 -4.69081
1413 1 -15.73 2.65868 -20.3065 4.1411 3.99789 2.10166
1414 1 5.21575 23.8674 4.02223 -3.21733 -1.44499 -2.23565
1415 1 -5.45588 -22.9236 -0.417769 -1.10937 2.69031 -5.12726
1416 1 -22.8233 -8.13384 8.34525 -1.28492 4.51357 -1.70627
1417 1 11.1321 5.52507 10.6473 -5.44006 4.09234 0.872613
1418 1 14.0523 -9.71555 1.87651 -2.5496 -4.86572 -2.4804
1419 1 8.65557 21.0468 -4.35651 4.48873 -0.785528 3.09237
1420 1 -11.0146 20.3136 -20.2766 0.34626 0.913874 -1.74649
1421 1 20.8158 -13.7156 6.8072 0.338855 0.788499 2.44052
1422 1 -11.1204 -19.6393 -16.0986 -2.93279 1.01084 3.56314
1423 1 8.61904 20.1696 -17.4646 3.13371 1.6945 -1.22622
1424 1 21.0067 13.2984 -6.01337 -0.690142 -2.68234 0.0108981
1425 1 1.44692 4.39151 -11.4201 -0.836034 0.743576 1.70169
1426 1 4.25008 -19.1603 1.44716 -3.89433 -2.87067 6.40372
1427 1 19.6189 -15.4567 -2.2458 1.81469 1.59377 0.545127
1428 1 -5.71144 -13.1794 22.3829 -0.653574 -1.86586 4.64296
1429 1 -21.7494 -16.6624 4.33711 -0.716073 -1.40039 0.961494
1430 1 3.07514 16.4234 5.02697 0.3763 -1.15377 2.46969
1431 1 -9.79285 1.20177 -9.17722 1.22934 -3.37685 -4.86802
1432 1 -13.141 5.81114 21.0242 0.366312 -2.73261 3.46573
1433 1 -17.6659 -12.8366 -16.8207 -1.11988 -2.28603 -0.245915
1434 1 -22.7688 6.29505 20.0282 -3.3963 0.871614 2.11878
1435 1 17.0533 21.4549 -3.59844 1.1922 -0.182437 2.29393
1436 1 -17.3179 -4.89596 -13.1262 -5.36712 3.28149 0.68926
1437 1 5.76109 15.3755 -20.6039 2.20155 2.28413 -4.28301
1438 1 -3.98701 -2.7964 -10.2948 -3.33332 1.35288 3.01566
1439 1 -18.112 13.2898 -12.4401 1.76845 3.1482 -0.475672
1440 1 -21.5496 15.4281 -1.33087 0.824764 -3.50468 -3.27771
1441 1 -18.5122 -18.1366 16.684 4.3356 1.13563 -4.44763
1442 1 -20.958 -3.64079 -5.80809 -4.69868 -2.10417 3.81392
1443 1 16.867 -12.8244 18.469 -0.350962 -0.0129918 -4.60299
1444 1 14.0727 19.3153 -22.457 0.0213122 -4.01735 3.72587
1445 1 13.7215 -20.9386 9.25091 2.32644 -5.53331 0.00628265
1446 1 3.79783 -9.11232 -9.84922 -0.163841 -1.42572 0.944629
1447 1 23.0134 -9.21029 -22.2032 1.14026 -0.22995 -2.31528
1448 1 -16.696 5.57198 5.64093 1.54524 -2.59903 0.706988
1449 1 9.67117 -4.15715 4.4516 -2.64991 2.11648 1.42812
1450 1 -7.67419 -2.25102 -7.63108 -0.252177 -1.82592 -2.72733
1451 1 11.9968 17.8219 -11.3654 -1.8463 -3.78183 -4.29935
1452 1 -4.89232 45.303 -18.629 -4.22667 -2.89 2.756
1453 1 -0.712806 -21.0809 -9.0159 -0.0199766 -6.316 -3.0055
1454 1 7.4985 -13.3977 -0.786979 -3.63864 -3.32466 -1.00431
1455 1 -11.6943 -17.5344 -4.85805 1.47556 6.34157 -0.974994
1456 1 -14.9131 17.5433 13.1373 -1.71416 -0.661378 -3.72441
1457 1 -22.0864 1.06871 -18.9304 -2.32835 3.59627 -4.70427
1458 1 -20.3287 14.9956 9.31984 4.73237 -3.00521 2.0382
1459 1 -12.2926 -14.1023 -1.87563 0.184471 1.72842 -2.07087
1460 1 -13.7248 9.20816 -14.9388 -3.80737 0.288684 5.79668
1461 1 -14.521 18.283 23.2409 -0.5534 -2.84916 -0.214565
1462 1 -9.772 -17.7357 8.92513 -1.27135 6.52679 2.14239
1463 1 7.92949 -0.182125 14.0543 3.72817 -0.378954 2.78287
1464 1 2.71885 -18.2977 5.65568 0.959262 -0.61781 2.8787
1465 1 -20.8108 26.8568 -12.167 -1.98603 -4.43824 -0.656306
1466 1 -17.588 -5.94568 -3.25488 -3.00523 -3.24763 -3.43813
1467 1 -24.4092 -16.4548 -14.0751 -3.57764 1.72182 -3.14025
1468 1 17.7756 25.7128 14.805 0.838501 0.289079 -1.00781
1469 1 19.1468 11.3205 6.51442 0.481321 0.854128 -2.1551
1470 1 -4.24366 -11.8365 5.00521 -1.96703 2.4332 -1.63508
1471 1 -0.797816 -8.20685 -7.26997 -0.267804 1.71505 3.68338
1472 1 22.8591 2.30988 17.1955 2.45808 3.06863 1.6069
1473 1 15.2306 -20.6626 -14.3876 -1.30872 -0.348158 0.633658
1474 1 0.894858 22.7282 -22.6204 3.71412 3.82032 -2.56224
1475 1 -21.3111 -24.387 -4.30253 2.1265 -1.87188 0.397843
1476 1 -18.9082 14.0314 -17.6377 0.252821 -1.96713 1.91693
1477 1 18.8364 -1.62786 0.216237 1.37255 -1.41738 8.79894
1478 1 2.18098 1.95617 2.37276 -3.59071 -1.81671 -4.7195
1479 1 10.0731 -11.2104 9.83542 -0.231665 -0.994804 -0.627478
1480 1 1.43814 11.2669 -5.13329 4.24781 2.25723 -2.02363
1481 1 -8.50596 16.4892 -2.63582 -2.37367 -3.1399 -2.90129
1482 1 5.43828 22.9991 -21.1408 -1.49748 0.243915 -1.34206
1483 1 11.3358 46.5757 -18.658 -1.53532 2.72762 -1.84273
1484 1 -3.72436 12.2402 7.75115 6.15452 1.33028 2.41087
1485 1 5.65459 -11.2425 -23.8627 -0.324695 1.84631 -5.51496
1486 1 -16.8575 -4.51821 17.8001 1.68389 7.76444 0.353182
1487 1 -2.1648 6.22333 -14.5502 -2.02628 0.731379 1.85118
1488 1 -18.5041 -15.5777 15.5936 -0.867818 2.49436 -1.4024
1489 1 21.7614 15.2479 0.407145 -2.75994 2.58349 -1.18643
1490 1 -22.9402 7.64889 -4.0749 -2.51419 -0.664453 -3.79972
1491 1 16.6192 4.28902 -9.32158 -0.120479 -1.38342 -2.03114
1492 1 -12.1847 15.2653 12.2138 -1.98489 0.767709 -0.645599
1493 1 -0.175108 -8.67103 -11.4741 -3.87914 0.995826 -7.00886
1494 1 -11.6228 5.52882 -19.7092 -1.2187 -1.36492 -6.19214
1495 1 -17.205 -8.10838 23.0723 7.06299 2.6445 3.17083
1496 1 -3.21651 9.10388 -9.94142 2.79877 -3.38596 -1.22801
1497 1 14.7071 -11.5328 -18.9715 4.91044 2.57726 -0.128581
1498 1 -13.1537 7.95549 13.0942 0.133203 -1.89809 2.24992
1499 1 18.4305 6.1119 22.3736 6.0132 -0.745263 -1.59569
1500 1 -16.9591 19.4705 14.9085 -1.99102 1.09605 -1.81955
1501 1 7.0027 14.7073 -18.1156 -3.58335 2.56555 9.3136
1502 1 -22.8669 -5.12533 -7.01559 3.54976 -0.408211 -2.91212
1503 1 10.1808 25.1782 -22.5564 -3.62172 4.93505 -5.54158
1504 1 -2.93014 -22.4368 -7.81397 -2.14361 1.05334 -2.22506
1505 1 18.0523 -22.1277 -20.7989 0.262142 -0.922514 -3.82127
1506 1 14.9875 13.1179 -3.36531 1.63741 0.172316 1.0364
1507 1 -20.6696 21.2075 -3.94839 -0.519763 5.41841 2.46805
1508 1 21.7408 -10.5421 -4.79382 -5.08074 -3.43341 -0.0123397
1509 1 11.0482 21.5647 -10.859 3.6413 -0.0547222 -3.21512
1510 1 -15.4216 -10.5115 0.18589 1.95906 0.208516 4.87654
1511 1 -21.4715 -4.66349 15.3498 1.72194 -2.40652 -1.76167
1512 1 -12.2631 -11.3335 -2.1945 2.80428 -1.27939 -2.25226
1513 1 -19.2911 1.6089 15.5472 -0.450047 1.05026 -2.51122
1514 1 -13.8072 -2.13064 -7.73472 0.0892891 2.75861 6.17602
1515 1 -4.32069 -20.651 17.2827 0.372405 1.62343 -2.4899
1516 1 -10.3687 24.1393 -21.6017 3.83659 -2.79079 1.62696
1517 1 -23.5692 -15.5337 -8.68245 4.57977 -0.923075 -0.273054
1518 1 -0.188594 14.7513 -23.4163 2.4952 2.76696 -0.756006
1519 1 -12.9333 -18.2765 2.47934 -1.58596 -1.78541 2.70321
1520 1 10.8279 3.51223 -19.065 -3.88856 -5.65757 5.28947
1521 1 -9.10967 -8.03045 17.5949 0.324444 -0.996405 2.00183
1522 1 -15.3108 0.846033 -12.8964 -0.90853 -5.66881 -0.00151693
1523 1 -6.62079 7.70579 16.432 -0.153383 -1.46482 -0.900811
1524 1 1.08003 -18.8744 8.15381 -2.25347 2.09441 -1.53638
1525 1 -9.00603 -5.83804 4.04264 -4.3973 -0.145189 -1.22164
1526 1 17.9884 24.674 0.738526 -3.6133 0.987968 -3.57905
1527 1 1.35354 -0.887459 -6.87609 -0.994581 1.80935 -2.58866
1528 1 11.9835 13.7287 16.0129 -0.382197 3.83347 2.31367
1529 1 -6.50256 3.57303 13.6571 0.409215 -1.05336 0.740699
1530 1 16.1717 18.1009 5.04627 -2.25715 7.47803 -0.823198
1531 1 8.39041 -7.62641 10.0077 2.9127 6.04726 1.66551
1532 1 20.0524 -6.33862 -17.5166 6.88614 -3.58588 -1.3162
1533 1 10.6882 23.2853 11.9061 0.0372443 -0.49599 -1.30628
1534 1 -16.5473 -6.74006 10.0938 -2.94739 -2.07567 -3.05386
1535 1 0.600362 -8.73322 12.6001 -2.27713 0.833549 -2.81762
1536 1 -9.33609 4.34631 -23.0666 4.80532 3.81242 1.28252
1537 1 -2.37019 25.8358 -17.1278 1.62802 0.977476 -4.25298
1538 1 4.42704 18.5649 16.0073 4.73705 -0.139217 -0.142132
1539 1 1.27021 8.67821 -19.6807 -3.41832 1.49801 1.64643
1540 1 -21.1108 5.22054 22.1272 5.1526 3.0472 3.12731
1541 1 5.38641 -21.4117 -10.8118 -1.5476 -3.50612 1.69089
1542 1 -20.1953 -3.18417 17.8889 -2.47421 -0.199005 0.0730112
1543 1 2.89921 0.720114 17.9609 -0.946891 2.87249 1.85367
1544 1 -4.47874 21.0815 -19.1665 -1.30619 -0.264671 3.63602
1545 1 -4.92121 -13.1816 15.2981 2.37145 1.87272 -0.375481
1546 1 -15.1122 -12.3265 18.7507 -0.412128 -1.31164 2.15208
1547 1 18.4103 -4.54768 0.0388992 -0.888382 1.56802 3.74598
1548 1 18.4783 -22.0731 -7.93419 2.49153 -1.70967 -2.15981
1549 1 -4.52249 -2.73404 -16.1429 -2.58927 1.66742 0.539449
1550 1 -0.0918019 -11.3893 -10.371 3.90515 -1.07866 -1.22898
1551 1 10.958 -3.12166 -5.51602 0.9646 1.74109 -0.121169
1552 1 18.453 9.23891 -16.6209 0.331278 1.54242 -2.46493
1553 1 -9.71072 21.4442 -15.2098 -0.408116 1.02747 -2.15932
1554 1 -9.67076 -7.71127 -18.2511 -0.61749 0.627586 3.79302
1555 1 -21.3988 -3.82033 -3.1675 -0.454514 -0.143607 1.37561
1556 1 -22.8309 -19.1812 -10.4149 -4.6097 0.931243 1.62485
1557 1 9.1079 -23.9807 -17.1845 -6.08717 -5.08788 -0.158833
1558 1 9.48253 -17.3344 -0.173236 -5.78124 -2.6803 0.860039
1559 1 22.1956 17.8847 2.87727 6.94352 1.8329 -1.97158
1560 1 -18.7233 -19.86 19.0748 1.11487 1.50537 -0.0132081
1561 1 20.9631 18.138 -3.89489 -1.59813 0.0273534 -0.260661
1562 1 -1.39823 -4.1746 0.703422 0.127269 -2.16924 3.25568
1563 1 -5.59124 -3.80069 12.4047 0.458241 -1.11713 2.09168
1564 1 8.75087 15.8595 -8.16319 -0.192153 -4.48124 -0.916419
1565 1 -5.04829 14.8325 -13.5726 1.61716 2.23627 0.477335
1566 1 -0.180592 -8.87356 9.20413 1.5942 -5.25311 2.42745
1567 1 1.25131 -11.391 -22.4681 -3.78677 0.865602 4.17756
1568 1 17.1496 21.4653 -9.06409 -1.54487 -1.19549 -1.71703
1569 1 9.15574 12.2622 2.86214 -4.10687 1.75245 -3.23439
1570 1 -23.2939 5.55478 -14.4807 -1.39396 1.22991 -3.24405
1571 1 -1.39474 -12.4677 -1.0304 0.772685 0.0376541 -3.68495
1572 1 -0.136047 -16.3901 11.6219 -2.75557 1.00026 -4.56385
1573 1 -10.7731 -13.7349 17.4321 -1.02536 -0.458498 -0.461402
1574 1 17.1794 -18.1233 2.50037 -1.40423 4.50304 1.55081
1575 1 -15.6622 15.1578 4.44119 3.98542 0.646781 0.809173
1576 1 11.9906 17.4072 -18.9481 -3.18577 -2.17943 2.64277
1577 1 16.508 45.4471 3.95517 2.57931 -6.79116 -1.22293
1578 1 15.8977 -2.13133 -10.231 2.27523 -2.0198 -2.74432
1579 1 -6.49845 15.2044 -5.71842 4.16142 4.52664 -1.1913
1580 1 -15.3861 -23.8358 -7.65611 -1.99337 2.8286 -1.69469
1581 1 -10.4777 -6.2148 10.8575 0.684357 -0.490921 0.0942951
1582 1 -12.7615 8.76762 -0.488864 -2.42931 0.977307 -1.78165
1583 1 10.3172 -3.87762 -2.9559 5.87903 -5.8689 4.68994
1584 1 -4.23631 -1.72863 18.1223 1.25784 2.89279 -0.914165
1585 1 -8.19688 -13.5195 20.861 -0.7261 -0.230971 4.50369
1586 1 -18.6183 -22.9991 -0.666675 -3.32399 1.51965 -0.461335
1587 1 17.9667 -6.10469 -12.1683 -2.84754 -7.39501 1.98775
1588 1 1.4435 21.5566 -20.1625 -1.6651 -3.08741 0.505857
1589 1 -10.3171 -21.0897 -3.48765 -1.48361 0.780814 -3.25363
1590 1 21.0615 9.25474 -14.9172 2.40842 -0.178251 -2.56507
1591 1 14.4115 12.3901 0.905521 -2.69456 1.23043 2.84312
1592 1 19.6939 8.55997 15.8978 -3.83302 2.31842 -0.999531
1593 1 -0.217863 23.8959 -16.3143 2.22822 1.02276 -0.237192
1594 1 11.1111 2.66128 -2.75914 -0.740701 -1.01389 0.148191
1595 1 8.27037 14.0914 -4.79991 -0.720817 1.67789 -1.74021
1596 1 -5.89171 0.0165556 -16.5081 2.26813 -4.11873 0.259021
1597 1 18.4543 44.9016 6.23304 -4.82961 0.803578 3.32548
1598 1 5.56642 15.8194 2.15123 -1.97534 5.16279 -3.36505
1599 1 -21.8496 -2.67588 11.3368 -1.15664 1.51163 0.730926
1600 1 15.4033 -14.7981 -16.1278 3.77127 -0.571401 1.00924
1601 1 5.49894 12.8066 -15.2125 1.45894 -0.949081 1.56388
1602 1 -19.5818 -11.9345 -18.8624 4.24008 -2.35616 -5.02659
1603 1 4.53377 -10.7605 -13.537 -4.77005 -2.76825 0.357419
1604 1 22.0197 -15.3894 -16.9047 1.45099 1.28107 -3.14442
1605 1 -2.64102 -0.290943 -9.69844 -3.05523 0.432184 -2.3859
1606 1 -20.8665 18.7733 5.23404 -3.4295 -2.88097 3.40919
1607 1 13.3409 -23.2483 -17.018 -2.05569 2.46792 3.02484
1608 1 23.3605 3.82358 5.848 -1.66324 -4.31708 -0.335397
1609 1 -20.8754 22.9588 -17.1087 -0.986249 1.13794 5.36773
1610 1 -10.3668 22.1376 -12.5112 3.93361 -2.27176 3.81961
1611 1 6.83034 10.1126 -3.80397 -0.813518 1.53317 -2.75261
1612 1 -23.5211 -19.4848 12.8976 6.20937 -1.09934 0.0112347
1613 1 -2.48612 -15.179 -1.653 1.09584 -4.55242 -2.06173
1614 1 -14.7223 -11.6854 4.40058 -0.847507 0.482948 -0.948362
1615 1 -3.13263 -16.9746 -15.4484 3.8578 1.87799 1.54718
1616 1 16.8494 -12.8074 -20.4941 -1.99377 3.27191 0.205677
1617 1 -14.0119 -13.3703 -10.9363 1.34644 -2.42982 0.442373
1618 1 8.88102 17.7624 16.6922 5.85238 -1.28411 2.60043
1619 1 13.499 15.4011 17.9951 1.65291 1.02312 1.19524
1620 1 14.5862 -9.06079 -5.81943 -1.7705 3.16453 2.2032
1621 1 -15.2171 4.74123 11.5931 0.760201 -2.05131 -0.860745
1622 1 -14.8695 22.5946 14.6196 -0.910269 -2.51985 1.62893
1623 1 -10.1091 -16.0926 13.2143 2.53091 0.211799 0.167874
1624 1 6.47555 20.8917 -19.3532 -2.96288 4.75237 -2.81817
1625 1 12.9044 11.5909 -11.9802 4.05563 -0.543346 -0.0713942
1626 1 14.8968 -1.83611 12.7804 -2.81682 -0.855128 -0.0932797
1627 1 18.7062 -6.74562 21.6733 -4.56495 -1.7647 0.500975
1628 1 19.7147 2.31443 0.0956895 -4.62198 -1.19996 3.65602
1629 1 -6.68865 46.8209 16.9025 0.616868 2.4305 -1.96857
1630 1 10.6781 -11.0022 21.0699 -0.857966 -3.54269 0.387625
1631 1 -23.6917 -19.3986 9.2493 -3.39844 1.87858 -1.59638
1632 1 -5.54081 4.89372 -21.1836 -2.19617 1.08277 -1.25668
1633 1 18.6744 19.7313 -19.7547 -0.957396 2.98355 -1.82757
1634 1 -17.8446 -11.4637 -22.0209 -1.39648 -1.11109 0.650058
1635 1 6.95843 -14.4726 -12.6504 -3.19389 -2.42718 -0.287311
1636 1 17.3848 -11.4789 15.7974 1.46653 1.79778 1.0949
1637 1 -0.60665 21.2307 -2.00573 3.05295 -0.839351 0.794583
1638 1 16.376 -4.07856 -19.3495 6.2254 -1.32256 3.63007
1639 1 13.4557 10.6129 17.4763 0.420113 2.64802 0.418664
1640 1 -16.0911 -23.4345 -13.0858 -6.1943 2.86633 2.06682
1641 1 19.9023 -12.227 18.8628 3.47561 0.0422832 -0.42465
1642 1 -1.88493 23.4456 5.80629 5.42406 -2.40581 0.429062
1643 1 -6.37567 25.5905 -9.64567 -0.400526 4.78194 5.63064
1644 1 -16.6135 2.69666 9.92607 1.21917 -1.58965 2.46484
1645 1 -4.88735 -4.65417 -5.23263 -2.82245 4.62574 -7.69704
1646 1 -21.4595 -6.19152 -19.2189 -1.79998 1.58806 -1.238
1647 1 18.229 12.2568 -17.0704 4.50577 0.977024 1.45965
1648 1 -20.4331 -16.5819 -23.9797 -4.18969 1.60767 -2.5484
1649 1 -17.0443 -6.69327 -9.49197 -5.50582 -0.00923392 3.90949
1650 1 11.6035 -4.90693 -15.0269 7.50165 -1.18674 -3.12917
1651 1 15.4149 -20.0717 -1.78689 -0.386068 0.741574 -5.8412
1652 1 13.4121 4.931 -18.3448 -5.43671 -6.13592 2.85931
1653 1 13.5076 45.5682 2.10417 0.0967515 2.41415 3.00795
1654 1 6.57366 -16.8263 12.4713 -2.32532 0.823765 -0.677739
1655 1 -3.82223 14.7922 12.2816 -1.08871 -0.0680588 0.738651
1656 1 -5.31064 13.3443 19.3951 0.0294844 -2.06019 -6.98587
1657 1 15.7635 6.73819 -11.701 1.49563 6.32425 2.30559
1658 1 -18.8453 21.8916 7.07464 0.699337 -2.06093 -1.18513
1659 1 -6.60945 -23.1269 6.59151 0.28725 1.03889 0.132648
1660 1 3.15851 -9.88374 -23.6963 -2.58276 -2.26628 -3.47235
1661 1 23.0963 -1.43494 15.5529 0.688825 -3.47663 -0.909109
1662 1 -8.65064 -23.6111 -9.77985 -1.22632 -3.2412 1.08194
1663 1 -15.8193 -0.914798 -0.266462 5.07365 -3.22292 0.837659
1664 1 3.21426 -15.551 -15.3448 3.505 -1.01505 -2.1227
1665 1 -5.83355 8.8315 18.9586 2.43172 5.31987 1.6786
1666 1 17.6934 -9.98689 -16.3766 -1.48718 0.815503 1.25477
1667 1 -12.2177 -1.86177 6.82404 -6.48946 3.3187 2.05198
1668 1 -9.34909 19.7605 7.82622 -1.84029 -1.04397 1.86952
1669 1 15.2332 -23.2517 -13.3736 1.61719 2.64456 -4.4093
1670 1 3.42942 14.2363 -4.15703 -0.802144 3.3994 -4.53346
1671 1 -14.1362 12.5081 22.6523 4.33612 2.3091 -0.765952
1672 1 2.72926 10.6336 23.4785 -2.10546 2.04249 2.95896
1673 1 -0.0592651 -16.7053 -1.0388 -0.601865 2.43651 3.62505
1674 1 2.21949 -5.52874 -5.76769 -2.99741 -2.88855 -1.73495
1675 1 4.48597 9.56797 14.7397 -4.84322 -5.76637 -2.86747
1676 1 -18.547 1.95416 -4.68932 -0.85105 -3.95145 0.251804
1677 1 22.3598 -16.0667 10.4334 0.773818 -1.21052 0.951439
1678 1 3.82398 23.8179 -16.7475 -0.693092 -1.27648 -3.39204
1679 1 -7.96771 24.1395 19.4693 0.298996 -0.145084 -2.93036
1680 1 -23.599 -16.1147 -20.7605 -7.71235 0.917724 -1.07426
1681 1 -15.1343 -8.50265 -20.3399 3.35073 -3.75451 4.5018
1682 1 9.1826 8.54371 0.147285 -0.0527289 1.5212 6.7257
1683 1 14.4095 24.1207 -17.0524 -4.67077 -5.02898 -2.6852
1684 1 5.08178 15.9454 17.0038 -0.0822666 -4.51916 2.64907
1685 1 -21.3464 17.3017 19.7235 -1.93234 3.56564 -1.52277
1686 1 11.5411 -9.43352 23.3027 1.44226 2.78324 2.27118
1687 1 20.5046 -15.6817 -13.9566 0.237784 -3.33335 3.22053
1688 1 -18.7067 -2.93507 -11.5179 4.97307 -1.09157 3.29346
1689 1 2.52118 -23.3639 -1.59893 -8.90302 -3.59441 -0.873776
1690 1 -6.18751 -23.6028 11.6332 -2.17055 -1.04513 2.26915
1691 1 -16.0462 -11.2569 6.90364 -3.3637 -4.06178 -4.33152
1692 1 -6.73391 22.327 -6.24487 2.54258 3.24197 -0.279473
1693 1 23.1022 11.3243 23.1263 3.88698 1.34541 1.01569
1694 1 -15.8125 4.60952 -9.34577 0.602517 1.13 -5.98324
1695 1 18.3615 -24.3249 -10.2557 3.15726 -5.32902 1.08262
1696 1 13.873 0.264607 2.76343 -1.21686 0.367483 2.02106
1697 1 -12.1332 -21.8464 4.96163 1.90412 -0.799721 -2.53481
1698 1 -9.42649 10.0891 -2.0706 1.05983 -1.05282 5.99855
1699 1 12.028 -1.10359 12.4241 -3.58593 -1.18218 2.16259
1700 1 14.3636 -1.12357 -14.2557 0.599111 2.19729 -1.85409
1701 1 10.5741 22.9731 -3.84337 3.36425 4.09321 -4.42108
1702 1 4.61679 -21.1778 10.4606 0.950823 0.230389 2.96679
1703 1 4.08526 3.08812 -15.7518 -2.2697 -2.87703 -3.57974
1704 1 -8.30233 -9.24628 5.05259 -4.23179 1.36363 6.582
1705 1 -0.879548 25.6279 19.4579 0.937487 0.889464 0.0311654
1706 1 9.84811 9.02546 -19.8187 6.86864 -2.79193 -0.92579
1707 1 -11.6813 -9.08854 16.3803 2.97983 -0.377184 -0.716051
1708 1 -7.11441 26.3537 16.6359 1.5933 -0.274943 1.50357
1709 1 16.5492 17.9091 -0.305057 2.11449 0.814182 -2.50988
1710 1 -7.49961 -19.7017 -13.5392 1.34207 2.12624 -2.05612
1711 1 -0.775903 2.38553 3.05622 0.53688 -0.543478 1.79473
1712 1 9.22217 14.3088 -23.0124 -1.05924 0.586348 -0.532824
1713 1 20.648 17.7025 10.0029 -0.359927 0.359432 2.75638
1714 1 4.97443 -0.399392 -12.1263 -1.04316 -4.32704 -1.00222
1715 1 11.8287 27.045 17.3763 1.60315 -1.52412 2.31945
1716 1 14.7622 45.7562 -23.5552 1.24293 3.95325 -6.00888
1717 1 10.4188 -16.9458 -3.00505 -0.139198 -1.46333 -0.133422
1718 1 7.72001 -19.2092 -12.5495 -3.33561 8.41561 5.00094
1719 1 22.8742 9.14007 -1.13054 2.617 1.58796 -2.84653
1720 1 -4.14036 -22.4856 7.78322 0.0481452 -1.33881 3.6346
1721 1 6.95175 3.42755 12.0516 2.31687 -2.4894 0.211102
1722 1 19.6826 46.3118 14.8548 -0.997559 -0.0632975 -0.8785
1723 1 -22.8794 19.1048 2.76592 -0.451075 0.945058 -6.35852
1724 1 -16.4338 46.3295 -5.11022 -1.77983 3.99583 -0.235279
1725 1 -15.1615 9.23608 -21.8102 -0.227862 5.86136 3.89436
1726 1 18.1848 21.2599 23.1063 -0.967381 1.91302 -1.2456
1727 1 -23.9251 -7.03483 -20.5283 2.59437 -5.10629 -1.98328
1728 1 -21.192 -9.03641 -20.5004 5.52171 1.02711 -4.15273
1729 1 -14.0458 10.5731 12.9303 4.163 -4.82859 -0.98371
1730 1 -4.11249 -7.67681 -21.4658 3.92466 1.53687 -0.961654
1731 1 21.4581 4.03349 -1.39787 -2.209 2.06121 1.31141
1732 1 13.4072 -13.0687 6.97768 1.53502 -3.9569 -1.32122
1733 1 -9.58034 -13.6981 5.99196 4.73212 6.13711 -2.62785
1734 1 -8.20972 25.4489 -20.2667 -1.67208 -2.60422 0.0376389
1735 1 1.91883 19.9805 -17.7772 1.31953 -3.74598 3.19854
1736 1 19.3173 2.26399 10.5998 -2.70369 -3.11082 2.00213
1737 1 -18.7528 0.0834927 -7.93919 2.46235 -2.33275 -1.00909
1738 1 6.77423 11.8229 -22.1267 2.11555 1.08313 5.0708
1739 1 -6.94427 -18.268 16.1181 3.1523 -1.37854 4.11062
1740 1 3.20407 21.1472 19.3064 2.15496 -2.16249 0.639387
1741 1 12.1643 12.0139 22.042 -1.32718 -0.995565 -0.804199
1742 1 0.458371 -8.10045 21.2196 0.266465 3.58451 0.737121
1743 1 19.5807 -17.6175 6.88556 -5.59991 -0.47685 1.51492
1744 1 13.8853 23.167 -7.00439 -2.74408 4.58818 0.760033
1745 1 7.42673 10.5091 -8.24579 0.644776 -0.929607 -3.4524
1746 1 17.201 23.3962 -13.0866 -1.30181 -1.47948 5.01698
1747 1 5.04656 -15.4671 -8.36206 -1.47062 1.69188 4.14809
1748 1 15.8742 -0.716679 -4.83729 3.49958 3.79128 -3.7887
1749 1 21.8246 11.2466 13.1975 -1.85354 2.53727 -3.60349
1750 1 13.5817 26.8159 10.678 3.40424 -4.03494 -5.6887
1751 1 -1.42118 -11.0753 15.2266 0.939653 3.97244 -4.24793
1752 1 -22.5089 16.411 -18.6909 1.22283 2.53871 4.64364
1753 1 -20.9593 -14.7856 -20.597 4.31255 -2.63161 0.723526
1754 1 -24.0013 11.0416 -20.6331 4.1969 0.180887 1.06103
1755 1 -9.97451 -1.25125 -10.8677 -0.457882 -0.341393 2.37911
1756 1 -17.0084 5.02126 8.37054 2.01935 2.41974 3.97444
1757 1 17.2903 -18.0481 -7.02345 3.04028 4.36796 -1.06239
1758 1 20.8744 46.1375 5.89374 -1.55169 2.80897 -3.61271
1759 1 23.3936 9.87704 10.9211 3.91974 -0.258778 -1.89498
1760 1 -15.7193 -12.4192 23.6239 2.01578 1.90149 1.73875
1761 1 21.9956 -19.0287 -22.4031 -0.692615 1.10448 0.661599
1762 1 7.02421 19.0246 8.18957 2.88856 0.579221 -3.99413
1763 1 -4.30912 2.33099 14.8515 -0.903211 -0.551405 0.89659
1764 1 -15.9868 18.6557 -11.8109 -0.847398 -0.119407 2.22411
1765 1 3.69236 -16.232 -5.7424 0.564254 -1.5739 -0.608728
1766 1 -16.9686 3.26617 15.91 1.18653 1.31294 -2.65913
1767 1 8.71212 26.3272 18.0699 1.55909 4.74007 0.740631
1768 1 11.8447 -1.43103 7.05924 -1.31815 1.99248 -0.486301
1769 1 -23.2738 19.1028 14.8446 3.77681 -0.257706 -1.02951
1770 1 -7.60322 -1.81068 -23.7751 3.66115 -2.59542 2.65836
1771 1 0.289764 21.7101 11.2427 -4.80216 -5.86015 -0.0394962
1772 1 13.2905 -23.1169 0.495683 -0.252312 -0.0788051 -2.35438
1773 1 17.7705 15.501 11.5002 -1.22877 0.60109 0.623903
1774 1 18.1564 -20.2994 21.7025 -3.99848 -3.64211 1.36862
1775 1 9.34574 12.8327 -11.6098 -4.41184 1.89099 -3.88158
1776 1 9.71199 9.38157 -3.80839 -0.135216 -4.12631 -2.28428
1777 1 -23.3024 -12.2021 16.4575 -2.15344 1.49018 1.52816
1778 1 -17.524 -8.66015 -11.791 2.23451 -4.78464 1.44308
1779 1 4.39716 3.84418 -8.38717 1.81626 -0.104248 -0.510374
1780 1 6.48626 4.99341 -7.10538 1.24014 -3.0166 2.33649
1781 1 8.24356 18.0122 -21.0007 2.35435 0.51728 6.51804
1782 1 -23.1844 -16.2925 -11.3466 4.44996 2.60837 -1.59455
1783 1 14.7971 4.80386 -6.89216 5.9988 1.37333 1.6244
1784 1 -10.3656 15.8372 15.9131 4.46695 4.46187 1.6613
1785 1 -6.0999 6.36952 -8.34503 1.6723 1.89173 1.40102
1786 1 -5.56023 2.21799 -6.50214 6.04482 -0.13879 1.17413
1787 1 7.63395 18.8667 -11.1735 0.195663 1.70382 -1.58231
1788 1 -13.1282 -17.6381 15.2637 3.21855 0.234555 0.0292615
1789 1 23.0206 -1.33159 -5.43725 -4.4139 1.61722 -0.832251
1790 1 7.01051 0.595231 -14.1263 -2.39909 2.64778 -0.365855
1791 1 0.567166 -9.9735 -14.6065 1.09721 -2.70097 3.04553
1792 1 -14.1565 8.71925 5.98199 5.83801 1.08286 -2.86922
1793 1 20.1755 7.58626 -22.5008 -3.35116 -1.3127 -0.310665
1794 1 20.8309 0.513948 -22.7732 -1.47809 -0.09236 2.19891
1795 1 18.6159 -2.90401 -10.2692 -1.91783 4.30107 -3.24387
1796 1 -21.6147 -11.2417 -23.5142 -2.56675 0.430073 2.0034
1797 1 -0.0882032 18.5231 17.2239 6.15032 2.4214 0.177181
1798 1 18.0127 -8.42491 -18.5774 8.49895 -3.54037 -0.600208
1799 1 -12.3576 11.3745 -16.0124 -1.8899 3.40775 -0.275903
1800 1 0.143907 4.27565 14.8398 -1.96145 -1.4104 1.95271
1801 1 -7.82076 -18.6519 -6.50752 -6.4845 -3.38427 3.32684
1802 1 -14.159 -21.2334 -13.309 2.06576 1.04313 4.44215
1803 1 -12.6455 14.2056 -7.76948 -2.25882 -1.24342 -1.87851
1804 1 -0.415408 45.6466 -17.6677 2.01058 2.10412 0.432963
1805 1 11.7067 2.19294 -6.81071 0.904958 -2.02966 3.95043
1806 1 9.69123 -6.23551 17.3362 -1.49788 -2.50266 -1.8824
1807 1 -14.5339 -9.09915 23.3075 0.700019 3.06199 2.46689
1808 1 22.2591 -13.9796 17.5906 -0.192689 3.11741 -2.1236
1809 1 8.94683 16.3756 0.58835 3.91618 1.2445 5.07914
1810 1 10.8703 -22.5009 -6.45768 7.16893 0.74589 -3.01104
1811 1 0.609689 5.22916 22.7049 5.83233 2.66471 3.04862
1812 1 -12.3424 -4.41168 -19.3696 -4.80002 -2.15826 -2.32296
1813 1 -15.7949 10.0536 17.8522 -2.11659 1.76574 0.203555
1814 1 10.5906 2.78805 -9.55478 0.089928 1.45223 -1.0918
1815 1 16.0266 -10.0622 22.8975 -0.767815 -5.05157 -3.01841
1816 1 2.45748 17.7523 -9.39391 0.770431 -2.84722 8.34843
1817 1 -1.02521 16.4811 -16.7141 4.74496 -6.67113 1.39825
1818 1 23.4997 -12.5627 6.81744 -1.46377 5.00795 1.32309
1819 1 -13.0109 -11.5173 16.7068 1.28305 1.86462 -0.830172
1820 1 15.0481 9.60256 -12.8081 -0.135031 2.6839 -2.74261
1821 1 20.1821 25.4547 10.791 2.70731 -2.10665 7.48546
1822 1 17.4126 -3.12271 -3.88499 -0.686577 -9.93427 -3.70343
1823 1 8.23126 -23.0647 8.46894 2.827 -1.56452 -1.02568
1824 1 -16.8184 -18.3945 9.81979 3.46847 6.61333 0.383053
1825 1 6.70619 -10.9928 -5.43724 3.75016 1.14744 -2.42203
1826 1 20.8268 9.39421 3.06503 -0.580838 -5.1489 -3.77749
1827 1 17.3665 -22.8258 -3.27781 -0.488339 -2.60955 -2.54216
1828 1 -12.1441 -22.4466 -20.332 4.75142 2.96831 -2.96885
1829 1 4.65916 19.7575 11.313 1.21987 -3.31808 2.94966
1830 1 -16.6305 2.01624 -15.2863 -7.1713 3.3454 -2.97091
1831 1 13.3241 -15.9921 -3.3665 -0.208664 -5.40011 -5.15271
1832 1 -20.9951 -13.223 22.0964 2.26997 -2.63246 4.25634
1833 1 -10.529 5.52381 19.8136 -3.52826 5.03067 1.78065
1834 1 9.19159 -9.21537 -22.4043 -2.6791 -3.95797 -6.45971
1835 1 5.35522 22.8348 18.8933 -0.597938 -0.211608 1.0781
1836 1 -9.56315 44.2771 -20.1797 2.86767 0.686458 0.584301
1837 1 12.7466 -23.8549 9.0123 3.0874 -0.53709 0.937602
1838 1 18.7623 21.6047 3.11862 -6.74084 -3.83674 -3.89886
1839 1 18.4712 24.3835 3.47609 5.79611 5.82063 3.95026
1840 1 -18.7127 -11.2362 3.20325 -4.9143 0.958236 -1.73984
1841 1 8.24815 -21.6276 -10.9762 0.925609 0.122309 5.61802
1842 1 14.389 -21.5456 2.76588 0.105568 0.914645 0.22928
1843 1 1.69836 -3.51442 -15.6071 2.1633 1.2687 -3.21672
1844 1 -3.0656 -1.50942 7.12099 3.40141 0.222128 -6.85006
1845 1 22.7892 18.3563 -18.6692 2.80185 1.75474 1.15395
1846 1 11.8457 -20.377 6.9669 -0.968152 -3.92428 -3.49769
1847 1 20.1518 -18.0553 16.8734 4.18876 0.747503 -0.837023
1848 1 5.76042 8.62395 -19.1438 2.82582 -0.854534 1.89005
1849 1 12.3056 -23.9922 -14.2126 1.0549 1.81681 -1.26669
1850 1 18.8092 -19.6181 -8.80203 1.03651 -1.72081 2.29377
1851 1 -5.01075 3.43218 0.659927 -3.16574 -0.9136 -1.53835
1852 1 -1.53783 -0.734425 -17.2667 -3.35956 2.74584 -1.35009
1853 1 4.48901 -11.3429 9.16665 1.90692 -2.2207 0.116225
1854 1 2.56484 -23.9248 13.5032 -2.2045 4.93463 -2.49324
1855 1 1.94436 22.9517 -14.7331 0.727218 4.56529 -1.22652
1856 1 7.86184 -8.32519 -18.384 -0.127644 -1.91634 -6.87171
1857 1 -1.20165 -18.9084 -2.1706 -0.595605 -1.77746 -1.63886
1858 1 2.62265 -17.9649 -14.0383 1.9741 -4.3697 1.73644
1859 1 7.71823 -16.1814 -16.8959 0.6036 -7.00481 -2.33259
1860 1 6.49642 0.431877 11.836 -0.645628 1.27995 -3.67841
1861 1 -16.3951 -22.7833 -19.1359 -1.99902 -1.09664 5.36803
1862 1 -10.3832 -2.8976 -8.75377 -3.29798 -1.52233 1.75966
1863 1 -3.88448 -16.8414 -7.8411 3.66188 -2.98949 1.22086
1864 1 -7.63716 12.8795 20.6819 1.13304 -2.56898 -0.0522804
1865 1 -9.82916 -3.46041 6.90136 -0.938853 0.411775 -0.829314
1866 1 6.12917 23.3534 11.7695 -0.438517 -0.688916 -0.441366
1867 1 5.95647 -9.33931 -3.37836 1.85685 0.809335 3.62955
1868 1 -3.57875 2.06575 18.9871 5.41896 1.35334 2.56537
1869 1 -0.960629 24.8003 16.8612 0.838296 4.2771 -1.1948
1870 1 -20.5042 10.6891 17.0925 -1.19016 -0.435299 -0.897331
1871 1 15.2021 -12.448 3.99428 -0.326762 0.085915 2.63585
1872 1 1.51909 -12.9735 -12.2399 1.90915 0.144432 -0.00440286
1873 1 -10.6643 19.4591 10.4649 -1.44687 -4.45667 7.55178
1874 1 -8.11837 -16.3637 -21.1708 -1.28196 3.81678 4.60754
1875 1 21.4465 -7.02563 -9.94853 2.25408 -0.493058 -0.814578
1876 1 -21.6212 10.3969 -19.3524 -6.59876 0.397741 1.59694
1877 1 -14.2575 -3.99148 9.67217 3.01141 2.94352 -4.16555
1878 1 19.6591 24.0156 -1.4141 0.267963 0.411462 2.02394
1879 1 -17.3916 -17.7972 -21.7907 -2.0876 3.688 -0.449973
1880 1 -1.75031 25.5639 -19.7781 1.62189 0.865041 -1.21868
1881 1 13.8883 1.83574 17.0548 5.46132 0.625971 -1.03753
1882 1 -9.57094 11.0565 19.7239 -0.0183783 -2.29296 -2.87579
1883 1 -10.2977 -14.4988 -5.32479 1.22173 -4.1606 -0.532732
1884 1 16.6249 16.5978 7.47658 3.1627 -2.68478 4.19559
1885 1 -7.55754 20.4724 21.0375 1.78039 -0.332246 -1.60134
1886 1 19.0601 24.2249 6.51215 3.75553 3.11133 7.08942
1887 1 16.1247 -7.4553 14.7181 -0.443955 -3.52733 2.7878
1888 1 -7.82904 -18.2014 -10.8983 2.3388 7.15799 0.957186
1889 1 -9.46307 4.33749 8.22661 0.446955 -2.11546 6.21712
1890 1 -22.2595 8.73263 21.6751 -2.47551 3.88423 2.11719
1891 1 -7.8776 -12.569 -22.3226 -1.07935 0.555604 -0.103594
1892 1 -2.11387 -16.0821 -18.4604 -1.93728 -0.138023 1.31795
1893 1 5.01676 -0.810565 21.5648 2.65077 1.42545 3.97997
1894 1 2.98329 -19.1063 -6.07391 -4.63146 -2.66967 -1.79988
1895 1 -19.2395 -5.9828 16.9364 -1.52408 -1.81026 -5.66202
1896 1 15.3802 20.7808 1.20681 -3.70691 1.6647 -1.51705
1897 1 -12.5636 -23.4367 -8.13644 -3.49805 -0.388672 2.80485
1898 1 -21.2486 21.698 11.4211 1.13038 1.20629 -5.36184
1899 1 -7.92724 19.6261 -6.61541 -0.25129 1.13704 -2.11064
1900 1 -11.796 0.694241 8.07842 5.98494 0.387466 -0.64178
1901 1 -8.92939 -14.1683 -18.3043 1.33188 -0.0581217 1.73103
1902 1 23.0614 -3.33485 -20.0298 1.02014 0.0611814 -1.25967
1903 1 0.221359 -17.3788 -17.1555 6.01074 -2.60612 0.132257
1904 1 -8.91215 -20.0698 17.821 2.52072 -1.45295 2.58471
1905 1 -13.57 10.0198 -8.67847 -2.55863 -1.14759 2.70253
1906 1 -21.922 -24.236 10.6066 -3.72262 1.71229 -0.163497
1907 1 -21.5193 -7.31061 12.6592 -1.06585 2.84456 -4.72752
1908 1 -15.8637 -2.11556 3.6198 4.41415 0.51259 -1.59368
1909 1 8.8081 -8.5513 12.6679 -0.401816 -2.97263 5.18138
1910 1 -10.1536 -11.6015 13.7183 -0.0716207 0.502603 1.82175
1911 1 20.2868 -1.61306 -6.05031 -1.33624 2.9967 -2.04164
1912 1 -16.2818 4.31902 -0.971281 -0.340582 -2.96021 1.57379
1913 1 0.0927411 18.9609 -0.691679 1.99211 -2.85783 -0.444341
1914 1 18.688 7.62461 3.92502 -5.70709 2.36542 -3.98396
1915 1 21.0439 -22.9087 -14.1761 4.21297 -0.531809 -0.536005
1916 1 -3.41877 17.1452 3.25133 -0.757513 -3.48795 2.56662
1917 1 22.9848 23.7572 18.5668 0.0666387 1.19123 0.408722
1918 1 -19.7742 0.433661 -20.3625 1.83306 -2.53662 -0.188438
1919 1 -18.146 7.67784 -15.1571 2.53975 4.22946 6.54997
1920 1 23.0427 -15.2256 1.05687 -2.18012 0.349041 1.8434
1921 1 16.7491 9.24047 -10.047 1.61949 2.54862 0.735788
1922 1 9.15534 17.3353 21.2504 -2.78272 -0.0888856 3.17356
1923 1 8.77984 -1.35446 -9.75703 5.92138 0.455836 -1.39607
1924 1 -21.3439 -19.6233 1.51548 2.12885 3.81524 -2.28085
1925 1 21.5087 -24.0112 17.4165 0.287816 7.08976 -0.823212
1926 1 10.9731 -1.7755 -8.06015 0.0797191 4.76571 0.27959
1927 1 -5.20408 -23.7936 -22.0881 1.27319 2.70748 -0.182283
1928 1 22.5897 -4.36327 5.18394 -2.58248 0.244787 -1.37483
1929 1 7.03189 18.2388 1.6547 -3.2484 -2.55728 0.46949
1930 1 -7.29486 -17.0461 -18.3985 0.268299 4.16255 3.88111
1931 1 -8.85097 7.2874 -1.9973 1.50853 -0.776888 -2.5996
1932 1 -3.67473 21.1078 5.38723 3.3673 4.14086 1.73711
1933 1 -1.4224 18.8395 -18.606 -1.02727 1.15235 -0.71587
1934 1 2.65006 -8.78111 -0.82694 0.75051 -0.97667 -0.003864
1935 1 18.0929 -15.432 2.81962 -3.53975 -0.172141 3.79152
1936 1 18.6873 -23.0519 22.8555 0.0387024 2.07425 -7.38401
1937 1 2.76527 4.54689 21.0233 -0.635724 -6.31086 2.79837
1938 1 0.535098 7.3941 17.1511 -1.00327 -1.02467 -3.45943
1939 1 11.3787 9.57189 -1.38836 2.68265 4.19664 -4.30846
1940 1 -21.4061 46.581 7.65202 0.900214 4.15179 -0.347893
1941 1 -1.74015 46.5138 -15.1394 -1.99544 -1.51661 -0.0365144
1942 1 -3.411 10.2041 0.878131 1.34753 -0.615141 0.419569
1943 1 2.49734 13.1795 -6.62291 -0.892176 1.28039 -0.800656
1944 1 -19.1547 -22.3704 -3.77031 -2.47669 0.270494 -0.999707
1945 1 -24.0822 46.8474 19.4078 0.361442 5.16699 1.15974
1946 1 10.1938 7.3087 -7.28309 -3.50877 1.40976 -3.06922
1947 1 -16.6087 12.4154 -14.9291 -9.38058 3.49737 0.862628
1948 1 9.30164 -3.19242 -15.5245 0.963422 1.84406 -3.79809
1949 1 -8.15897 -5.22359 -8.33697 -0.707753 1.70744 -3.91085
1950 1 20.1322 22.9931 -6.67908 0.308911 1.13724 -2.12216
1951 1 -2.69509 -16.3835 14.6739 2.26972 4.52348 3.10445
1952 1 6.35564 -17.0405 -11.2401 3.7435 3.54879 2.39858
1953 1 17.9804 -20.7731 -0.354416 -0.0168539 0.7509 0.543015
1954 1 5.28345 5.66328 10.328 4.3321 -4.00401 1.61897
1955 1 -12.5415 -17.9715 20.3469 6.5361 2.17301 1.78674
1956 1 -3.73745 6.10601 8.06439 -0.419825 3.28179 0.671393
1957 1 13.7489 16.9837 8.00404 1.12531 2.02498 1.18566
1958 1 14.5365 6.48125 14.5244 -4.2932 -1.44685 0.572965
1959 1 -24.0289 -4.23593 -2.22884 9.22977 -2.61916 -2.44317
1960 1 -17.6768 -4.83216 -19.7078 5.90713 -0.676233 -1.75489
1961 1 16.0532 -15.4046 -6.69593 -0.526037 7.44207 0.162802
1962 1 -2.22566 -11.6896 -4.54555 -1.33159 -5.70211 0.783169
1963 1 0.0836195 15.2309 0.446563 0.840772 0.933005 0.385919
1964 1 20.7398 25.7006 -15.5529 1.49778 1.91192 -4.05
1965 1 19.093 0.183696 18.248 1.39157 5.23647 -4.66389
1966 1 -17.6692 -14.5889 -13.0759 -2.07922 3.41832 -3.07282
1967 1 -14.8936 46.5677 15.9566 -0.600722 1.73834 0.2479
1968 1 -22.273 11.1516 12.8001 -1.23696 -3.19004 -1.72998
1969 1 -3.9238 -7.51636 10.5046 -0.460317 -0.0760842 2.35603
1970 1 21.3631 -6.37076 -2.92498 -5.09494 -0.0306736 2.29502
1971 1 20.9503 -4.62346 7.5251 4.74638 -0.0454708 -2.49427
1972 1 -5.2448 -5.03833 9.98218 -0.159865 -3.26134 0.550935
1973 1 14.4958 -19.4855 17.8362 2.20541 -1.65891 1.24362
1974 1 15.6165 -10.0826 11.2527 -3.83682 -0.142055 1.35287
1975 1 13.9524 -17.6477 -18.7052 2.43246 -3.84013 2.36183
1976 1 21.565 -9.18012 20.4688 0.0300319 2.62975 -2.68204
1977 1 17.2309 -16.6487 13.6822 -4.5384 -2.12791 -1.32357
1978 1 8.76149 -3.20006 21.966 -0.921062 3.26265 1.99637
1979 1 -1.15647 24.086 11.6141 -2.18717 4.7539 6.49273
1980 1 -23.5599 3.53575 -19.5191 -4.52594 -2.74692 -2.33186
1981 1 15.0377 22.9533 -2.50651 -8.58856 0.396237 3.07709
1982 1 -19.0929 -1.40147 21.5686 4.87247 2.75902 -0.751863
1983 1 14.3863 -4.96216 -1.75298 2.65672 0.235361 -1.4894
1984 1 1.3676 22.4967 20.8442 -0.517911 -0.917495 -2.20051
1985 1 1.85935 -22.3747 -9.04018 1.68648 -1.86578 5.51481
1986 1 12.6826 -4.66932 4.97626 0.300168 -1.09891 3.10807
1987 1 -20.0302 4.81884 8.41333 0.189674 2.57698 -0.692125
1988 1 9.00652 18.6661 14.1397 3.61411 -1.48542 -2.12663
1989 1 -11.6676 -14.8484 10.8938 -1.04251 0.544516 -3.17252
1990 1 19.4603 -16.0486 -5.85865 -1.52227 -0.910079 1.08165
1991 1 -21.4996 45.7312 20.2264 0.342318 3.00077 -0.715099
1992 1 14.8564 22.6478 5.72658 4.15726 1.66053 -2.1032
1993 1 4.87255 11.093 -11.2968 -3.29719 -1.28634 8.54836
1994 1 -23.3733 -17.7178 2.21612 1.00423 -2.71296 3.29094
1995 1 2.25826 6.05143 13.8004 1.76213 -1.89144 0.123057
1996 1 -8.46847 7.77479 23.0253 3.25792 4.19473 -6.66047
1997 1 21.0165 26.0425 7.93858 -0.144497 1.14054 2.4242
1998 1 -11.7137 11.6644 -0.527108 1.81881 3.10681 1.69983
1999 1 -3.07915 -8.93826 -23.7973 -1.09887 3.48247 -3.32089
2000 1 1.18599 1.58295 -17.9948 -1.93919 -1.31985 5.96988
2001 1 -8.61274 -13.3443 -3.33404 3.19727 0.97769 -1.82862
2002 1 -23.5204 22.8126 -6.42482 4.40914 0.746799 -4.69575
2003 1 8.51644 -4.1444 -10.9828 3.33223 3.54031 -0.695552
2004 1 0.0985567 -23.8357 21.854 -0.742413 0.942361 2.86929
2005 1 1.26872 -5.85006 19.6967 1.42165 1.73927 2.96012
2006 1 11.2425 -11.0539 -5.39086 -1.91695 -2.12611 0.655583
2007 1 -9.26534 15.1237 -13.3929 -0.427332 -3.42211 2.07754
2008 1 -10.6012 23.2436 12.9018 1.46928 -4.54181 0.0252592
2009 1 -2.46221 2.30607 0.777476 0.889355 3.34102 -4.59245
2010 1 -6.83281 5.40626 -23.6263 -1.6307 -3.44167 2.6535
2011 1 -0.750619 8.56458 19.3704 -1.36334 -4.91792 -0.29685
2012 1 17.625 -22.6531 14.4303 -3.30261 4.20038 2.11345
2013 1 -16.0235 23.8521 3.43896 -0.983956 0.42912 1.75671
2014 1 -9.19443 -7.66135 13.0287 0.663685 2.05429 -1.80943
2015 1 -4.51107 -7.44189 -1.59821 1.02142 -0.630175 -0.0533533
2016 1 -6.73342 -16.9148 -8.58676 0.865898 -5.56989 3.70925
2017 1 12.5824 9.19464 21.6849 1.46412 -2.24796 -1.69368
2018 1 -18.1185 -2.95266 5.40123 2.03545 -0.458374 -4.98437
2019 1 1.78952 25.306 20.1052 -0.447375 -2.62946 2.43534
2020 1 9.78562 -15.8779 -15.1327 3.96228 0.870302 -2.88105
2021 1 -2.50747 12.9603 14.3844 0.343593 -1.54165 0.555348
2022 1 17.4437 25.2866 10.5069 4.38369 0.40901 -2.62488
2023 1 -20.4088 -12.9295 6.51032 -6.98928 -0.75761 -2.89684
2024 1 9.98118 11.3539 13.8364 3.04453 -0.534384 -5.04325
2025 1 0.732877 -10.6739 20.4053 0.0496697 1.80196 -2.7072
2026 1 6.8789 21.3812 10.0459 4.24323 0.599809 -5.39286
2027 1 3.84519 15.7853 -7.92755 -2.43054 -1.0168 -3.45649
2028 1 -2.63694 -5.73264 -17.3339 0.138235 -2.44382 1.67498
2029 1 16.1964 -11.3969 -0.749928 0.288109 -1.09235 3.94131
2030 1 10.1806 -19.1291 -21.7188 1.07513 -1.4247 1.57345
2031 1 -4.85433 -20.2422 -12.6042 -2.19816 -1.01081 0.610597
2032 1 -9.14036 9.14805 6.69628 -2.99496 0.433564 1.36084
2033 1 10.4414 12.3342 -1.41302 -0.294934 6.4282 -0.140011
2034 1 -10.9509 -3.51075 -17.0754 -7.06896 -0.809147 -7.30458
2035 1 18.9724 -18.0552 19.8173 -0.355238 4.66936 0.103542
2036 1 -15.4777 6.39499 -22.6232 -2.21011 -0.220374 2.8271
2037 1 -18.2534 11.2721 13.1016 2.6356 -3.41781 1.09808
2038 1 16.8909 2.02981 12.1213 3.06485 -1.63408 1.0458
2039 1 8.29413 -22.7975 -22.7348 3.77014 1.49125 5.93074
2040 1 -5.64595 46.6716 -10.1688 1.99323 1.3218 0.523977
2041 1 -9.69837 -13.6517 23.188 0.702779 -1.75746 0.922497
2042 1 5.37848 -18.6812 21.979 1.26078 2.55902 3.25035
2043 1 17.288 11.5193 14.9584 4.93915 0.190569 0.793391
2044 1 3.89101 -10.7992 4.63429 -0.631873 4.74526 -1.40913
2045 1 7.33964 -18.4907 -18.6937 0.617407 0.36284 3.01725
2046 1 -8.10334 16.4978 17.4914 -3.40276 0.310237 3.08499
2047 1 -5.12067 -13.7822 6.88896 2.56419 0.383978 7.76849
2048 1 2.05277 13.5702 -17.8515 -3.85457 -5.48299 2.98311
2049 1 18.8123 24.3286 -19.9142 -7.31251 0.197388 -2.89245
2050 1 -12.4861 8.45504 -11.0208 4.95557 2.46932 0.470876
2051 1 -23.7924 11.5488 -4.73949 1.14937 -0.0150401 0.594836
2052 1 -8.56177 5.23854 -20.0762 1.47092 -0.932268 -2.88113
2053 1 -21.3677 12.7724 -17.8802 -2.76637 -2.20832 0.0783594
2054 1 14.9282 1.54217 0.560477 -2.75445 2.70593 5.20182
2055 1 7.21095 18.1851 11.1859 2.95373 0.240978 -3.69703
2056 1 -6.23242 25.0112 -22.208 -1.64528 -3.66939 0.18872
2057 1 15.4589 -5.21421 6.2568 -4.27652 0.391749 -4.1484
2058 1 20.8303 10.5 -12.0796 -1.86356 -4.79731 -3.62719
2059 1 7.4252 -10.7748 17.2566 -1.79247 -3.69552 3.86495
2060 1 -10.5153 -0.67842 -1.47556 -1.2782 1.3027 -0.645364
2061 1 -12.6876 46.6223 -22.2275 -1.64792 3.7366 2.84134
2062 1 -15.7571 20.5279 -9.70361 -1.51311 0.737114 -2.0997
2063 1 -10.3765 -12.8045 -20.7553 4.75575 -3.18546 -8.07961
2064 1 -14.4851 -17.2711 8.55 -1.7454 0.498419 1.33117
2065 1 12.4356 -15.5818 21.441 0.945438 -1.23711 2.85459
2066 1 18.3519 4.6962 9.13848 0.133053 0.73944 -4.92766
2067 1 -23.573 11.1228 20.646 1.96957 -1.94206 0.598254
2068 1 -15.2106 8.72064 -6.48301 0.868048 5.53636 -2.6166
2069 1 22.8645 -23.6468 -12.077 0.750419 -1.63366 -1.5959
2070 1 -23.38 0.213459 -1.1172 0.254951 0.853605 6.35382
2071 1 -17.9953 -12.9068 21.9988 -2.48446 2.13521 2.47175
2072 1 -16.3036 7.58208 20.0148 -0.578801 -0.893835 1.79008
2073 1 -16.6635 5.22326 -20.393 -0.655253 -5.87006 0.0633805
2074 1 1.85913 8.20587 -13.0661 1.29455 0.174684 -3.03868
2075 1 -8.99446 -21.1752 21.6719 -5.79924 -1.83678 -1.30038
2076 1 -16.0493 27.3794 -10.2958 0.142534 -0.221306 1.36873
2077 1 -16.7901 -3.10188 7.88242 -1.35727 2.85364 1.59452
2078 1 -16.4966 1.2438 -22.5688 -0.734168 2.57366 -2.99673
2079 1 3.46323 -13.1432 -21.0467 -3.21798 0.57356 2.91532
2080 1 -21.1442 46.1866 -17.5715 -3.18612 2.29527 4.2799
2081 1 -23.2654 20.6305 -15.9637 1.54019 0.523716 5.61221
2082 1 -9.58175 20.7811 3.71218 -0.83655 0.421585 2.87463
2083 1 21.5197 8.69657 -7.648 1.46872 -3.72871 -0.356544
2084 1 14.8095 19.6256 20.7726 -0.552126 1.70371 2.40042
2085 1 -19.7494 -19.13 -9.78591 2.1563 0.126974 5.11087
2086 1 -11.3187 -8.86136 5.09316 -2.31888 2.64931 -0.146821
2087 1 -12.2062 4.91877 -14.7335 -3.38266 5.88683 -2.19897
2088 1 8.00748 22.4423 21.1244 1.88452 -2.1977 -4.41179
2089 1 10.7975 11.6242 -18.7699 0.271269 -4.23891 -2.52046
2090 1 16.8837 7.89776 15.5257 1.71852 3.57295 -1.08022
2091 1 -6.50648 9.54572 14.0789 2.59272 -5.32555 2.22704
2092 1 -17.3638 25.6977 -21.6867 1.6181 4.43731 4.79309
2093 1 -3.73743 14.7516 -5.08713 -3.69991 0.959375 -2.39569
2094 1 -24.309 14.1039 -1.39813 0.953128 0.0795473 -1.35263
2095 1 -22.5155 -8.46911 5.22463 -5.91802 -0.453701 -3.6877
2096 1 9.08542 -4.71341 1.08116 -6.27192 -3.08576 3.55662
2097 1 -5.45292 7.88635 11.7598 0.964779 -1.04674 0.508885
2098 1 -15.2616 -16.4776 -4.10877 0.460498 -2.98762 3.1457
2099 1 14.7881 -9.74757 8.33642 -0.460738 2.35139 -1.72081
2100 1 -1.20682 -3.43457 22.0249 -6.41618 0.594352 -0.0451754
2101 1 -22.2609 -6.31333 17.6741 -3.23772 0.749922 5.20899
2102 1 7.82432 6.46025 -9.03433 -1.04968 7.6936 1.93573
2103 1 12.6801 -16.2847 -16.3152 -5.75367 0.780549 -0.652762
2104 1 -19.547 -5.22091 19.923 -3.2222 -3.9037 2.9449
2105 1 12.8669 7.56196 -12.2936 4.99765 4.60969 -1.32775
2106 1 -19.0052 -16.6064 -19.7246 -0.667702 -1.63538 -0.360528
2107 1 -9.22669 5.15017 -11.489 1.67095 -0.467735 6.01615
2108 1 -7.73206 10.7736 0.22752 -2.34381 -8.33902 3.43486
2109 1 -3.66168 12.1543 21.3888 0.511827 1.26912 -2.73197
2110 1 5.02926 9.92464 0.870491 -0.339094 -1.75409 0.918494
2111 1 22.0893 -12.0646 20.6916 -2.69278 -0.591015 1.27463
2112 1 -10.2091 2.11677 16.3101 3.58242 -2.75219 0.0236291
2113 1 -17.2558 -3.48276 20.5693 0.378372 -1.38077 0.351706
2114 1 -0.915171 45.7952 18.3421 -0.756846 -4.9588 0.846325
2115 1 17.5373 -14.7787 -10.7599 -0.335812 0.776417 -1.11312
2116 1 18.6555 -4.73723 3.0786 4.03996 1.51791 2.6621
2117 1 23.3511 23.5485 5.20325 2.35459 -1.29989 -2.19744
2118 1 -13.3955 -2.72466 -4.15807 2.09287 -2.52806 -2.45435
2119 1 -12.1968 17.6789 2.89234 3.49273 -1.71842 -2.53717
2120 1 17.3149 -20.0924 9.42173 -0.561642 -0.69664 -1.3696
2121 1 6.81504 -18.3293 -23.1974 0.744655 -0.160506 1.39633
2122 1 12.4436 3.24655 -13.3026 -3.48689 2.43426 3.87198
2123 1 21.4564 -8.92545 -17.3223 3.23943 6.5167 -3.47236
2124 1 21.3858 -5.66077 -19.8905 -0.23258 1.13548 4.13984
2125 1 0.214571 -16.3847 14.4065 -1.21409 -0.713419 1.55664
2126 1 11.9182 -6.40475 -2.19569 0.141697 5.27913 -0.379647
2127 1 -24.1341 -10.6335 22.9369 -1.18815 -2.91875 3.72345
2128 1 -18.4866 -21.2306 -6.34115 2.10236 2.71514 -1.45825
2129 1 -13.7421 -23.6025 12.0916 5.8742 5.0085 4.35931
2130 1 -21.5185 10.05 -4.76831 3.53211 -3.84291 -0.143075
2131 1 16.3604 -6.4462 2.26539 -0.325978 -2.33573 -1.04775
2132 1 11.1947 -23.2764 -21.6299 -2.30424 -0.508902 1.84991
2133 1 -11.2439 -11.1488 6.78436 0.98721 3.28035 0.843057
2134 1 11.8071 24.396 8.29714 3.00475 -3.2259 1.57312
2135 1 18.8868 12.0872 21.5391 3.03893 0.616683 -2.6177
2136 1 -1.64255 -21.6385 4.12424 0.846947 0.465896 -3.54666
2137 1 16.144 17.498 -23.6593 1.55074 2.47123 -3.61428
2138 1 16.9543 23.1166 -16.1443 0.429697 6.04087 5.41523
2139 1 -11.0381 4.00859 -17.2893 1.88861 -0.198668 -0.540397
2140 1 12.5546 -12.8198 17.901 0.973844 -2.15029 3.4198
2141 1 -20.9615 -23.9524 0.803616 6.44498 -0.787198 7.30831
2142 1 -16.2955 -7.42021 17.7124 1.43538 -0.313232 -1.87639
2143 1 21.4637 5.31312 -13.8676 1.15406 -1.51681 -1.10423
2144 1 3.56545 1.92777 8.17953 4.39829 1.75086 -2.61254
2145 1 20.4894 10.0003 22.6428 5.25863 -3.30791 -0.526533
2146 1 2.15274 9.57989 16.7888 0.722197 0.506318 3.34975
2147 1 4.66202 6.83815 15.2188 1.89347 2.63476 0.630747
2148 1 11.9294 -23.4643 21.4668 -2.11024 0.199934 -0.961164
2149 1 17.13 -6.14171 -2.04685 -1.10346 -0.838385 2.44765
2150 1 16.7018 -10.9654 2.10693 -2.50797 -3.72925 1.52115
2151 1 9.57236 0.753893 -11.181 5.5051 -4.35262 -1.69655
2152 1 7.22915 22.5296 -6.36789 -5.79975 0.448108 -2.57302
2153 1 -9.74562 -10.5735 -3.26643 1.39526 -0.0634147 -1.40401
2154 1 -10.0771 19.5415 -23.066 4.27809 1.76469 -2.39332
2155 1 13.0951 2.40512 19.6316 3.4564 -3.38465 2.36903
2156 1 -22.9594 21.6757 -9.20923 -1.99193 -2.7568 -6.75344
2157 1 -3.20013 16.9552 21.9062 -1.6202 4.07778 -1.95461
2158 1 -16.9562 15.7008 13.9734 5.05806 -0.724531 1.3612
2159 1 5.49573 -21.6792 13.2927 -2.50762 1.87225 -0.082283
2160 1 -21.6386 0.80154 18.7194 1.69349 -0.25951 1.89729
2161 1 -0.704365 10.4896 -3.25471 -2.21376 -2.6909 -0.662245
2162 1 18.023 11.556 -7.14354 -2.10012 1.12136 0.791625
2163 1 4.91116 -11.7746 16.1874 -5.96037 -2.18967 0.568629
2164 1 13.0557 0.207794 -8.48164 -0.453584 3.89682 1.21466
2165 1 19.4091 18.9774 -12.0552 6.12821 5.76697 -4.3744
2166 1 -15.0556 20.8619 -13.4829 0.254273 0.135667 1.86306
2167 1 -15.5687 -10.7901 -14.542 2.79316 0.0255555 -3.90468
2168 1 -17.3597 18.25 3.02957 -5.45028 -4.42283 -5.79416
2169 1 12.4599 -6.69098 -19.0638 2.3021 -1.11792 2.93132
2170 1 -8.17125 -16.3576 2.26882 -2.50346 0.638299 4.91657
2171 1 -3.04513 4.8023 5.76393 6.48549 2.45894 3.06299
2172 1 -0.17138 21.1884 -4.76462 -5.74282 0.33877 -1.50162
2173 1 22.9652 1.20097 -15.6032 -0.998412 2.04317 -0.720508
2174 1 4.95018 5.75003 -2.97706 2.13166 1.55662 -4.11039
2175 1 10.2152 -24.0518 10.0484 -5.85965 1.43553 2.79652
2176 1 8.50197 -21.438 17.8628 1.80921 0.251918 -1.61177
2177 1 18.8994 18.4357 14.1663 -6.23209 4.06073 0.512713
2178 1 20.7955 -17.9824 -10.1869 -3.80272 -1.97098 1.88817
2179 1 10.174 -4.07809 7.61483 -2.32274 -4.5313 4.20122
2180 1 9.44077 -5.91902 -8.98672 -0.312254 -2.08386 -1.35756
2181 1 -15.4092 -22.1266 20.1474 6.6081 -2.15747 -0.680066
2182 1 -2.17414 -0.225738 11.8403 3.19754 -1.43027 -0.392088
2183 1 4.04018 -3.3926 16.1883 1.86433 -0.317729 3.47902
2184 1 15.5316 17.2701 -17.2506 1.5221 3.17171 1.83992
2185 1 5.8313 5.71887 17.6928 -4.48715 1.8722 -1.10139
2186 1 3.14751 -9.42411 -18.5802 -1.95516 -2.09085 -1.65873
2187 1 12.91 -5.16785 7.85914 -1.14401 -1.36538 0.00420351
2188 1 -10.2592 7.49594 11.863 2.03922 1.1312 1.96863
2189 1 3.28721 20.7761 -12.2438 -3.95001 1.93502 0.224703
2190 1 -1.72871 1.32811 -11.76 3.28491 -0.0894778 -3.58969
2191 1 12.7911 10.1399 3.45957 1.21296 0.682282 -2.10591
2192 1 -0.855121 3.81222 -21.1682 -6.22109 -3.52331 -6.5983
2193 1 18.1904 -14.2268 -14.8258 -4.2479 1.04402 0.969601
2194 1 -18.1316 4.46947 21.1866 2.30356 1.15113 2.58267
2195 1 -9.58177 -19.1552 -8.58863 0.19717 -1.81369 -2.66802
2196 1 -2.07983 7.66138 -12.0914 1.18746 2.06665 -0.470617
2197 1 15.7351 22.1386 19.8407 0.512971 -2.83276 -0.261381
2198 1 4.37423 8.41303 -3.68362 0.476898 4.53743 0.815448
2199 1 -16.7472 13.2651 0.873621 -3.82628 2.65671 -1.38422
2200 1 -2.21533 -23.0906 1.76885 -1.22396 0.253494 -0.264261
2201 1 14.7916 -8.9784 -20.314 4.36891 6.78798 -5.78831
2202 1 18.8387 -18.2939 -19.4019 -6.0707 -0.863621 -4.10247
2203 1 7.92806 -2.24514 -2.87069 3.00912 -0.594941 2.2079
2204 1 6.80853 0.483045 -1.91977 5.0955 -3.14137 0.732543
2205 1 -21.1794 8.55277 -15.4816 -0.513343 0.169268 -8.36521
2206 1 -4.26988 -9.61244 -13.4009 3.88845 -0.438481 1.90821
2207 1 -21.8889 -8.39687 -0.380393 3.23284 4.03354 -1.80754
2208 1 16.0165 19.0707 -2.81525 -1.90102 2.60192 0.287045
2209 1 21.5175 22.3433 20.6611 -2.78747 -0.845856 2.0998
2210 1 22.3129 -19.4616 -2.09406 4.17651 5.72163 -2.2932
2211 1 -19.4109 5.23443 -21.1566 -1.13824 0.159272 -2.34104
2212 1 -18.5229 -4.78732 -5.81349 -0.132212 3.5607 -1.72874
2213 1 19.5343 11.3155 -4.60096 -0.693266 2.20068 1.06192
2214 1 13.0952 8.26582 19.1837 -1.77755 -5.6369 0.0163555
2215 1 10.814 13.1595 -3.96996 -3.99696 1.82136 -3.61651
2216 1 -0.103314 0.0141814 -13.6917 1.07285 3.44195 5.79006
2217 1 12.2513 -13.7139 23.5431 1.89244 -1.77896 -0.689668
2218 1 -16.3908 -5.33559 22.6845 2.08306 0.600887 2.98231
2219 1 -10.6459 -22.6833 15.1558 -0.499275 5.91461 0.875422
2220 1 1.73057 14.4247 -14.8141 0.0247707 3.01972 -0.296124
2221 1 17.686 2.75656 18.7149 -1.21691 4.21159 -4.21375
2222 1 2.45271 8.26091 4.38002 2.98122 1.12084 -0.576775
2223 1 -21.3654 16.9739 -21.2818 1.66046 -0.418369 0.791156
2224 1 -14.524 16.5112 -4.91543 0.460219 -2.70833 -0.67646
2225 1 0.446889 -18.9283 -23.5291 -0.95431 -5.22434 1.59428
2226 1 20.2928 0.999066 13.7083 0.431891 -0.0890133 -3.37625
2227 1 13.0857 0.447108 -2.69102 -4.2119 3.14606 2.27332
2228 1 -6.80458 -8.63979 -21.9741 0.204812 -3.87511 -7.99742
2229 1 17.5455 3.67554 15.8912 -1.82951 -8.13878 -1.09801
2230 1 4.41943 17.4546 -2.90204 -0.787693 -1.47958 4.13758
2231 1 -15.3754 25.0429 11.0175 -4.33655 0.980486 -0.182952
2232 1 -21.8417 25.6017 -14.5228 -1.61955 1.94222 -1.19748
2233 1 -11.8756 0.534203 -14.9178 5.27106 3.88177 -2.33457
2234 1 -3.89153 2.10324 -3.71543 0.640744 -0.752864 -1.76304
2235 1 10.0668 -22.3468 12.0736 4.96572 -0.0433412 -4.91323
2236 1 22.6422 5.85444 -19.6313 -4.18598 2.98973 -1.45498
2237 1 0.860274 -24.2156 -23.0863 2.10871 -2.49128 5.36093
2238 1 19.0866 12.2857 -19.7421 4.07712 -0.717609 -2.82983
2239 1 -14.0897 -11.062 21.2784 -5.95266 -0.241647 -1.77308
2240 1 11.9306 19.1273 14.6727 -0.419071 0.525495 -1.19981
2241 1 -22.0869 -3.20635 -18.6666 6.99635 4.92404 3.04531
2242 1 -9.72731 -17.443 19.1905 0.0429692 2.89921 0.783425
2243 1 11.7298 24.4158 -11.5869 1.90241 2.27278 0.857726
2244 1 23.1965 22.5614 -14.461 -7.42813 1.6804 -4.27076
2245 1 20.95 -21.9644 6.29293 -0.450304 3.86885 -2.23345
2246 1 1.83189 16.427 -16.6957 3.83555 -1.41676 -3.35032
2247 1 20.65 -13.5462 9.63099 -2.37972 1.65811 1.01004
2248 1 1.91191 -6.57195 -11.5019 -0.50989 2.45139 1.20677
2249 1 -15.8976 13.8137 -17.5131 -1.56164 0.152957 -1.33957
2250 1 -2.25689 3.86129 13.311 2.03748 1.38732 -1.85614
2251 1 -11.1872 -11.0307 -12.0618 4.26156 1.20401 -0.565367
2252 1 -23.4159 -13.7353 -1.04311 -4.37078 -4.04252 0.754712
2253 1 6.3958 -17.524 -5.43482 -0.482298 -2.58499 -3.01852
2254 1 2.19709 20.1262 16.8744 3.0279 -1.2219 -1.23728
2255 1 -2.31729 -1.92373 -14.069 -1.20958 -6.23379 -3.0496
2256 1 14.6683 17.9854 -19.8691 -0.894645 3.29466 -0.640916
2257 1 -0.910927 2.89188 -7.53094 -0.354093 -3.97358 -0.585942
2258 1 -11.0134 16.7245 -23.0839 -6.05823 -5.47568 1.19558
2259 1 -21.6698 -10.2845 21.2123 -0.820659 -1.01526 4.24647
2260 1 19.4694 19.5996 -14.8815 3.87557 0.221085 1.37739
2261 1 14.4363 -3.93431 -15.2007 0.966317 -1.04805 4.0544
2262 1 17.6511 45.4764 -3.5323 4.13357 1.77756 1.21268
2263 1 3.86141 -14.4717 -3.29719 -2.06462 3.38871 3.76521
2264 1 -2.25318 19.6709 2.78808 1.19814 3.65447 -1.88083
2265 1 -1.52113 3.87145 21.3728 -1.85882 -2.46469 -3.48232
2266 1 -21.5216 7.74963 13.6542 -3.36851 -0.809774 0.36314
2267 1 -10.0199 -14.3806 1.38706 -4.01404 0.0443448 1.51262
2268 1 13.3821 -2.08229 -4.17355 4.14769 1.77396 0.337333
2269 1 18.5435 12.6502 -22.7134 -1.25214 3.53236 -0.711443
2270 1 -6.33279 21.7062 1.75166 -1.13294 3.24922 -3.43371
2271 1 -23.7764 -18.0812 -7.8 -0.798638 5.65582 -4.66375
2272 1 2.81346 13.4571 11.673 2.3572 0.119012 1.43539
2273 1 -22.3152 -21.0844 14.8863 -0.0884365 -2.92393 1.8569
2274 1 -6.61583 0.755468 22.5936 -1.14864 -6.09395 -6.02734
2275 1 -11.9454 27.042 -15.177 0.740701 -4.89456 -0.590146
2276 1 3.11004 11.0191 4.9179 0.489279 -2.6499 -0.400098
2277 1 -13.8192 3.08064 19.8812 3.15431 1.30691 -1.4279
2278 1 -16.2 -12.0299 -4.91365 1.49023 -3.45977 1.79544
2279 1 -9.55066 0.795435 6.13371 -2.02778 3.1676 -0.627874
2280 1 13.71 -11.2662 -2.54899 -4.80631 0.643156 0.381991
2281 1 19.3885 14.5389 22.9493 2.14717 1.43853 2.46898
2282 1 -4.9481 25.2137 8.65759 4.09252 2.56055 -1.90726
2283 1 -22.4125 -14.4006 8.12701 2.63327 4.16944 3.41253
2284 1 -20.0068 24.1132 -21.9551 2.31881 1.96209 -3.14708
2285 1 -21.6699 17.0836 1.23323 0.340668 1.9264 -1.26094
2286 1 1.20019 -11.7794 5.30848 1.50039 1.08968 -1.19842
2287 1 21.9163 17.5643 14.6166 -0.749715 -1.57423 4.89828
2288 1 18.6206 -8.02541 -5.84673 -2.14739 -0.847568 3.87243
2289 1 -2.77191 12.0557 -20.5455 -3.10965 1.8307 2.56145
2290 1 18.9924 -2.64628 18.6778 -0.366039 0.321713 -3.4858
2291 1 -0.899818 21.1823 20.6597 -1.07656 -5.09708 -0.141089
2292 1 -12.4287 -9.99225 0.708768 -0.259173 1.93111 -2.47323
2293 1 3.54432 9.72725 9.06771 -0.340425 -4.68423 -0.261405
2294 1 -18.1697 7.98131 -20.0124 3.03652 -0.0736337 2.28906
2295 1 -16.1009 13.9661 23.5983 -4.19059 -3.3664 -0.331916
2296 1 -20.0517 -9.76295 -17.2975 4.84205 2.07969 -1.81857
2297 1 12.925 5.82739 -21.8572 1.08977 -4.03612 -3.06135
2298 1 -2.98144 -20.8603 -5.5087 -0.0636033 -2.58739 -0.0542816
2299 1 7.93116 -11.391 -2.88737 -5.7287 -2.48482 -1.69097
2300 1 8.14904 12.223 0.335715 -0.889282 -2.03874 -1.62367
2301 1 6.43595 -23.3254 21.1746 -2.36764 -0.399288 0.856437
2302 1 13.9837 9.57654 -15.7153 1.03007 2.79128 -4.25349
2303 1 -11.6554 13.8014 -12.1636 0.0406642 -2.98032 4.19713
2304 1 7.74572 16.3986 7.76901 -1.10003 -3.78914 2.99653
2305 1 -14.9403 20.2626 9.37879 1.46793 2.26974 -4.46218
2306 1 3.55273 -5.2643 21.5126 0.0353944 -0.914401 -0.37451
2307 1 -17.0296 16.5729 22.9087 -3.47714 5.0291 -2.16835
2308 1 3.47337 2.35045 -19.3201 -3.1049 -0.470836 4.65964
2309 1 21.1173 18.2109 -22.9025 1.99359 2.5837 4.63795
2310 1 6.2534 -17.8158 9.81101 1.39937 4.304 2.15748
2311 1 4.44124 0.426047 3.02533 6.12884 1.76178 -3.14827
2312 1 -20.3297 -20.9796 9.33345 -8.38037 0.0924712 -7.17574
2313 1 -9.68259 16.5996 -19.5439 -1.6526 -4.45037 -3.07687
2314 1 -17.7579 7.5481 9.17574 1.5466 -6.77267 1.5732
2315 1 -13.4461 17.7053 18.6977 2.27066 1.46403 3.21128
2316 1 -18.1549 -14.4519 5.91581 0.688861 4.28781 -2.27751
2317 1 -4.81517 -10.5341 -8.68073 0.603819 1.02552 0.944904
2318 1 19.0492 -5.70701 -4.46428 2.9102 -0.192081 -6.72414
2319 1 5.74249 -7.08677 9.8029 1.35157 0.463131 -1.47757
2320 1 21.4191 0.165656 -20.1104 1.95728 2.38778 -2.44053
2321 1 -1.70503 25.3819 -23.8845 5.99633 -0.853244 -1.0186
2322 1 -5.72562 22.2343 19.8851 -3.14104 -1.09674 -1.40948
2323 1 3.0972 -3.72909 -2.4618 3.65905 -3.66881 0.353548
2324 1 9.15451 -22.6692 -19.6099 -0.0318535 -4.83852 4.04044
2325 1 17.722 -20.7688 -16.0838 2.14019 -0.0177497 2.43256
2326 1 22.2732 -10.4305 -12.3266 -0.877053 1.13951 3.77595
2327 1 12.8448 1.9968 -17.4732 1.07357 -2.40528 0.488685
2328 1 -10.9473 -8.01184 -3.87084 4.20647 1.4739 -2.34901
2329 1 6.4901 7.70427 11.6467 1.31123 8.10319 -3.05682
2330 1 13.9068 -23.6282 15.5301 -2.31799 -2.2186 5.80288
2331 1 -16.7159 -16.7294 12.1923 1.50204 -0.292617 -2.46446
2332 1 19.3148 -16.1034 9.34664 2.12413 -3.49815 -1.15476
2333 1 10.3215 -20.2097 -15.806 5.46282 0.764064 -2.4075
2334 1 -10.0668 22.1915 15.4817 1.54094 0.865234 -4.12311
2335 1 -5.77143 19.6544 23.0454 -2.90148 -5.34158 0.035119
2336 1 14.4125 -12.6993 -22.6561 -6.05053 -0.825718 -4.56129
2337 1 10.0097 -0.0282517 -2.26014 4.07618 -3.99971 -2.45427
2338 1 -0.568883 -3.39492 -18.9747 -3.39962 2.87445 1.17261
2339 1 7.78461 8.61076 -6.09848 1.13049 -1.52677 -2.29716
2340 1 7.83443 7.71507 17.7253 2.91842 1.75978 0.446241
2341 1 2.70486 -17.7069 -20.6257 1.00664 -0.547859 2.75708
2342 1 9.81708 -14.5254 0.57349 -0.303692 -1.03936 4.79673
2343 1 9.4277 23.2674 1.95071 0.127681 0.934676 -4.17755
2344 1 13.5484 26.1394 3.66354 -0.405747 4.01103 -1.03649
2345 1 6.84379 10.026 -15.374 -3.8007 5.94491 4.33953
2346 1 -3.35926 -19.0901 9.6694 -4.35357 -2.34085 -1.35029
2347 1 -13.9048 13.771 -15.354 -3.22017 1.18813 0.743347
2348 1 5.17201 -1.2376 5.2961 -1.2897 -0.511479 1.72002
2349 1 -9.54247 25.8194 18.0092 0.32366 -1.46987 1.46783
2350 1 10.0392 3.85193 -14.611 1.69746 3.45529 1.38375
2351 1 16.718 11.8886 -12.7885 -4.64165 7.08538 -1.5008
2352 1 -2.44149 22.7097 -20.1934 3.21794 -2.98658 4.81389
2353 1 13.612 -1.97213 4.58972 1.92074 -0.245416 -1.71575
2354 1 21.3517 -18.4451 21.5933 3.39129 -0.555329 0.181276
2355 1 -7.00689 1.6529 4.76587 1.36584 -0.491306 2.52068
2356 1 15.9749 -22.7759 -10.7386 2.35265 -0.600148 3.38137
2357 1 -3.34521 -0.268277 0.617658 3.84577 3.8227 -3.80909
2358 1 3.43652 -14.502 -10.4889 5.25087 -1.52325 0.360518
2359 1 10.7956 11.5633 7.09666 2.63828 -0.749145 -1.54578
2360 1 11.0721 19.1976 5.65303 -1.15361 -1.12067 -4.85462
2361 1 -21.8754 10.1197 -13.0781 1.48027 1.90992 -3.50138
2362 1 -20.2695 12.5388 14.8317 -0.222731 -0.0320972 3.94047
2363 1 18.8351 -12.8755 -1.04302 0.464776 3.14355 1.55118
2364 1 3.16329 -3.28011 0.349785 -0.180592 1.45769 -3.32492
2365 1 23.2168 -8.26961 -4.44737 -0.414724 -3.7741 5.30373
2366 1 9.56152 2.05729 1.74963 1.62618 5.14944 3.10942
2367 1 2.96119 17.5864 13.7607 -1.4013 0.589651 -0.26237
2368 1 -5.75423 -22.1239 -7.98745 0.0421946 2.17149 3.00018
2369 1 19.9914 3.93296 14.1105 2.06327 -2.18015 1.0731
2370 1 -23.891 -9.69157 -8.65724 -0.47079 0.527559 3.64603
2371 1 16.8953 -20.9446 2.21123 1.22874 -5.41591 -0.945192
2372 1 -23.893 4.93583 -0.115564 -5.07151 1.06691 1.30364
2373 1 15.1754 12.0168 12.9399 0.409796 -0.595696 0.340141
2374 1 -5.70155 6.95851 -1.44634 1.54994 -1.04674 4.02001
2375 1 7.30575 26.1267 11.9629 -1.8088 -3.25094 -1.78181
2376 1 -15.1682 -2.00645 21.8115 1.33189 -0.477875 -0.852386
2377 1 -6.53066 -6.97733 -5.21022 3.0054 -1.27704 2.52434
2378 1 8.65831 0.40091 19.1504 -3.37942 3.94563 1.09146
2379 1 -22.3845 13.4011 10.5834 3.5632 -1.11629 -5.03223
2380 1 8.06524 -14.5416 21.2132 -1.1402 -3.84466 -0.573531
2381 1 14.1187 -8.48635 -3.13191 5.53401 0.578292 -1.97065
2382 1 -16.3395 18.2543 -15.8745 -3.3119 -1.74122 0.270956
2383 1 20.03 -19.0217 2.83254 -4.17065 -5.93124 2.80543
2384 1 4.0147 -12.8932 22.2469 -2.59205 -0.503665 0.496054
2385 1 -1.31481 6.52379 2.29823 -0.676979 -0.756588 -2.76936
2386 1 2.06754 -3.94776 5.01404 -1.60298 0.110418 -3.66474
2387 1 -11.5372 -5.03202 15.2618 -5.88408 -0.516077 -8.96075
2388 1 8.6287 25.9947 20.9628 1.00498 1.68214 0.279792
2389 1 6.61174 -12.2946 13.8712 2.40567 3.43398 -2.57594
2390 1 -22.6119 -7.86315 -6.87224 0.499809 -3.37514 -0.205015
2391 1 -8.15444 -1.31901 7.69744 0.411507 -1.5479 0.758501
2392 1 9.68958 -22.6323 -14.808 5.73622 2.44554 3.65978
2393 1 3.44098 -14.1465 19.6512 -0.211499 1.21017 -0.494051
2394 1 15.6936 12.3445 -5.94188 0.550062 -0.237796 3.1512
2395 1 3.35812 18.7676 20.7888 3.75341 -3.51635 -1.56288
2396 1 -15.981 -22.2621 -3.46116 -0.962638 -3.36097 1.48444
2397 1 -14.1671 -6.06013 20.9956 -2.01023 0.635672 0.264697
2398 1 -7.01549 -0.26233 14.9686 -3.2972 2.53995 3.50678
2399 1 -14.7681 -10.5609 10.6404 -4.91935 1.41328 -4.76051
2400 1 12.9239 -6.30204 17.0377 0.0786981 -3.0266 0.451868
2401 1 -17.7621 21.7255 -3.18685 1.61849 0.628153 -4.86815
2402 1 16.7813 16.0486 -19.8401 -0.174536 0.800922 0.744782
2403 1 -12.5013 0.0705447 -21.143 -4.70774 2.61578 0.787371
2404 1 -19.0583 -10.5131 22.9808 0.984285 -2.89306 0.798661
2405 1 -2.6864 -9.90226 -20.2503 -1.41862 -4.49282 -0.0949864
2406 1 -24.4085 10.1639 -11.3371 0.354758 3.02979 1.19111
2407 1 -14.1526 -13.6712 13.9734 -7.19266 -0.878138 1.31922
2408 1 -21.4509 -3.32405 -10.9683 2.13123 -3.69995 -0.371447
2409 1 4.49266 12.3685 14.6931 4.16687 -1.1821 0.979345
2410 1 8.76103 -20.2868 -23.8439 -0.367682 1.63809 -0.856086
2411 1 12.1053 10.2425 -21.2478 4.13852 -1.44865 3.97838
2412 1 8.09128 21.0253 15.4757 1.43677 -2.02649 3.47374
2413 1 -6.2672 21.1742 4.65309 1.86314 2.85081 0.974389
2414 1 12.8923 -4.6066 -6.65761 -6.37488 0.770574 1.35716
2415 1 22.6449 -23.1112 -23.5965 -0.196288 -0.809768 0.152107
2416 1 6.93828 12.8493 9.71347 2.40379 -1.64117 -0.83419
2417 1 -4.12542 -4.89338 0.229476 3.20633 -1.36619 2.99653
2418 1 15.1925 1.99727 -11.0163 -0.876699 -1.32375 1.24277
2419 1 22.823 8.27495 -21.6787 0.849744 6.3199 -1.62441
2420 1 -0.974459 -5.84228 -5.5854 -2.71911 -0.0167425 0.744049
2421 1 -22.8914 18.98 -8.88708 -0.372963 -0.430387 -0.186215
2422 1 -18.1141 5.7154 16.9618 -1.5487 -0.577756 -2.30952
2423 1 14.7559 23.5674 8.67028 -2.65569 0.149654 -5.35508
2424 1 -22.4411 16.9727 8.92674 -2.6965 -0.351952 -0.514276
2425 1 -16.9455 9.83461 23.5528 -0.441488 1.78044 4.12401
2426 1 -0.997174 18.6933 22.0639 -0.00736987 -0.243268 1.13036
2427 1 13.5983 3.97343 3.09641 1.86846 0.716798 -0.461603
2428 1 14.403 -16.7227 14.3801 0.301859 7.45685 -1.2676
2429 1 -8.94006 -8.3589 -14.3662 -0.369066 -0.729521 -2.4163
2430 1 -13.4381 -6.71634 16.5129 -6.85268 2.05114 3.07929
2431 1 -19.9442 18.9155 -9.35578 1.20348 1.38546 -3.33972
2432 1 19.6287 14.3725 -13.643 0.675187 -5.1949 6.69895
2433 1 17.0903 46.5762 19.1236 -1.76552 0.575297 -4.8788
2434 1 1.00795 -20.9383 -2.358 -5.3146 -1.19114 2.19171
2435 1 -18.2773 25.0906 10.9054 -4.07144 2.7991 -0.814399
2436 1 -7.13321 11.2775 18.3801 -0.109494 -5.41372 0.74892
2437 1 -14.5427 -5.64221 11.9451 -2.84983 -0.302976 1.50944
2438 1 -1.07022 45.5805 -21.4487 0.631751 4.45312 2.01151
2439 1 -13.8258 22.9091 9.68139 -3.09258 -0.128504 3.29826
2440 1 3.95549 -2.44783 -14.2634 -0.483132 2.18785 -2.11773
2441 1 22.3309 13.9193 22.1174 2.40374 3.44323 1.96233
2442 1 -1.58682 -11.8273 -15.8415 0.70567 0.741201 -0.770455
2443 1 7.41032 9.39717 22.2926 0.268245 1.77213 0.591333
2444 1 12.1443 23.1171 18.5222 -11.2657 2.6398 -1.90862
2445 1 1.6047 3.62301 -22.9769 4.71055 -0.0884025 -1.69763
2446 1 0.860791 -3.9131 14.863 1.79138 0.245567 2.13832
2447 1 -3.18275 -15.7327 17.4307 -2.89769 -6.0001 1.14054
2448 1 -0.966773 -16.4831 -11.5905 -1.53366 2.27827 0.22361
2449 1 16.4527 45.0509 11.8613 -4.59988 -2.08835 1.16504
2450 1 5.37439 11.4379 18.735 3.22028 0.52791 2.28776
2451 1 8.99442 -22.9937 3.63856 0.086127 1.14118 1.2142
2452 1 13.3563 16.2189 -15.4027 0.293572 -1.36487 -0.576941
2453 1 0.712846 12.2751 13.2945 -3.79369 -0.788381 -5.27417
2454 1 -6.51339 11.4863 -19.8119 3.40776 3.34234 -2.80523
2455 1 12.8094 11.301 14.6733 -1.66026 0.151418 3.15018
2456 1 19.2397 19.2158 19.4926 -2.05996 -4.80734 -0.568377
2457 1 -3.68141 3.33694 10.7932 1.05933 -1.27936 -0.102064
2458 1 -23.4545 20.833 -2.71228 -0.669501 3.41728 2.67796
2459 1 -18.6249 17.1622 -7.55295 0.283462 -1.50326 0.709466
2460 1 9.15687 8.75821 -16.8362 1.53919 1.14225 1.85215
2461 1 -24.1624 20.1432 -5.33316 -3.33134 3.8336 1.80058
2462 1 -13.9057 25.7738 3.1113 1.86433 -5.72569 -2.14662
2463 1 -12.9283 -21.9868 23.7598 2.00179 -1.5689 -0.0380277
2464 1 6.59825 15.0616 -13.809 3.53926 5.96198 0.891767
2465 1 -5.81605 -14.1327 -11.2799 2.71583 0.897908 2.95886
2466 1 2.19495 2.24167 -3.23818 -5.40144 0.805693 3.71696
2467 1 3.48364 -18.4606 9.33265 -0.901898 -1.34638 1.2003
2468 1 -19.0679 45.502 -5.7436 -0.190146 1.67521 0.0913696
2469 1 12.1758 46.4859 -23.8526 -0.45335 0.889873 -1.22226
2470 1 14.4379 -19.4534 -11.8194 -3.60452 0.68538 2.76453
2471 1 -3.55762 25.8687 -21.8802 0.186967 -2.97224 -1.63751
2472 1 -17.742 3.9199 13.2234 -1.96829 0.9653 -4.15608
2473 1 11.5703 9.78749 -8.19066 3.96604 -2.06698 -3.38177
2474 1 -5.7905 -9.01357 -17.4665 5.3639 1.46967 -3.57055
2475 1 -17.6343 12.3772 10.6233 -2.46823 0.0636702 1.07829
2476 1 -5.231 -20.0121 -20.4051 0.413354 2.52666 -3.27382
2477 1 13.6501 6.64566 -3.75418 -2.19322 -4.61062 -0.155348
2478 1 -3.3454 -23.4484 -4.28151 0.261467 -0.0616713 -0.0641519
2479 1 -21.7918 -3.56997 2.18552 -5.05848 3.00997 0.19239
2480 1 -0.463546 18.8157 -6.34833 -0.100414 2.97438 1.44459
2481 1 -14.2382 -8.48085 -9.21543 -0.481998 -3.36468 1.1547
2482 1 8.10491 -8.75023 1.34504 -1.01551 -0.0183279 -2.32224
2483 1 -0.8801 11.9492 -11.2821 -1.70798 2.39119 -3.17263
2484 1 1.13224 -16.3277 -9.93695 -2.17911 1.57482 -2.45486
2485 1 0.209024 -17.9014 3.93804 0.106801 -3.54246 -1.325
2486 1 -3.29831 -20.0717 6.65137 -2.53317 -0.565943 -0.0864165
2487 1 2.96902 18.561 -0.650648 6.08188 -1.43044 -7.92921
2488 1 -9.18307 21.4815 18.519 -2.40658 0.937029 7.75079
2489 1 5.99477 20.8279 -12.6434 -0.259713 -2.96614 -4.5565
2490 1 -11.2912 24.8494 21.9486 -0.550794 -3.902 8.34588
2491 1 13.5029 -22.6532 -3.74448 -2.20094 0.545599 0.193423
2492 1 23.1128 14.8991 6.14854 -2.30784 2.22543 -0.481028
2493 1 20.48 22.1472 -20.0428 -0.711489 -3.69906 1.88262
2494 1 -10.8023 -15.5343 -21.457 -3.1888 6.42493 -1.75077
2495 1 12.8354 -13.3174 -8.63002 3.74072 -1.60062 3.55542
2496 1 3.62568 0.52754 -21.7717 -2.78628 -1.46128 3.46921
2497 1 3.48774 7.30688 20.0865 -3.28265 1.7323 0.128793
2498 1 -5.42352 7.9376 6.37998 5.10039 -0.0425164 2.26894
2499 1 -23.8547 -16.7867 8.13946 2.13192 -0.877928 1.06687
2500 1 10.3195 21.9001 6.9814 2.59385 2.38537 -0.803138
2501 1 5.31933 14.5124 8.11844 3.51834 1.79364 3.90144
2502 1 -5.91479 -13.6695 12.4846 -0.247579 0.964863 -2.77395
2503 1 17.0727 14.4537 -2.3425 4.26993 4.03496 0.365616
2504 1 9.27957 11.2925 9.57876 -1.12646 -1.50773 2.59794
2505 1 -9.81423 18.9622 21.8964 -2.33438 0.459523 -2.77958
2506 1 22.4543 11.4505 -7.41775 -0.770701 3.63181 0.642539
2507 1 6.24838 -3.9487 -14.7766 -0.287931 -1.81034 -5.23902
2508 1 10.9561 23.0548 -6.68912 -3.82821 -1.85912 0.644743
2509 1 -4.24746 -6.0195 2.82469 0.640163 4.54724 -2.17546
2510 1 -21.0957 5.09045 -2.16556 -2.49274 3.92804 3.54581
2511 1 3.05046 5.7855 17.5326 -8.42075 -3.08757 -8.94629
2512 1 -8.89584 13.8931 14.4108 0.209395 1.68104 0.626379
2513 1 20.5666 6.33116 8.29863 -2.15918 5.0255 3.66572
2514 1 -23.1201 14.8794 23.0744 -2.25579 -0.708204 -0.697528
2515 1 1.54759 -18.161 1.21357 -2.67963 -2.56959 -2.58712
2516 1 7.65111 10.9813 -18.268 2.21987 -0.461209 -4.31602
2517 1 -11.4791 -13.8487 14.59 0.482965 -1.50068 2.92031
2518 1 -1.77272 -1.80768 -1.27802 -0.407845 -0.351729 -9.06379
2519 1 -23.733 23.3641 14.3851 -2.3032 6.60918 2.40726
2520 1 -23.5995 0.179134 -7.36278 0.106112 0.193193 4.73009
2521 1 10.8747 6.87694 13.0591 1.37604 1.05172 2.85429
2522 1 -0.675425 10.547 3.56387 0.819897 -1.25213 0.260842
2523 1 -15.1986 46.1536 -23.28 7.01339 -3.01729 1.9247
2524 1 11.689 22.4065 -19.6267 -2.44413 1.02746 0.0164386
2525 1 -12.7853 -15.4597 -9.01764 -3.11299 3.29233 0.942689
2526 1 -11.814 -3.18558 -14.2456 0.757888 6.14734 -3.39759
2527 1 4.37916 6.9981 7.96312 -0.430546 -0.27578 3.70715
2528 1 -7.83006 15.0521 7.19922 -1.36267 0.0575961 -2.30154
2529 1 -18.2668 -8.46164 -3.53838 -5.215 -2.20418 2.85824
2530 1 5.45622 -14.5853 -17.0173 1.88272 0.519067 0.512924
2531 1 -18.3799 -10.3209 -15.0237 2.83067 -2.01228 1.86089
2532 1 -16.9185 -13.4582 3.52208 3.21599 -0.179189 1.31953
2533 1 -15.2369 23.3 -1.53999 0.447438 -1.01121 1.11085
2534 1 -19.2204 -9.36182 -0.821866 6.8838 -5.75902 -6.05162
2535 1 16.3973 -4.7138 14.6419 -2.93159 -0.665177 -1.74682
2536 1 -21.9436 -18.387 -22.038 0.151787 5.5759 1.44015
2537 1 -2.74145 -23.4062 14.6449 0.154445 -4.81057 0.230719
2538 1 -4.74708 2.22687 -21.4894 -3.63014 10.2065 -0.614823
2539 1 12.462 -12.964 20.8253 -4.59476 1.4439 -0.917394
2540 1 20.9921 -9.45866 16.0785 -0.411085 1.93819 -0.0443115
2541 1 7.38038 9.43612 15.3937 1.07974 1.66717 0.384364
2542 1 -10.5948 -7.66377 -20.921 2.36787 6.66686 -4.42469
2543 1 -15.6138 -7.2188 -7.03969 -1.91999 -2.17401 2.82652
2544 1 10.9701 3.58964 5.91778 0.453936 4.19627 0.497289
2545 1 -10.5975 9.82014 -20.109 2.33528 -3.23487 -2.74687
2546 1 -16.5325 7.96315 15.5965 3.3595 -5.75276 4.29419
2547 1 -11.0691 -0.811882 4.21085 1.33105 -4.00191 4.21916
2548 1 15.8885 -4.78275 -7.40808 0.716391 -1.03496 3.13131
2549 1 11.2943 10.8363 -16.0231 0.916825 2.09322 -2.13665
2550 1 -21.1445 -18.1678 -19.1131 6.63106 0.31964 5.9906
2551 1 -7.13625 10.4302 -14.3513 1.57361 -2.93865 1.92458
2552 1 -1.34197 -15.3292 7.23902 -2.54902 -0.23597 2.61076
2553 1 1.7572 25.0823 15.8786 1.99743 -1.19017 1.77522
2554 1 18.0474 23.8386 -5.05603 5.86103 -0.0960324 2.11028
2555 1 5.37203 12.4825 -7.93989 5.25764 -1.82604 -0.837257
2556 1 -7.61565 -14.2506 10.3256 -1.4155 5.7421 -3.07186
2557 1 17.3618 46.4011 -14.5588 -2.21068 -7.76682 0.314528
2558 1 -19.5875 10.1962 -21.2898 -0.379078 -3.2943 -1.76648
2559 1 -16.8316 8.15075 5.15357 0.0185054 -1.2721 0.986184
2560 1 21.8572 -23.783 8.54488 3.02447 -4.15939 -0.618777
2561 1 -10.9098 -1.86402 12.2206 -3.99139 2.62607 -2.90015
2562 1 -22.4769 -3.54657 -13.4734 -2.18825 1.51723 -2.38026
2563 1 20.1548 -4.93184 -22.5385 -0.448008 -0.889082 -3.29084
2564 1 -10.0037 -14.4539 -9.57167 -0.153888 -4.15848 3.80495
2565 1 11.977 17.7853 11.857 1.52616 0.446127 3.15615
2566 1 22.8016 -12.0127 14.1277 -1.86248 -2.67905 -0.413488
2567 1 -14.7159 -1.19012 -17.0094 -0.571689 -0.310315 4.90939
2568 1 20.4234 -10.2716 -19.8047 -0.695546 -2.94973 1.65282
2569 1 -22.909 -20.6887 -15.3615 -3.8683 4.32046 5.04295
2570 1 -21.9931 16.639 -15.7301 -1.72616 -0.68236 2.09784
2571 1 13.0218 -2.76708 21.7868 0.699093 -2.66 -5.49296
2572 1 -21.797 -20.0126 -7.77458 -3.75968 3.55986 -0.866099
2573 1 20.1995 45.6658 -4.72107 -1.21693 -0.688107 2.08689
2574 1 -18.5152 45.3197 -10.636 -0.786493 0.64617 -0.618424
2575 1 3.00147 17.5703 2.11049 1.42204 -2.60706 -3.14269
2576 1 21.3485 20.2406 13.2837 3.91348 -4.39073 1.32014
2577 1 13.4389 19.5074 -3.57548 -4.18375 1.01925 -1.6087
2578 1 -17.4739 -15.3361 -2.62976 -0.364228 0.91549 0.654036
2579 1 -7.75936 13.6263 2.70973 -1.31111 -0.0456275 2.56533
2580 1 -23.6263 13.8906 -19.4309 4.73548 -1.06782 -2.56574
2581 1 -7.85979 16.9104 21.3771 -0.9236 -1.9101 0.601865
2582 1 10.8555 26.6577 9.60152 -3.01488 2.92423 0.902436
2583 1 5.4682 20.2217 0.0304482 -1.60026 -2.86372 -1.96851
2584 1 -11.6353 -21.1198 -12.3949 -1.56267 0.315604 1.84123
2585 1 16.5311 -15.5564 17.8632 1.14958 1.00261 1.08737
2586 1 -13.1355 15.7879 14.7812 5.34514 0.949643 1.54112
2587 1 17.489 -21.615 6.84331 -0.600812 1.96547 -1.97363
2588 1 16.3997 2.40482 -19.5515 -0.602063 3.8106 -1.43887
2589 1 -0.419274 -4.80857 9.62998 -1.09455 0.911096 0.164935
2590 1 12.1658 -1.29295 -12.4651 -4.17078 2.41559 -6.30882
2591 1 -5.70477 -23.4634 14.5608 -2.46883 -3.80779 1.66147
2592 1 -1.1425 -17.9568 6.35338 0.354929 -0.643466 2.18217
2593 1 -20.9102 -8.39803 -23.4975 0.199886 -1.32719 -2.62215
2594 1 -23.8277 -8.5637 16.3413 -2.02615 5.05789 3.42395
2595 1 -1.91752 -18.6082 -19.803 -5.24507 2.62736 2.90683
2596 1 -13.0127 13.3667 -20.6376 1.56413 -1.13287 0.118134
2597 1 -19.8642 -2.63328 -16.748 0.510437 -0.0141616 -0.148048
2598 1 19.7799 -1.79282 -3.26727 1.30577 -0.69364 -2.37683
2599 1 -6.03788 4.63171 8.34696 -1.84401 -3.73174 4.07646
2600 1 6.00267 21.6919 2.43613 -2.04473 -0.75496 2.31757
2601 1 -3.35575 7.4756 4.42616 1.88859 -0.216023 2.17625
2602 1 -6.94758 -9.6673 -3.78168 -4.51411 -0.972743 -1.57499
2603 1 21.7207 20.4141 -2.16331 5.50151 2.10287 0.997524
2604 1 11.934 -12.926 -0.685564 -4.40177 -3.16844 0.628787
2605 1 -18.8449 9.02457 -3.54953 -2.14616 -3.57998 -1.48686
2606 1 15.1727 16.5177 20.2473 -1.18633 -1.06535 -2.84855
2607 1 12.164 0.505684 -23.8463 -1.90619 0.359585 -2.55004
2608 1 15.4044 -19.7697 22.0143 -4.93675 -0.497373 -9.06869
2609 1 -14.1621 -6.48796 -18.3661 -1.19555 2.51629 3.02998
2610 1 1.02594 4.37842 -18.9685 -3.57526 -3.54989 -4.88543
2611 1 -21.8451 25.8264 -20.1937 -1.14399 -2.56086 -0.235424
2612 1 -14.4545 -19.5572 16.9701 -0.0421162 2.36308 -1.37678
2613 1 -23.0643 3.86745 12.0119 -2.71338 3.22054 -0.93046
2614 1 -10.2996 12.8481 -20.3709 1.96732 -0.820185 1.0961
2615 1 -1.49993 0.561672 17.2762 0.976218 -0.370712 1.75923
2616 1 22.3698 -4.80175 -8.56172 -3.40766 -2.36557 0.115535
2617 1 -10.0609 16.6162 -15.6349 0.44993 5.30665 0.285093
2618 1 -5.51485 -16.8419 -12.0009 3.29225 2.75359 2.64478
2619 1 1.36199 12.65 -22.3338 3.85213 0.853616 1.93159
2620 1 -9.74753 17.0885 6.40723 4.49405 0.751781 -4.96686
2621 1 2.82676 -21.5834 2.28036 0.895951 -0.674201 1.80154
2622 1 -0.159588 -20.9053 21.847 1.42424 -1.07644 0.260435
2623 1 -21.3526 19.5879 -22.2114 3.11386 0.989408 0.519109
2624 1 -19.6071 18.9216 -5.47163 1.09115 -0.356908 1.40006
2625 1 -6.51025 -0.869286 -19.8222 -2.28027 1.51594 -4.32816
2626 1 -1.76825 6.93259 23.2791 -2.4002 -0.451219 6.57318
2627 1 14.8926 27.5665 8.55424 5.96717 -3.45869 1.87998
2628 1 13.3278 -6.62837 -21.8613 -3.27132 -1.58371 -1.65944
2629 1 -22.482 -4.08359 4.88327 -3.67482 0.561877 -3.2163
2630 1 -14.5728 -8.44373 19.7733 1.70827 0.418758 -2.31487
2631 1 18.0617 15.961 2.30744 -2.121 -1.88732 -1.37036
2632 1 15.9639 -0.0341358 -18.0612 -0.330725 3.32436 2.07919
2633 1 -4.71891 -17.2907 -19.9164 -2.09615 -2.99638 0.632124
2634 1 -4.7479 10.6465 -21.8237 -2.80011 -1.01656 6.60163
2635 1 -1.28939 11.9715 -23.2226 -0.427872 -6.31801 -1.14283
2636 1 -14.8111 -21.2054 13.657 0.0416867 1.55507 3.59228
2637 1 11.3675 -17.3904 -19.705 3.43963 -2.8374 -1.03597
2638 1 17.2412 1.61965 -8.62987 -2.65451 -0.993725 -1.08633
2639 1 -2.1755 -7.52033 20.2904 0.121995 -0.563227 -4.40549
2640 1 4.87334 12.4158 -18.0713 2.06342 1.63589 -4.81137
2641 1 -24.0673 7.98239 -15.9262 0.81647 5.19953 -1.42194
2642 1 -4.17529 -19.9251 3.95978 1.76287 0.906092 -1.50516
2643 1 -1.73562 -15.4118 -23.4497 -3.79246 1.99293 0.433391
2644 1 21.0839 -20.0095 -14.1237 -1.58256 1.88555 -1.41824
2645 1 7.19146 45.8959 14.7801 -1.42214 -1.8504 1.85081
2646 1 -4.86694 11.2016 -3.7693 -0.173576 -0.707294 -4.79357
2647 1 -8.07912 5.96777 2.33996 -3.39623 3.27895 1.66399
2648 1 19.981 -0.628932 3.46891 -0.192452 -0.564885 2.23243
2649 1 -17.4336 22.3344 -8.18369 3.02486 2.9894 -2.81833
2650 1 -1.68289 10.1981 15.0956 0.567325 2.55699 5.05999
2651 1 -17.2681 -20.0731 14.8654 -3.83707 2.35067 5.36544
2652 1 -21.1641 -5.93676 -14.4454 -4.49378 1.95494 -0.950103
2653 1 -9.12333 11.0839 -4.67083 4.9013 4.2996 -5.67194
2654 1 16.4509 -8.80272 -1.83825 -1.83328 -0.602951 -0.169138
2655 1 -5.59106 -10.912 0.219321 -1.0908 -4.00011 -0.8705
2656 1 -7.74953 7.63608 -18.8439 1.49672 3.42182 -2.88953
2657 1 -12.2214 -8.3798 9.84668 0.685988 -2.22091 1.44536
2658 1 -3.65158 0.751977 21.4778 1.08952 -2.32469 1.17925
2659 1 16.0154 -7.24838 22.3107 -2.57423 -0.899951 -1.53856
2660 1 -11.9833 25.85 13.4302 -7.12517 0.200621 3.57992
2661 1 6.50353 4.79399 20.3307 -3.57986 0.937485 0.724045
2662 1 -23.1643 -23.2366 13.0553 -0.00184369 -6.43439 -1.12245
2663 1 -7.01668 12.4896 23.5962 -0.625747 -1.9527 0.263823
2664 1 -16.3074 20.148 22.0876 3.93349 -3.45588 3.72296
2665 1 -19.9795 3.54681 2.65943 0.0607596 -0.8874 -0.752231
2666 1 19.9927 46.6236 0.691763 -2.94411 4.20947 0.913011
2667 1 -9.60235 -3.50788 -4.49433 0.0585087 -0.754116 -4.63345
2668 1 -6.63139 -15.0577 -23.193 -0.111854 -1.08143 3.32115
2669 1 -1.64478 -7.92487 17.2113 2.58928 -0.812521 -2.81336
2670 1 23.4526 25.2317 -15.7771 1.28413 -0.158409 0.308945
2671 1 10.3829 21.3999 20.0317 -2.79426 -2.37374 -2.04633
2672 1 6.14143 -4.30003 9.54618 -3.80658 -0.174237 1.98829
2673 1 -14.3133 -24.0301 -2.09014 -3.0301 -0.244559 -4.11827
2674 1 -7.25638 -20.9057 -3.28989 -1.7353 -4.34189 0.88063
2675 1 18.0464 5.10424 -11.9195 -0.664824 -0.45704 2.40558
2676 1 21.7337 20.9079 -17.5638 -2.07416 -2.69965 3.61182
2677 1 -0.187322 -20.1955 0.170947 -0.97803 3.04992 2.9066
2678 1 6.10774 -19.8628 -16.5756 4.81869 1.81787 -0.396115
2679 1 5.54992 -2.12622 2.2111 1.40328 0.236784 0.714075
2680 1 12.5052 -7.38052 -6.64374 1.75984 0.848182 -1.43184
2681 1 -16.1413 -8.29379 -15.9063 -0.343086 0.443212 1.04378
2682 1 -20.1957 4.70766 11.9708 -1.96023 2.15899 -1.39155
2683 1 -15.6493 5.77703 -17.9197 3.24156 0.894107 0.523198
2684 1 21.4558 -12.1899 3.18379 -0.830682 1.44976 0.439925
2685 1 -2.79137 -5.12698 7.48979 -0.45662 1.79968 1.38202
2686 1 6.4179 -21.6391 -20.5652 -4.34343 2.33101 3.5331
2687 1 19.3768 -16.4211 -16.5015 0.575529 0.57953 -2.65774
2688 1 -17.9366 -3.01696 0.13381 1.26677 3.29232 0.517273
2689 1 -9.58 -0.15525 -6.61816 1.78661 -4.12402 -2.32161
2690 1 -13.783 -14.989 -21.8186 -3.99512 -0.137862 0.163047
2691 1 -18.6473 45.7309 19.7329 -3.37818 -5.66279 -2.52862
2692 1 4.15751 0.20767 -15.6545 2.27011 -4.77843 -0.0912084
2693 1 5.80576 17.0398 -17.0012 0.217964 -3.28844 5.27893
2694 1 -6.36289 -7.70294 17.5217 -1.15292 1.00123 -2.39011
2695 1 15.131 9.28564 11.2218 -5.74247 -0.832293 1.18226
2696 1 -22.7406 -15.458 22.5433 0.391538 -0.917365 0.458411
2697 1 6.51146 -4.37549 -4.33816 2.15718 1.73458 -0.390553
2698 1 14.9203 -16.3282 22.2796 -5.08987 -2.48488 -1.62004
2699 1 -16.0168 16.6193 -2.5107 4.61443 0.723132 -2.0955
2700 1 -8.48607 -20.5419 3.04612 -2.42098 -0.715327 -0.030132
2701 1 -21.447 23.5085 0.288709 -0.201126 -4.98671 -2.20796
2702 1 -8.79602 19.1561 -18.6627 4.12594 3.27851 0.334213
2703 1 10.4518 -7.50827 -14.1423 1.75083 -3.69794 -1.26665
2704 1 0.84038 -22.7795 0.844751 -2.60601 3.06849 3.27976
2705 1 -2.86317 -3.04477 9.55055 -7.52336 -1.9253 -1.86609
2706 1 3.86023 -22.4826 20.229 2.92271 3.1735 -3.24412
2707 1 -10.5001 -11.6741 2.06114 -5.79586 -1.24895 -1.73584
2708 1 -14.1007 -0.110466 -23.5861 2.32391 -5.10975 1.70883
2709 1 21.739 -2.24783 18.1634 -2.73502 5.16772 1.3534
2710 1 -4.2826 15.8847 18.5941 -0.169625 -0.392437 2.30736
2711 1 -13.3152 -6.65835 -21.7097 -0.919654 6.62619 2.59676
2712 1 18.6774 13.6767 7.67308 -1.64922 0.970208 4.80433
2713 1 21.3213 4.19307 -7.82597 3.1786 3.08659 -3.94581
2714 1 -18.4671 5.7213 -8.9233 -5.25446 -1.65524 -2.4573
2715 1 -12.6621 13.7271 20.5915 0.347204 3.08432 1.80856
2716 1 17.3464 12.9724 1.6767 0.85263 -0.0185248 4.59226
2717 1 9.60087 21.9431 9.80911 0.0498082 5.25521 4.75727
2718 1 10.7232 -11.489 -21.5056 -2.65007 3.61143 2.21313
2719 1 19.0211 -12.8171 1.75592 -3.37706 -4.05262 -2.05408
2720 1 -14.341 -14.3001 -18.9289 0.185824 -2.60913 -0.0233437
2721 1 3.92601 -10.7523 13.7712 -2.16111 2.38694 2.60363
2722 1 -8.25953 20.772 -9.54923 0.244029 -1.58907 0.257761
2723 1 -5.54926 16.7678 13.7825 0.821028 0.890364 2.93149
2724 1 -7.67556 6.73688 7.53956 -1.19711 -0.78346 3.18309
2725 1 -3.52583 9.53796 -18.0544 0.673463 2.48988 -1.88791
2726 1 -9.93765 -6.68297 -23.7748 -3.05916 0.0180781 -3.15925
2727 1 -11.1442 -18.7024 -2.28695 -1.93659 4.42212 0.109238
2728 1 22.5906 -1.35311 10.5953 -0.943107 2.68277 -2.6956
2729 1 -2.31336 44.2846 -19.3305 2.55043 4.19828 0.78031
2730 1 -8.18247 -17.0345 10.904 -1.93891 3.09312 2.06216
2731 1 22.2852 24.7514 -7.02476 6.32409 -4.14915 -0.448628
2732 1 -0.129924 4.35414 5.17225 -6.76567 -0.0386618 1.16685
2733 1 -8.56704 10.4628 -18.1107 -2.74561 0.549509 1.8586
2734 1 16.1656 -8.34756 17.5459 3.63498 -3.10735 0.779817
2735 1 -4.87719 8.65763 -15.4334 3.03454 4.20943 -1.98751
2736 1 16.7113 15.2674 22.2671 2.07017 2.63529 3.61077
2737 1 -20.772 -20.313 -2.84486 1.14 1.6121 -0.150797
2738 1 -5.05198 11.8962 13.4344 1.29177 -4.9035 -1.56523
2739 1 -10.2319 -6.34817 21.0139 7.49026 5.47324 -0.0439252
2740 1 -10.8308 -16.4537 -18.6545 3.13831 -2.34987 -2.83876
2741 1 -6.82318 9.95925 4.68022 -4.11471 0.0589115 -0.087708
2742 1 -13.4418 14.7675 6.48707 1.27464 2.67842 -0.840071
2743 1 2.79455 -19.9234 -10.1525 -3.74497 -3.68297 0.590098
2744 1 -14.8893 -18.539 -20.9432 -1.18332 2.9021 0.475486
2745 1 -12.0056 22.1648 0.878871 -4.75301 -0.0250255 -0.364955
2746 1 4.16394 -12.5807 -5.22456 0.746174 0.439545 -1.32303
2747 1 1.74707 3.22888 17.0044 -8.22338 2.34132 1.02288
2748 1 -5.47456 -0.735615 -8.82394 4.63387 2.90385 -6.1468
2749 1 -12.6245 -6.72642 23.247 -1.75038 -1.06987 1.99779
2750 1 -14.5534 23.1424 -20.1362 -3.75881 -1.28739 3.88504
2751 1 9.85052 -22.4123 6.1908 0.947697 3.55894 1.33862
2752 1 -7.00017 18.2037 -10.2636 -2.38161 0.135923 -0.93979
2753 1 -1.39539 -5.18761 13.3283 -2.05582 0.236227 -0.471926
2754 1 -13.5764 24.6226 0.363378 2.45764 -1.00848 -0.260766
2755 1 0.536598 -13.4257 14.9529 -1.71189 -0.747631 1.95951
2756 1 21.969 10.4353 18.9661 -1.99971 -1.26859 0.770085
2757 1 15.8241 -17.8273 19.6639 3.66199 -2.68869 3.04139
2758 1 -20.8062 -14.9932 -8.70922 -1.57598 4.33196 -1.11588
2759 1 -18.1101 -15.966 8.72341 4.59036 2.57939 1.49722
2760 1 -3.27621 14.6779 -17.2105 -4.14324 -1.78516 -5.8664
2761 1 -4.65903 -9.28137 19.3557 2.73796 0.706589 -0.563565
2762 1 -10.6961 11.4199 9.39213 -2.47337 1.72842 1.07207
2763 1 -8.79927 -10.6163 16.0056 1.31517 3.16216 -5.01282
2764 1 9.74958 17.872 -13.3694 0.897213 2.04696 2.05596
2765 1 9.33095 -15.4252 -19.2173 -2.85357 -2.65246 1.6169
2766 1 9.15843 6.36548 15.6372 -0.0136082 -6.44696 -2.18175
2767 1 -13.0546 -17.6199 -22.8412 -0.00473048 -3.08267 4.13405
2768 1 -7.92199 23.3573 0.0498567 -2.98918 -3.79732 -0.967739
2769 1 -14.4398 18.0852 15.9695 1.90231 6.70003 -4.06467
2770 1 -23.8698 11.3853 4.17824 0.893986 0.0840128 2.62144
2771 1 -17.7136 -16.7614 -17.0819 2.3045 0.878969 3.42872
2772 1 -15.0101 20.396 -17.2654 -3.37488 -2.83812 3.45222
2773 1 10.0756 23.9441 4.64521 -0.846344 0.782943 -2.23225
2774 1 20.778 -2.02916 -18.5921 4.25733 4.69589 0.272088
2775 1 -3.07497 -19.2697 15.0284 -4.6407 -1.92818 0.71149
2776 1 12.2956 4.99253 -11.0958 -2.84313 2.43967 1.5997
2777 1 -12.6033 17.6483 6.44048 4.1211 1.68768 -2.84
2778 1 -20.0059 19.7184 18.971 -4.22324 -0.172448 -2.65387
2779 1 17.6005 17.14 18.4946 -0.657126 -4.85209 7.4425
2780 1 -11.9961 1.32393 -5.37213 -0.596171 -2.19748 0.610836
2781 1 10.0425 26.0084 12.221 -1.33125 4.4773 -2.4592
2782 1 8.98855 -13.7376 14.7644 -1.05494 3.47165 -2.4538
2783 1 11.8147 -9.72907 -12.6502 -1.47452 -3.15355 0.469256
2784 1 -11.5471 3.23743 -0.478707 2.71617 -0.892808 0.533613
2785 1 21.892 -6.07787 -15.2141 2.43437 0.811069 -3.42753
2786 1 6.52071 -3.58517 4.69148 -1.73272 0.591916 -0.12536
2787 1 -15.3029 15.2035 -0.258208 -3.46777 1.60958 1.44153
2788 1 -21.6993 17.8457 12.7151 1.74326 3.67283 2.12214
2789 1 9.04058 -7.4845 -5.8601 2.77584 -0.308376 1.87521
2790 1 -9.75277 -5.97947 -15.9165 -0.0154959 -1.46108 -2.49691
2791 1 -24.0953 17.1535 -4.22358 -0.802023 3.80778 1.35701
2792 1 -4.4862 -2.92012 5.09988 1.71271 -1.77676 2.88316
2793 1 0.935544 3.2646 7.61975 -5.61653 -2.63561 -0.0687153
2794 1 5.57306 19.0223 -6.61524 2.87607 0.130759 -4.58765
2795 1 21.8558 15.1265 -15.9413 1.6634 1.03852 -0.597024
2796 1 18.5582 -17.9801 11.1738 6.6637 1.92697 4.13816
2797 1 18.6942 -9.623 17.9653 4.35909 -0.747453 -1.26825
2798 1 -20.7663 0.358215 -4.95834 -4.29607 -0.195349 2.9904
2799 1 1.0296 -18.888 -8.24163 -1.42606 0.312254 3.36297
2800 1 -10.3934 -15.4003 -15.9742 -2.55472 6.01126 0.405261
2801 1 4.00573 19.8598 8.38487 1.17353 0.528247 3.99235
2802 1 8.79814 9.0234 -12.3108 -2.19884 0.595124 0.307604
2803 1 -23.6635 -9.21729 -18.5815 -0.180883 1.67275 -3.57683
2804 1 -15.7228 18.3274 -7.86436 1.95547 3.81677 -3.10809
2805 1 -17.3482 7.98653 -12.1287 -3.79018 0.774408 1.65122
2806 1 -3.72282 19.9967 -16.7473 -1.21317 1.56324 -1.04127
2807 1 -21.777 19.143 -1.22741 1.77469 1.13264 -0.745517
2808 1 4.79652 46.1532 -13.7809 -0.666743 6.34137 -3.68024
2809 1 -12.6812 20.7179 18.2972 4.07903 1.26596 -0.84798
2810 1 6.1287 24.9605 -15.3248 -3.59183 -0.96504 -3.41427
2811 1 -11.6828 13.1795 4.31892 0.57057 0.721664 1.67763
2812 1 -10.1338 -0.0533053 -22.3285 -0.209501 -2.78869 -3.9329
2813 1 1.3227 -12.0614 -16.3492 -0.0869018 -0.806296 -3.6009
2814 1 20.7527 -4.49835 -6.42699 -0.892867 -7.45288 -0.731215
2815 1 22.9388 6.2212 4.33012 1.63752 7.21045 -0.309831
2816 1 -1.4801 -15.5913 19.7914 3.602 -3.55229 -0.62573
2817 1 8.23074 -14.6108 -21.645 -0.17675 1.3823 1.32002
2818 1 2.76605 -8.01752 4.28708 -4.45284 -3.72824 2.48381
2819 1 17.6852 14.3498 16.1461 -0.333943 -1.64762 -1.25979
2820 1 -15.0247 26.7587 5.36538 -2.25497 0.77653 -1.00954
2821 1 12.2772 -7.02041 -11.9512 -2.55079 0.140443 0.749723
2822 1 -14.4644 -3.01669 5.78217 3.23853 -3.93998 -3.8845
2823 1 11.5871 -16.0935 4.44373 -2.52772 3.90264 -1.08031
2824 1 8.60726 15.0402 17.2127 -1.83117 -4.74035 -4.77614
2825 1 14.2439 18.6917 -8.41517 -6.24385 -3.32227 5.03735
2826 1 11.2194 -18.9022 -4.77152 -0.432296 -2.47049 -4.0371
2827 1 4.45908 -8.83904 21.4905 -0.228752 -3.71441 2.53962
2828 1 -0.92248 -7.77934 -16.8855 0.0417428 0.467025 3.63826
2829 1 17.6427 -24.3113 8.06314 -1.00835 0.11058 -0.110925
2830 1 -22.6445 7.34638 -1.25686 -5.85374 -0.530588 3.16574
2831 1 20.5762 2.46828 -14.4319 -0.758284 3.62869 -4.07405
2832 1 -20.8801 -21.7066 -11.3384 -0.0618874 4.95499 -6.50983
2833 1 -21.3207 1.37387 4.03845 1.67582 1.64784 4.35027
2834 1 -10.0365 -18.5045 21.8241 -3.39615 -2.88805 -2.60713
2835 1 -3.42586 4.21316 3.0203 1.31299 -2.77448 0.831495
2836 1 -12.8264 21.2608 -5.69525 1.25661 1.76216 -1.82586
2837 1 -16.566 10.3156 -8.6116 0.35913 5.37566 2.00272
2838 1 19.6091 -7.11285 16.9431 -0.874294 -1.56374 2.39278
2839 1 -19.2135 -2.67957 -23.5641 3.26558 2.78638 2.1298
2840 1 2.78678 -19.9128 22.5412 -0.41478 2.95724 -1.44176
2841 1 19.1676 -17.9677 -3.66965 -1.77835 2.41093 1.80797
2842 1 -3.67514 -12.5757 -10.4435 -0.0857645 0.488845 -3.5324
2843 1 16.6999 7.60905 -23.8378 -1.11027 2.49079 1.7973
2844 1 21.9125 16.9654 7.54606 -1.46773 -3.33005 -4.56441
2845 1 20.8385 3.43291 -22.4416 0.208419 2.77753 3.09162
2846 1 -20.7202 -0.0606445 1.46691 2.44126 -5.82395 3.51763
2847 1 6.77171 14.559 -0.479843 -0.874953 -1.42456 -4.71832
2848 1 -18.1944 -21.4827 -12.2427 0.135324 0.263255 1.47794
2849 1 -21.9476 46.086 14.9725 3.12756 -0.872417 -0.167433
2850 1 3.41453 1.40229 -7.11889 -2.53276 0.546666 1.41521
2851 1 -5.5308 25.1576 20.5976 -3.53022 -2.15411 1.27136
2852 1 2.74972 -7.35368 1.67414 2.3969 -1.18755 2.42878
2853 1 -2.86381 25.2161 21.3822 -0.141559 -1.49352 -1.36344
2854 1 4.86755 -8.82548 -6.12861 3.90066 2.70747 4.86633
2855 1 -18.1214 -8.91769 -20.4647 3.45411 0.157759 -2.27108
2856 1 16.1446 -17.7042 -0.145434 1.90814 0.96629 -0.146554
2857 1 19.8251 7.7804 11.8054 -3.14159 0.000399436 -3.40828
2858 1 10.2012 -2.5586 -21.9659 -0.355633 -6.7525 3.00245
2859 1 -21.8297 46.4088 -20.3069 -4.03027 4.67319 -0.198876
2860 1 -20.6168 6.67709 18.0463 1.80912 -7.8094 0.0130566
2861 1 13.411 12.8497 19.5106 1.10054 -2.74024 -0.991046
2862 1 11.9183 -4.15005 -17.8988 -1.77902 -6.0053 -1.01194
2863 1 21.5243 -19.2832 -19.5392 -5.7448 3.03814 -0.0803608
2864 1 -16.212 13.5325 15.7556 -4.34785 1.26491 -3.51423
2865 1 7.02796 9.99968 -0.870171 1.49449 2.29545 0.369133
2866 1 -19.7875 25.4659 -7.56253 -0.31631 -0.273649 -1.22565
2867 1 -19.7862 20.7794 -11.8134 -4.41312 -2.82368 1.1043
2868 1 3.97703 -24.0031 17.8517 1.56174 -7.00161 2.28457
2869 1 -21.3839 -18.7646 16.7572 2.96759 0.197968 0.54829
2870 1 -10.5535 14.2649 -9.58377 -6.92955 -2.23056 -4.11465
2871 1 -14.7134 21.8043 -23.5734 0.56685 -0.878605 2.51464
2872 1 8.57823 8.57999 10.1116 1.0728 4.75415 -0.720163
2873 1 -11.4131 2.73045 4.10121 -4.42297 2.27432 -2.44619
2874 1 0.569076 -14.5182 -14.566 -1.77902 -2.58424 -1.80643
2875 1 18.4617 -7.40238 -9.60112 -4.01091 0.958338 6.51646
2876 1 20.1983 -22.0903 -22.7631 -0.596941 -3.49965 -0.966725
2877 1 8.1154 -7.51791 5.92833 -0.854622 1.5034 -1.3865
2878 1 -17.9493 23.4483 -10.9265 -0.218675 3.9468 -0.261612
2879 1 2.5292 19.2166 5.88438 -0.124655 2.77682 2.68445
2880 1 -0.661262 1.06259 21.7274 1.95774 0.507773 2.63799
2881 1 -17.4375 16.6799 -20.5779 1.15285 -2.78043 1.46567
2882 1 -18.8931 -16.7845 19.382 -6.0103 2.16629 2.57198
2883 1 11.9727 -15.8916 -0.838645 -4.64463 3.12931 -2.36338
2884 1 6.85847 -6.18568 -21.3628 -2.40389 -3.04965 4.53609
2885 1 -9.14012 4.37986 -5.22532 4.66751 0.130642 -3.73695
2886 1 12.8754 24.0743 1.71277 3.43661 0.572176 6.43692
2887 1 22.6648 16.9152 20.8097 1.45897 5.57249 1.87247
2888 1 -12.5605 6.53134 -22.1194 -2.23175 -6.05218 -2.58694
2889 1 3.87097 -2.6416 9.5228 3.34591 0.291917 -1.04573
2890 1 -3.94937 -4.03334 -23.4122 5.49137 4.41743 1.05809
2891 1 7.83831 -3.7244 17.8782 0.715203 0.625315 2.33576
2892 1 22.1801 19.3201 -8.99723 3.69061 0.402083 2.1007
2893 1 -11.0641 -16.1602 23.2687 2.10039 -1.32249 2.74452
2894 1 -9.50988 7.52098 16.7016 0.949313 1.3808 -1.92405
2895 1 -18.3391 23.0847 19.284 -0.701409 2.28328 0.92726
2896 1 -12.0837 4.11371 17.5363 3.48084 -0.839388 -0.471493
2897 1 -3.2673 15.9881 -2.66142 2.30583 -2.00708 0.451659
2898 1 -9.32062 -10.1005 -21.8249 1.04861 -0.0337364 0.249401
2899 1 -3.73639 -23.4984 19.6202 1.28086 0.633029 4.15562
2900 1 17.0168 3.48441 22.3823 -2.76616 -1.7557 2.74453
2901 1 -9.45875 -19.1174 -18.49 -2.84993 -0.480902 -3.29559
2902 1 -23.7663 -0.474732 -20.679 -0.226657 1.75156 -1.91793
2903 1 -13.5838 -15.0893 6.93455 3.77388 0.72833 -0.0778604
2904 1 -4.69386 14.6318 -0.454488 -2.00977 2.19491 3.58628
2905 1 -16.0465 24.0909 20.5453 -1.77601 0.773772 -0.235279
2906 1 12.872 1.72242 13.7054 0.789053 0.151084 -1.27251
2907 1 -17.2125 24.9397 -6.98875 4.81126 -5.48255 1.44383
2908 1 -1.22827 11.4972 20.1736 -0.733044 -3.21682 0.737862
2909 1 -10.0127 -4.7983 -20.6301 -0.299714 0.604674 -0.777038
2910 1 -12.6092 8.62817 21.1779 -4.87019 0.0592765 1.66842
2911 1 2.03966 6.1926 -21.265 -1.58566 3.40186 -5.51669
2912 1 10.4147 -13.7478 -6.04441 5.49484 3.89764 3.13048
2913 1 17.0435 4.35705 -2.91599 5.65997 1.48708 0.425322
2914 1 0.263943 1.51488 14.0783 4.13245 -3.49778 5.56025
2915 1 -12.7529 -15.1975 21.3542 1.23232 1.94574 3.48268
2916 1 17.0985 16.7005 -4.5037 -1.34797 1.51136 3.26594
2917 1 -5.38951 9.77949 8.5274 2.91111 1.41403 -2.72914
2918 1 16.3541 6.39903 -5.18765 0.481516 1.06943 0.360857
2919 1 -23.8918 -17.3592 -0.886214 0.786828 -0.195428 -2.75283
2920 1 22.9348 13.2282 8.65075 -2.51198 -7.96713 -3.36151
2921 1 -16.3004 20.3416 6.99643 -1.57969 -0.0371807 0.428423
2922 1 -15.0822 -20.8084 22.596 -5.51908 -1.5301 0.584934
2923 1 -15.3263 0.606593 20.6664 1.69089 6.2327 0.930533
2924 1 -4.74317 -17.1807 21.8478 2.7573 -1.44311 -1.57188
2925 1 17.6052 -9.54965 13.4031 -1.11888 -0.450975 2.10428
2926 1 -7.76289 8.50428 -12.0697 0.865077 -1.37912 -1.64226
2927 1 10.6893 4.11507 -0.169721 -2.19872 1.91617 -2.33139
2928 1 22.2767 44.667 -11.9504 -6.51959 -6.42775 -4.04395
2929 1 5.66397 -12.9393 3.24005 -4.51234 1.86555 6.26569
2930 1 -18.2678 8.83007 -0.835953 0.53774 -1.36561 4.61366
2931 1 -0.0672063 -10.3772 17.4683 0.0663835 -0.86651 1.07588
2932 1 6.84868 18.9506 18.083 -3.08665 -7.57236 -4.82655
2933 1 20.3028 -6.93128 10.6739 -1.27266 -2.8294 1.00383
2934 1 11.6397 1.45703 -21.2278 0.68683 -5.1389 -1.78596
2935 1 6.92742 24.0328 0.895478 0.704936 1.1545 -1.95302
2936 1 -22.33 6.79097 -8.62832 3.16619 -0.673987 3.27649
2937 1 -18.2045 3.80646 -12.4207 6.55268 3.28743 -1.33091
2938 1 -9.86904 -3.5346 -1.53749 -2.61635 -6.61138 0.23199
2939 1 -12.6074 20.0244 4.51678 -0.610423 -0.807393 1.52157
2940 1 15.9011 15.1184 0.0584142 1.61032 -1.0945 -1.77018
2941 1 -6.76763 4.7448 -10.3385 -2.46454 -0.820153 5.83656
2942 1 -21.0641 14.2972 20.759 -0.523767 -1.96267 -5.11012
2943 1 -23.5554 6.74714 11.4632 7.76074 0.264184 -3.05528
2944 1 9.1025 -23.2866 14.5616 -1.38894 2.41438 -0.292712
2945 1 -6.85127 12.0273 -8.19237 -5.32232 -3.36306 -1.51087
2946 1 11.1603 0.987478 10.5445 -0.496548 1.36256 -1.05181
2947 1 18.9577 -15.8492 -22.0885 -0.624529 0.77811 -1.32937
2948 1 3.40706 -19.2847 -2.99655 5.47024 -0.279232 -1.24055
2949 1 -6.15641 -21.1491 -22.982 -2.51686 -2.13086 -1.36642
2950 1 -18.9725 16.6317 4.97585 -6.50818 5.01015 -1.18918
2951 1 14.2985 -17.0095 -13.3161 1.52276 -2.58117 6.9547
2952 1 -11.8862 22.9393 -19.5477 1.38604 -0.211442 -0.0649685
2953 1 17.4562 4.45099 -0.0911164 -5.61738 6.24472 -3.01543
2954 1 -18.1535 -0.31511 7.99819 -2.17081 2.8454 -3.28785
2955 1 14.4773 -10.5542 15.3602 5.83952 1.45578 -2.30304
2956 1 -13.7915 20.5072 -1.14276 -0.406593 -3.95504 0.0561736
2957 1 2.51196 -18.477 13.8655 2.85983 2.87849 0.97605
2958 1 5.39214 -6.91537 -11.1327 3.71413 -2.33328 4.05531
2959 1 -17.4967 19.4895 -21.529 -4.44052 -1.35624 -3.03037
2960 1 -13.6097 -1.74491 -19.5973 0.793005 2.2184 1.72632
2961 1 -12.5939 -12.4669 -22.2078 2.46471 -0.404733 -2.11938
2962 1 -9.76036 -1.00066 -13.9164 -1.55355 2.90465 3.3391
2963 1 -23.668 14.2284 -4.12662 2.51399 2.07544 4.71031
2964 1 -0.469971 -21.688 -22.7972 -0.682601 -1.60059 -1.28927
2965 1 17.096 -0.494035 -15.4379 -5.08307 -1.24847 5.70949
2966 1 -2.09335 -22.7422 17.3825 -6.05731 -1.06129 -1.636
2967 1 1.62927 12.5432 9.27502 0.49436 1.12111 -8.0467
2968 1 -4.16292 -16.8442 0.0180945 -0.0431365 1.71258 0.512326
2969 1 -1.84064 -0.898804 19.8104 -3.90848 0.73326 -6.02476
2970 1 21.0045 -12.9561 -13.3908 -3.249 0.414979 -1.36634
2971 1 -4.5731 20.5922 10.1625 2.52971 -2.34986 1.64893
2972 1 -10.0891 10.2096 -11.2593 -2.00931 5.86581 -5.89226
2973 1 -12.4048 17.6378 21.465 -2.90508 -4.18457 8.1277
2974 1 23.0913 -1.15307 20.4145 0.911286 1.90633 -2.12188
2975 1 15.0995 10.8878 -1.56487 -3.01555 -0.00890856 -9.54578
2976 1 -17.5201 22.1589 -13.6227 -1.07035 -0.357048 4.73151
2977 1 2.94319 -10.5093 1.72809 -3.02594 1.34578 -1.13467
2978 1 12.5221 18.5949 -14.3814 0.845894 -0.918785 -1.54072
2979 1 6.48349 3.1866 16.7761 -0.330856 6.73862 4.15975
2980 1 -3.11926 13.1223 -2.60927 1.258 0.43083 4.31642
2981 1 -13.1839 9.25489 18.5178 -7.83015 -5.60978 2.38
2982 1 -13.1878 -6.16902 8.27775 1.48 0.119441 -5.73905
2983 1 -9.08541 15.0028 -21.9075 -1.60426 -1.05119 -1.86194
2984 1 1.12287 -0.855786 -21.2765 -0.473337 0.31019 0.801037
2985 1 -13.9779 -13.2189 11.1695 -3.33422 -3.45191 -1.17666
2986 1 -6.60828 22.2854 -21.647 -0.584783 2.20877 2.51837
2987 1 -19.651 46.2152 -8.32354 -1.40212 2.09931 -1.4134
2988 1 1.67199 -22.9144 -6.04069 0.526366 3.30021 -4.72172
2989 1 21.0891 20.9305 -10.8857 1.45451 0.608978 0.945019
2990 1 10.9297 -20.1865 16.4092 -2.49686 -4.35967 2.90999
2991 1 4.25609 2.11948 12.5708 -4.32334 -1.81977 0.95279
2992 1 21.4298 13.2539 -11.4046 0.566903 -0.271192 1.34682
2993 1 -23.0829 17.1849 17.381 3.38916 -1.71901 -5.1758
2994 1 20.0666 -0.560414 11.2769 -2.53471 1.77088 0.971725
2995 1 -2.52101 10.7936 -5.65623 3.22642 3.5211 3.32411
2996 1 11.8442 5.89189 4.63547 -2.12668 0.616847 -1.00282
2997 1 -5.76923 -18.2821 7.47964 0.858059 -0.15676 -0.0660064
2998 1 4.60939 -17.3292 15.6188 -0.800294 2.12483 -2.32951
2999 1 14.1205 -18.2846 -4.66992 -0.0322417 1.77378 -0.0544055
3000 1 -0.841489 15.1832 14.8558 -1.11664 -0.807538 3.84713
3001 1 12.1923 13.7987 7.15095 -2.56247 0.0257913 0.0406626
3002 1 -19.5106 15.3963 18.2733 4.0372 -0.348216 4.43167
3003 1 15.2472 14.538 11.7638 6.00598 -3.37821 -5.13391
3004 1 16.8401 18.6611 -14.8806 2.01434 1.21955 0.936389
3005 1 2.44011 5.13389 -3.76792 -4.16751 1.76691 2.05422
3006 1 19.6434 5.42557 -20.6072 1.27916 0.561364 7.61522
3007 1 -6.61683 -22.848 20.7595 -5.50645 -6.03551 2.58472
3008 1 -3.36219 -21.0666 21.3472 3.58806 -4.25036 4.33033
3009 1 -14.8711 -22.8614 9.64166 0.820586 -1.15033 3.11966
3010 1 -16.384 -20.7047 -17.1142 -1.65809 1.36412 -1.76031
3011 1 -7.38529 -1.90596 -11.1397 -1.56792 2.67248 1.99127
3012 1 2.88429 -24.0816 -20.813 2.23915 1.41809 2.94667
3013 1 9.85704 -16.4941 21.8978 -0.407743 3.3968 3.43278
3014 1 20.919 13.205 19.7368 -2.48655 1.4105 0.39166
3015 1 -1.16524 13.5164 8.82092 -0.556019 -6.29508 -0.179342
3016 1 16.8208 -14.1656 -23.2733 -0.427112 -0.437997 -1.75083
3017 1 -12.4226 9.4658 -22.605 -1.3823 3.19941 -2.98515
3018 1 -23.1716 0.372182 -13.2939 2.66354 -4.71119 4.81904
3019 1 -19.2443 -22.7841 10.8386 0.242019 4.18463 1.63417
3020 1 -13.5431 -10.3169 7.98064 -0.42562 -0.00479241 2.77105
3021 1 -18.973 26.1265 -3.22724 -4.5985 1.66659 -4.12174
3022 1 14.8698 -13.7397 -0.173544 -0.920821 1.34712 -4.65572
3023 1 4.98287 19.9298 -3.87727 -1.77458 1.11204 -0.0225538
3024 1 -22.006 7.84758 1.49962 6.67456 3.57636 6.90646
3025 1 4.55325 45.3486 10.3579 -0.521767 -4.8989 -1.20416
3026 1 0.954345 -21.491 7.21792 4.29216 -1.95522 -2.47569
3027 1 13.9498 4.70385 10.0196 -3.56445 -0.525358 -0.467841
3028 1 -18.421 13.6156 21.6434 -2.50997 -1.32182 -3.10082
3029 1 6.92577 5.86335 13.9933 6.66766 0.593377 2.82846
3030 1 -18.7533 17.9 -11.6688 1.40045 2.91905 -4.83255
3031 1 23.1917 -11.3254 -20.0753 -2.13168 -2.33465 2.71257
3032 1 17.8638 -11.6226 -7.79673 3.42588 3.26062 -2.72576
3033 1 -11.2063 4.84855 5.9437 -5.25559 -2.13601 0.292753
3034 1 -12.2709 -7.44948 -16.365 -1.95634 3.66862 -0.186712
3035 1 19.304 16.1906 6.52628 1.92524 -2.03056 -3.29077
3036 1 12.9176 19.059 22.8397 0.342503 4.21436 -1.67662
3037 1 -4.89848 -9.24284 6.02684 -1.94162 1.10847 3.25972
3038 1 -16.3113 45.4834 -18.4051 -4.1989 1.38581 -2.07456
3039 1 17.6097 45.362 16.6271 3.45776 1.39737 -0.640264
3040 1 7.57914 -18.1156 14.9921 -3.66781 2.51019 -1.1005
3041 1 -19.978 21.5446 -1.26297 -2.32863 4.09058 1.78176
3042 1 -6.5234 22.859 13.6685 1.16543 1.79052 -1.92882
3043 1 6.58954 -11.9898 -16.7406 0.543772 -3.63214 4.72437
3044 1 -6.65326 17.983 -4.72538 0.666502 -1.68192 1.3355
3045 1 1.27847 -3.59386 2.18682 2.25314 -4.52616 3.61451
3046 1 19.1884 -12.2124 -16.5733 -0.460833 -4.01648 -3.45776
3047 1 8.42181 20.6846 3.06548 -2.37747 -4.72783 3.70549
3048 1 6.43626 -10.6264 20.2186 2.14744 -0.496055 3.26136
3049 1 -9.87568 -23.0524 -16.8194 -2.95322 -0.013478 -0.911811
3050 1 1.74456 -23.8561 16.2043 0.560713 2.13383 1.87276
3051 1 -17.9509 -0.197978 -12.5692 -3.00262 0.806952 -1.79611
3052 1 -22.0226 13.9906 -14.0237 -1.45742 0.452152 -0.120712
3053 1 19.8311 -22.7555 -1.56221 1.48206 -5.36761 5.40782
3054 1 21.5773 -2.92015 22.1214 -3.87762 -5.79999 3.17661
3055 1 18.9314 3.50496 5.31308 6.20706 5.08848 -1.48487
3056 1 -22.6815 13.9496 13.6277 2.86639 1.29882 4.81117
3057 1 18.5523 9.86069 -22.8853 -3.50849 0.730047 -1.77666
3058 1 10.775 -5.87043 10.5652 1.79733 -0.89532 -0.732045
3059 1 -11.7159 -20.2531 -5.60994 -5.45667 0.447775 -2.4955
3060 1 -23.5867 24.8096 -3.98251 -2.48127 0.892139 0.87929
3061 1 -9.86838 25.7791 -16.3664 -0.533404 -0.818589 1.5778
3062 1 -11.8165 14.953 -16.7859 -8.12658 -3.16713 -4.67265
3063 1 8.81755 21.7783 -12.8872 -2.55883 -3.32539 6.43431
3064 1 0.128774 11.4727 -19.9159 0.370492 3.46677 2.892
3065 1 8.07492 -11.8531 -11.4748 1.78369 -7.70116 -0.442552
3066 1 22.7271 -3.36409 0.656228 -0.988442 0.567495 -0.711646
3067 1 17.0839 20.9287 -11.748 3.14957 1.37928 -1.95544
3068 1 19.2973 16.43 -2.56358 0.815857 1.80218 -2.61056
3069 1 7.48532 -7.00678 -3.52502 3.97841 2.96169 5.51883
3070 1 20.7626 -8.21192 -0.931207 0.564267 4.1728 2.80124
3071 1 -4.67296 -0.733237 -3.56316 7.43629 1.72631 -0.587524
3072 1 -1.14656 9.9986 22.7165 -0.876202 -0.838463 -1.44043
3073 1 3.00978 21.3844 0.532386 2.8265 -0.825303 1.28397
3074 1 -8.24187 -7.75077 9.03472 -1.21754 1.56117 -4.36398
3075 1 19.5971 9.5113 -20.1319 5.86808 0.13232 -0.43624
3076 1 -12.1694 21.6114 11.3077 -0.472488 1.33871 2.35402
3077 1 -13.1286 45.7937 -10.2428 1.93438 -4.63637 -1.08295
3078 1 -19.0164 3.78734 -15.2457 -2.80692 -4.52086 -0.685942
3079 1 12.5278 -2.95458 -1.26604 2.95965 -0.632661 3.95293
3080 1 -19.2602 12.0928 -5.19702 -0.0713362 2.03388 -2.42395
3081 1 -18.5195 9.30632 7.11086 -6.98362 -1.24255 -1.60921
3082 1 -3.2584 2.93418 23.6758 4.88802 -1.97612 -4.0248
3083 1 10.0302 -13.262 -9.89202 -2.36156 2.09322 4.44238
3084 1 -15.9097 -21.5269 7.17927 -0.0926129 -1.02652 1.90717
3085 1 -16.1229 -3.28338 -6.87945 3.00483 0.967095 -1.63684
3086 1 13.9346 18.8564 6.13511 -1.43019 -2.91634 -1.56429
3087 1 -10.5098 -19.9298 10.9777 4.00658 1.13112 -2.49999
3088 1 9.12163 3.51678 16.2765 -5.96766 -3.25343 -5.25157
3089 1 9.56002 -19.8767 13.7226 -3.96203 0.400083 -2.51429
3090 1 17.4956 -2.58214 -6.80072 2.48843 4.00301 -4.1583
3091 1 -5.95025 3.59827 22.2552 3.11789 0.74617 -1.82705
3092 1 -7.78857 -4.19103 21.9534 -0.168062 -0.348151 4.16289
3093 1 -12.9467 3.19126 -20.6104 -0.802498 -0.411231 -0.839119
3094 1 15.4596 4.44579 19.9464 4.10135 -0.957565 -0.165047
3095 1 -16.0712 -13.414 0.513523 -3.87743 -0.334852 -2.81374
3096 1 8.32785 4.85687 -23.6487 -4.02778 3.05276 1.55411
3097 1 -6.8059 -12.7726 -19.7307 0.250818 -0.331709 -3.45038
3098 1 -9.42774 -18.708 4.74064 3.03653 1.32917 -0.0670256
3099 1 -21.0222 9.7937 -23.7168 -2.58891 0.0659328 -1.37862
3100 1 20.1624 -9.69842 -22.421 5.08731 -0.420447 -4.34961
3101 1 22.0039 -13.897 -20.4719 -2.47383 -1.89285 -3.23767
3102 1 4.3437 3.07082 -23.3556 0.241946 1.65411 3.48922
3103 1 -6.9683 -10.4501 23.3156 -1.63264 -0.527789 -0.648229
3104 1 -20.2156 -7.28842 8.05291 1.03876 0.189833 0.0774827
3105 1 -22.3296 -4.64668 20.26 2.92519 0.788245 -4.06616
3106 1 3.51996 -12.0238 -8.75155 -2.18876 -1.92578 4.85385
3107 1 18.3203 -11.5526 22.2099 1.07567 1.00233 -7.24266
3108 1 9.15211 -15.6274 -8.21572 -0.152621 -4.01629 -2.30077
3109 1 0.930723 -0.827565 2.17689 5.0929 -1.84872 -0.0787471
3110 1 8.2771 5.79436 -0.290882 -0.636517 1.69871 -5.10611
3111 1 9.83526 -19.9291 -18.9818 1.44788 -1.92016 2.22359
3112 1 -1.28161 -12.3559 -21.7229 0.440179 -1.5231 1.62419
3113 1 9.30687 -12.3064 -17.0891 -1.8455 -4.60818 3.25487
3114 1 5.78871 3.04622 -17.7549 1.5338 2.83604 -4.94333
3115 1 -20.4916 20.8846 -14.8234 1.14397 0.427501 -1.17814
3116 1 -11.1042 16.4732 -1.92867 1.20743 -3.23684 0.161555
3117 1 17.0257 -11.9839 -4.85323 -3.3893 -0.381565 2.40711
3118 1 4.85097 6.81988 4.9368 -1.8719 2.48158 2.02453
3119 1 -6.3108 -6.9531 5.04971 -1.08744 0.762242 0.489407
3120 1 -13.8563 -9.81448 -16.9087 -2.95159 -1.23398 0.502551
3121 1 1.79009 -20.9087 15.5467 -2.57526 1.80192 3.26767
3122 1 -11.9287 26.3631 19.7868 -1.05791 6.62673 -0.807584
3123 1 13.9906 16.2066 13.426 -0.00285229 -1.59756 -2.84853
3124 1 -14.7638 12.7885 -8.98279 -6.63847 -0.312523 4.29663
3125 1 -1.44542 -13.9009 -6.26037 3.48109 -4.60292 -1.14502
3126 1 0.726068 7.21619 -8.31252 0.277669 -4.56204 -4.79646
3127 1 17.4234 6.61222 1.57085 -4.47892 1.27619 4.97957
3128 1 4.01012 7.66485 -15.0321 0.44589 -10.0686 -1.41992
3129 1 -4.49876 -12.3259 10.1397 -6.41944 1.73727 1.87684
3130 1 21.5782 -10.7417 10.0641 4.20884 4.32991 -2.29226
3131 1 -9.25817 13.1945 0.292755 0.472293 -2.77112 3.78375
3132 1 4.77088 11.8424 2.68062 1.1183 -3.93637 4.43236
3133 1 -1.18841 14.1111 -14.8554 3.78733 3.78171 -2.27697
3134 1 19.4625 5.70729 -1.90187 -0.273106 1.34802 -4.33839
3135 1 -17.0497 -12.6407 -2.07499 4.67386 -2.95546 -0.0828295
3136 1 -17.8795 -22.9703 5.24172 2.85795 0.851987 2.49042
3137 1 1.84121 -7.55048 -15.6242 -5.7368 -3.01793 -4.09401
3138 1 17.4258 -2.89677 21.2416 2.39326 0.690679 4.08441
3139 1 5.86405 8.69791 -13.0066 -5.90695 4.10354 -0.911138
3140 1 2.40517 17.5221 -19.2925 1.75852 -3.17707 -2.54125
3141 1 8.56764 -4.40608 -6.40332 -0.784797 1.27782 -6.10755
3142 1 2.02854 25.761 -17.9293 2.74954 -6.80719 1.29174
3143 1 23.1041 22.63 -20.4725 -1.12426 -2.53214 -1.48478
3144 1 0.884573 12.8035 5.04259 1.3338 -1.72628 -1.39032
3145 1 19.9571 -20.1893 8.19509 2.19194 1.2129 0.618198
3146 1 0.391048 6.8278 -10.8058 -2.9328 2.9406 1.65358
3147 1 -3.57685 -19.9359 -2.76861 -1.05236 -3.11132 1.00019
3148 1 8.04633 -10.3274 6.27696 -2.92631 0.623998 0.430331
3149 1 12.1539 5.53393 -16.027 -0.00394756 -0.107243 -1.44044
3150 1 -20.5643 14.3073 4.80462 0.134954 3.40015 -0.512713
3151 1 -11.3571 44.7647 -17.8037 -2.64927 -0.0855213 -0.989145
3152 1 -13.2152 19.618 -22.3394 5.91856 2.58947 -2.42725
3153 1 17.0324 6.28183 -21.2418 -0.839733 -1.825 1.1229
3154 1 10.7106 19.0538 2.76093 5.85399 -6.44489 -1.45025
3155 1 -5.79448 -12.5119 2.79544 0.826192 1.49301 1.74331
3156 1 18.5497 -3.75734 8.99064 4.05289 2.94403 -1.54244
3157 1 11.6882 1.92687 3.63655 3.90208 -3.59048 2.90489
3158 1 21.4674 -19.3494 -7.65009 -0.931172 -0.233964 -3.79894
3159 1 17.7706 1.84864 -4.15374 -0.545829 -0.839374 2.39939
3160 1 -9.75791 46.2714 22.119 -3.93216 1.03751 -6.67594
3161 1 -8.53013 -17.2361 -1.43406 1.80137 1.24028 0.454265
3162 1 -14.8742 -14.3825 -13.5381 -2.56878 -0.791138 -2.84574
3163 1 23.2508 1.19793 14.4427 -2.64981 2.20254 2.10572
3164 1 -19.7793 3.89288 18.7072 -1.89364 -4.53717 2.20415
3165 1 -5.8872 21.314 -15.572 -2.18303 1.20586 -0.909571
3166 1 14.7611 -10.9826 18.2144 1.40019 1.68794 -1.28521
3167 1 19.8739 -15.5627 -19.2438 4.12661 3.43603 2.87114
3168 1 -16.672 -21.273 17.6654 1.6991 8.14286 -4.02975
3169 1 13.8206 -23.1703 -19.9909 0.0521067 -5.53509 -2.63668
3170 1 5.03163 23.0245 23.7695 1.96784 0.546044 4.72939
3171 1 -6.92472 15.6693 23.9851 -3.28278 3.6746 2.88441
3172 1 -7.40799 2.17142 7.77816 3.43874 -7.12809 1.47977
3173 1 9.81565 19.5797 11.646 -2.18652 -2.52886 1.27209
3174 1 -24.1029 12.5987 -9.50431 1.41372 -0.0572418 -1.94558
3175 1 20.248 3.33137 -5.46085 -2.86532 3.97948 -1.50175
3176 1 16.4161 -1.68375 15.1717 -3.31806 0.405519 1.26386
3177 1 -0.575769 -8.83791 -22.461 -6.16347 2.45631 1.36672
3178 1 14.6995 21.1689 11.5661 0.00237336 1.27699 3.01966
3179 1 1.57715 0.778482 23.7925 -0.378803 2.01825 -0.122207
3180 1 1.281 15.2153 3.17452 -1.51134 -2.80264 0.170638
3181 1 -22.1247 -20.1906 20.9936 -1.38454 2.6571 -1.82692
3182 1 -16.4252 45.5434 21.9552 2.34174 -0.809175 -1.715
3183 1 -22.158 18.0493 -6.33868 -0.738228 -7.36692 0.0229786
3184 1 14.4313 -4.2793 2.70641 -2.67321 -0.267491 1.22734
3185 1 -15.2551 20.4375 -20.1702 -2.43485 -2.27643 5.07661
3186 1 -7.25514 21.7663 7.3884 1.64689 -4.92021 -1.6307
3187 1 -19.8073 -18.4933 -0.833907 -3.25545 -0.308753 -4.43303
3188 1 -19.7152 13.1543 -8.17305 0.0567111 -0.226981 -5.83716
3189 1 14.6968 11.0843 7.82985 -3.57662 -0.709361 1.54875
3190 1 -21.8968 23.0707 -13.4229 -3.7193 -1.75523 -1.03143
3191 1 6.33877 -6.68233 -7.04307 -2.3598 -4.3964 1.4439
3192 1 23.4207 11.6242 0.0442167 5.29425 2.53875 -4.9897
3193 1 -19.348 25.2728 -0.296201 0.165055 2.24201 0.86627
3194 1 -16.4334 -4.5127 1.98191 -2.52335 2.17947 -0.303453
3195 1 -16.4171 3.99759 3.01096 1.83245 1.71525 -2.37905
3196 1 -0.119704 0.462653 -2.31901 -3.75389 -1.21463 3.49915
3197 1 -2.74845 12.558 2.84123 -5.56141 -4.95091 1.79846
3198 1 8.45225 5.94419 -17.0742 -1.72806 0.715397 0.753346
3199 1 14.2503 -24.1256 4.52023 -3.88474 2.10371 0.364772
3200 1 23.1663 -4.12189 -4.99939 3.63687 2.47372 -1.808
3201 1 -12.2394 -3.91286 20.7445 2.15428 -3.38204 -4.90686
3202 1 -17.4797 -11.8761 -7.64646 -4.24098 -0.827118 -0.216543
3203 1 15.8987 8.41126 19.3177 2.00156 -3.26205 1.53861
3204 1 -17.4873 -9.3909 10.6835 -4.10604 5.21188 4.54026
3205 1 -13.575 3.23707 -2.57032 -2.34997 0.627287 -3.42128
3206 1 15.3447 9.59664 -5.46842 2.56272 -5.59535 1.667
3207 1 -3.13701 -9.86365 -17.4678 1.76078 1.11801 -1.32347
3208 1 5.36049 -7.01595 6.97978 7.89027 1.7226 2.62265
3209 1 9.51519 -13.0986 -23.5901 3.6826 1.86853 -5.10074
3210 1 -13.3416 11.5877 -2.95485 4.21323 3.47884 1.24455
3211 1 -4.51492 21.0282 12.7906 2.19243 -2.50927 -3.8944
3212 1 -14.6302 8.30969 -17.5437 1.62256 1.09602 -3.21389
3213 1 -3.51087 3.05441 -12.9169 -2.28273 5.30998 -4.10417
3214 1 -1.56464 16.0914 17.5161 2.66276 3.47877 -2.40058
3215 1 9.79462 3.26759 11.6475 -1.74542 -0.25016 -1.54087
3216 1 22.968 -2.34523 8.08561 3.64871 -4.36031 1.99716
3217 1 10.607 1.2458 7.58909 3.80548 -1.3675 2.16795
3218 1 -3.56566 25.1062 -9.29149 3.46484 -0.834881 -0.171316
3219 1 -6.12008 -21.3226 -18.2147 -3.504 -6.00441 -3.13313
3220 1 -4.61613 -7.93764 15.1421 2.60136 -1.9415 1.74859
3221 1 -6.87179 -5.99999 -2.60737 1.29149 3.37027 0.0698216
3222 1 -14.2029 -18.6286 -2.42501 2.28858 2.33768 0.579971
3223 1 23.2733 7.76397 18.1712 1.03332 -6.77735 -0.0193517
3224 1 -6.8708 -6.33942 1.87651 -0.973138 0.986451 0.45844
3225 1 -8.73877 -6.13479 15.3421 -1.84432 0.788561 -1.49907
3226 1 -21.5459 25.7782 -9.6626 -0.408863 -0.370274 3.59387
3227 1 6.78701 21.3939 -2.31682 0.298523 3.44356 1.74514
3228 1 -10.6179 11.6617 -13.565 1.46528 0.423859 4.03309
3229 1 -10.717 2.76732 -3.22636 1.61147 -0.318753 -3.33612
3230 1 -23.738 15.511 -21.9736 -0.923296 -0.973318 -0.0086682
3231 1 -17.5757 -16.6746 -0.377154 -1.43653 0.780666 2.02409
3232 1 -22.0887 16.3484 6.23237 3.16766 -1.69873 -1.29974
3233 1 -0.266776 17.8682 6.42425 -1.4502 3.22403 -1.97403
3234 1 7.93278 -6.60285 -12.5255 -2.47994 1.32429 -0.975454
3235 1 -6.56868 11.6641 -11.8464 -1.07702 2.99701 -2.47737
3236 1 17.8638 20.3187 8.08381 1.70389 4.16219 -1.97195
3237 1 -4.21014 -11.5272 -23.6108 -2.28362 0.477549 -0.0565363
3238 1 19.2345 21.3622 -1.73516 -1.57617 0.486845 -2.17804
3239 1 -10.9799 -15.3768 8.13119 -2.12952 -0.0288285 -1.11613
3240 1 -12.762 -22.8841 -17.6451 0.588646 -1.19142 2.18235
3241 1 2.61031 -21.1882 12.7416 -2.78953 -0.611404 -0.383203
3242 1 -24.274 -13.1678 -18.1836 -2.9707 -2.22566 3.13243
3243 1 6.49101 17.9024 22.6752 2.14692 -0.645025 1.69649
3244 1 18.8731 14.0664 -10.7207 2.6463 2.65699 1.1333
3245 1 -8.16712 23.06 11.4176 7.10228 -2.55407 -6.79817
3246 1 20.3868 5.92756 5.50452 -1.59931 1.23514 -5.37154
3247 1 -6.33182 9.62364 -9.7455 0.439761 0.28331 -4.10871
3248 1 7.91786 -2.26065 0.39689 -1.99575 -1.62501 3.71445
3249 1 7.53743 -3.17597 13.3976 -0.854641 -4.06608 -5.83214
3250 1 15.1702 4.2787 -21.087 2.6457 -3.90201 1.55429
3251 1 -0.806882 19.2481 14.5105 -3.16456 3.92974 0.289099
3252 1 19.4455 45.4399 12.028 0.764298 1.69242 -1.2393
3253 1 8.29916 15.3103 3.33251 -2.14734 0.146848 1.59062
3254 1 19.5314 6.02627 -4.85464 -1.68758 3.88978 -2.23014
3255 1 -17.075 12.6638 -20.054 -2.53635 -0.401432 -1.23704
3256 1 -2.88623 18.9374 -10.9059 1.2351 0.251059 2.66908
3257 1 -13.8093 6.64418 18.2508 -1.87936 1.1612 2.17926
3258 1 -20.1417 -8.3646 19.8492 -1.68847 1.89161 0.454323
3259 1 18.8175 18.9213 5.58393 1.77738 -2.30709 -1.32359
3260 1 19.8538 46.4263 -7.48261 -3.22651 3.32807 3.74904
3261 1 -15.7906 -3.5761 -15.32 -0.203281 -0.877526 -5.45963
3262 1 8.95901 8.83788 13.069 0.00508796 -5.57628 0.482383
3263 1 21.6766 1.31028 19.415 2.58157 -1.8073 1.60813
3264 1 9.93392 8.14877 21.6357 0.153609 -0.142215 2.71156
3265 1 2.75427 -3.85487 -12.0796 4.98416 2.33755 -6.66903
3266 1 9.77004 -0.739043 23.578 -0.142332 -3.37817 -3.7647
3267 1 -15.3253 11.1163 2.20127 -2.67158 -3.13639 3.03417
3268 1 7.49462 -21.1993 10.9713 4.819 -0.705616 -1.26249
3269 1 7.02772 16.2005 -2.94051 5.26599 -2.61283 1.02229
3270 1 17.1818 -18.0129 16.3378 -4.95549 2.90172 3.47935
3271 1 7.92907 -11.7416 22.2754 -3.05977 2.5841 -2.16417
3272 1 2.86079 11.6366 -9.17009 -3.63018 -0.811959 -1.764
3273 1 -15.4399 6.84073 -14.2278 -0.00175112 2.03174 -1.28651
3274 1 13.8144 -19.7595 5.01768 -3.02863 1.90904 -4.55408
3275 1 22.3277 7.04655 13.5401 0.0865378 0.512396 1.02701
3276 1 10.0116 1.68657 14.328 4.30156 -3.75632 -2.82723
3277 1 0.112231 -14.2698 0.856019 -2.36086 1.9625 1.6662
3278 1 -2.62229 -5.12123 -20.314 -0.0371379 -0.992302 -1.38805
3279 1 6.26724 -1.51458 16.4271 -0.800069 1.29093 4.54913
3280 1 8.65051 16.0471 13.2894 -3.72243 -0.167098 -2.70791
3281 1 -4.57668 -16.3999 12.6259 3.25852 5.19447 -1.29969
3282 1 -1.16738 -3.52484 -16.1086 -1.06175 1.62808 2.70474
3283 1 -2.43625 0.218041 14.6505 4.82192 1.03394 -1.91525
3284 1 13.8609 24.1859 -19.7693 -0.82329 -2.2853 2.25891
3285 1 3.38796 17.5597 -12.2791 -3.54869 2.43581 3.37698
3286 1 -17.6926 25.3572 5.73861 -2.44353 4.88211 0.0931558
3287 1 -3.04958 -12.7132 17.5921 2.52005 4.14462 6.44793
3288 1 -3.13885 5.77772 -19.407 0.54382 2.7353 -5.75107
3289 1 -18.2171 45.9627 12.4804 1.67674 0.557465 0.0217677
3290 1 -13.529 23.0562 17.0857 0.671612 5.65707 1.1649
3291 1 21.7057 24.2833 -11.3856 2.42345 0.93725 -1.34235
3292 1 -21.7251 21.8532 2.49699 2.11431 0.143002 -2.93635
3293 1 -9.81537 12.7859 23.653 3.92153 -1.62938 -2.16098
3294 1 -23.0116 -0.958339 -17.1328 0.457398 4.21109 2.291
3295 1 4.3046 -23.1842 0.655446 0.027285 -1.34784 3.21589
3296 1 -18.2728 -12.8439 15.3574 7.87165 -0.615937 -0.283067
3297 1 -16.9612 25.0517 23.0007 0.470357 -4.19024 -0.395217
3298 1 4.26284 -7.15014 -17.0487 5.50177 -4.50806 -1.78956
3299 1 -13.5018 24.978 -4.51316 -4.16976 0.990256 -0.197122
3300 1 -1.3354 5.56401 -7.26606 -1.5119 0.397774 0.395228
3301 1 -21.37 11.2895 -9.40323 -1.2442 -2.95758 1.46878
3302 1 -19.8602 -11.813 17.3557 -1.20162 -2.06596 -0.84935
3303 1 -23.3245 46.0635 -15.8965 1.47805 -2.53333 -0.235798
3304 1 -1.77577 17.0184 12.9028 1.02092 -2.11623 -3.79896
3305 1 2.49033 5.46734 -6.80862 -2.31379 -1.80729 2.03002
3306 1 -8.29889 11.0694 -21.9075 -1.65422 -6.22241 4.12107
3307 1 -20.9263 11.5481 19.9482 -1.25472 -0.979955 -2.74225
3308 1 -15.9543 19.4943 -2.57882 -3.35917 1.06766 1.80309
3309 1 2.77988 0.637902 14.8615 3.10701 0.045145 -1.25035
3310 1 16.5869 25.5992 7.66465 1.31996 -0.733438 -4.76681
3311 1 12.3774 1.16708 -11.2131 -2.76094 -3.08093 2.74467
3312 1 -22.0699 8.54153 16.473 0.7398 -2.14972 -0.421047
3313 1 13.5574 11.7212 10.3248 -2.73867 2.5338 -1.12649
3314 1 1.76531 -1.70088 10.9556 1.2517 -0.751541 -0.870632
3315 1 20.9698 -11.5907 23.18 1.84325 0.996698 0.80691
3316 1 2.74129 -7.35897 -3.48428 0.913732 1.57613 -2.67729
3317 1 1.99851 1.12025 10.8532 1.73891 -3.24877 1.00029
3318 1 -9.38959 1.98013 22.9355 0.49089 4.16516 1.50261
3319 1 1.33664 3.33857 -14.1835 -2.81672 -1.15824 4.32562
3320 1 4.2888 4.32502 -11.1551 -2.41381 2.14153 -4.17265
3321 1 -7.36472 -16.3138 20.5083 -1.41544 -1.27414 -1.75827
3322 1 13.8178 -10.0664 -22.9697 -1.19635 2.65088 2.14393
3323 1 -3.78481 18.8616 14.5907 -1.71753 1.48677 -3.84175
3324 1 14.8509 -15.0336 -11.5472 -7.77678 -1.69906 1.06168
3325 1 -10.4925 15.7749 4.18906 -4.43994 -3.23618 0.603019
3326 1 -23.233 6.16755 -22.9548 -2.06696 -4.10545 4.29574
3327 1 4.64498 -23.5885 -9.4803 -2.47059 1.54255 -3.55445
3328 1 3.38382 -17.2976 -11.5492 1.10939 4.20534 1.6088
3329 1 15.7434 3.35696 -16.9877 1.69285 2.11251 3.51278
3330 1 -7.66052 19.259 -14.1111 4.79927 -1.35412 0.690901
3331 1 -19.284 -4.68972 -1.61467 5.94942 -0.91886 8.05565
3332 1 -4.64977 9.53543 21.5041 -2.85944 2.69677 -0.67615
3333 1 6.63203 -7.05109 22.0919 -0.0243167 -0.247818 -8.99114
3334 1 -24.3201 20.0077 17.5289 -2.57321 0.721364 -0.339192
3335 1 22.4464 -0.24834 -3.05605 -0.495425 0.47861 5.06486
3336 1 13.5942 -16.8742 1.24805 2.96446 0.661919 -0.677576
3337 1 -14.9828 12.04 10.6714 -0.382773 1.83675 -2.87515
3338 1 10.5443 24.1489 16.5263 2.21258 -1.34524 0.445034
3339 1 11.2182 20.9489 -21.9671 -0.808741 2.47751 3.86164
3340 1 18.0176 -1.50754 -19.2113 0.787094 -4.74484 0.126516
3341 1 20.5547 22.0893 -15.4467 1.19923 -0.408502 -1.33453
3342 1 -1.67302 -1.01796 2.69497 3.12192 2.40433 -0.570236
3343 1 -23.0369 -6.62301 -16.7297 -1.1047 -5.13702 1.48195
3344 1 17.0758 -20.9195 16.7976 1.30175 0.373722 1.97305
3345 1 13.9845 23.3542 23.0983 -0.218538 -2.01831 7.17336
3346 1 8.79176 -22.4867 -1.40059 0.379716 0.677941 -8.27267
3347 1 22.9377 13.1775 -14.0354 -4.1034 3.31193 -2.93218
3348 1 -11.2096 -19.1648 0.641212 -3.26277 -1.10085 -0.821536
3349 1 14.996 19.3934 -12.894 -2.38947 4.34228 -0.0223209
3350 1 -6.03467 -5.45271 14.5805 1.30174 6.01613 1.68877
3351 1 -21.7032 -10.1246 15.6218 -1.20839 -0.418135 5.31293
3352 1 5.92105 15.5364 5.25754 1.22279 -1.50629 0.866534
3353 1 -22.69 5.43119 16.2256 0.208302 -5.19807 3.0474
3354 1 -15.4951 9.3024 -0.146186 -5.62335 -6.99152 4.29962
3355 1 -15.7675 -20.9411 -7.48991 -6.27907 -1.62316 0.970189
3356 1 -8.74687 23.8394 6.21078 -3.6303 -1.00181 3.31388
3357 1 6.10622 -6.7879 19.204 -3.89516 -1.85121 -2.13618
3358 1 -2.58654 22.8812 13.858 4.93529 -1.29031 -2.16405
3359 1 -5.61536 25.4915 14.3474 0.147226 -2.05642 1.67951
3360 1 -6.91478 -14.8215 16.4536 1.81954 1.90387 0.700514
3361 1 -2.84355 25.7062 10.1488 1.92149 4.21586 2.93878
3362 1 -9.31658 5.65343 -14.2093 -0.213547 -7.03213 -0.613626
3363 1 11.2452 -0.201164 -16.2131 -1.68526 2.69955 0.446941
3364 1 -19.6815 -7.44464 2.56358 1.83534 -0.730106 -6.49589
3365 1 -1.15015 -6.86229 11.1207 5.50964 -2.12413 -3.22319
3366 1 -19.4325 46.042 -21.4198 -0.781984 0.488966 2.22039
3367 1 3.02156 -20.2079 -22.3052 3.2264 -3.9001 2.47507
3368 1 21.0204 -20.9427 17.0676 1.99254 -0.308545 1.68341
3369 1 -2.46008 -3.83694 -6.91624 4.02893 -1.1528 -0.578014
3370 1 -19.4294 -14.6568 -15.5708 -1.64428 1.21922 0.159012
3371 1 -9.96422 5.02474 15.5091 0.517892 -1.04217 -5.46456
3372 1 4.60315 -4.24424 -6.78456 -0.915387 -3.971 2.22803
3373 1 15.2831 -5.63022 18.4613 2.30974 1.02964 -2.36518
3374 1 21.1533 -14.119 -23.0531 1.36351 0.842801 -0.424753
3375 1 20.4506 -10.7194 -2.31826 2.65268 7.46027 1.96846
3376 1 -16.0902 10.8666 14.8312 1.97381 0.765413 3.9093
3377 1 4.77201 -14.4843 13.0476 -1.77744 1.57482 -1.32742
3378 1 -5.74949 -17.9149 -2.23598 1.58655 -1.42976 -3.04535
3379 1 10.0008 -9.03481 7.97014 2.58873 0.150233 -1.44724
3380 1 1.19119 18.3045 -23.6437 1.54287 5.23058 -0.126548
3381 1 -4.15386 -15.1419 -21.8433 -4.23055 -3.12141 -3.70503
3382 1 -19.9379 15.7908 13.8358 -1.03165 3.32214 4.24956
3383 1 -19.6036 25.4345 -16.2852 0.599234 0.668838 -1.21644
3384 1 18.1248 -19.5622 -13.4637 -3.30766 -3.62676 -4.81037
3385 1 -1.90744 -18.7403 -7.3391 -2.55611 0.507384 0.672246
3386 1 6.44546 -8.55386 -23.2226 2.19532 1.70623 0.429385
3387 1 -19.3889 -2.53055 2.64047 -4.20772 1.01416 0.241683
3388 1 -18.3523 -1.26923 14.5841 -3.22613 2.00938 -0.0889549
3389 1 -14.1373 -10.6306 -12.1097 3.28916 -2.04634 1.46507
3390 1 22.4187 -23.334 14.7974 -1.44328 2.09827 -1.49682
3391 1 -8.27569 -16.0267 4.98046 -3.28636 0.110308 0.603718
3392 1 -8.61693 3.37309 -15.9478 -5.24597 3.59763 -0.794417
3393 1 -15.6789 16.6281 -18.3316 3.94532 0.844551 0.62805
3394 1 -9.71807 -0.126547 14.1841 -0.623212 -3.563 0.543736
3395 1 16.1074 -16.3913 11.003 2.23609 -1.54413 1.89065
3396 1 -21.1685 9.06003 -7.58607 3.12291 -3.6172 0.475457
3397 1 -4.16025 4.7112 20.2782 1.00364 3.2868 5.09028
3398 1 -5.89703 -20.4856 -5.67067 0.0905595 -0.134511 -1.60868
3399 1 -0.164964 -7.34914 4.64087 0.570909 3.6822 1.47538
3400 1 16.0033 -24.2162 -21.3631 -2.10355 -2.77105 5.05046
3401 1 -18.1505 46.6622 -14.4924 -3.82719 3.07094 -2.41324
3402 1 15.6359 -18.7755 -16.7596 -2.94466 -1.56019 -1.66622
3403 1 -16.1825 -24.074 0.251244 -2.01684 -0.108453 -2.92861
3404 1 -17.6144 -9.10869 1.58787 -0.0389565 2.42653 0.209146
3405 1 15.8131 4.71467 12.335 0.665483 1.41552 -0.342372
3406 1 4.32956 -5.70867 4.68731 4.76095 -2.31262 -5.96042
3407 1 14.2124 -3.55655 -12.3131 3.617 1.31969 4.65485
3408 1 -19.1678 15.9612 -22.6725 4.53612 -1.85541 5.83745
3409 1 -1.54519 -17.9024 18.069 3.93875 2.35128 4.05439
3410 1 -19.1661 -5.62613 13.7762 4.94338 -0.335214 -7.36026
3411 1 -3.90502 -2.82901 20.8064 -2.77899 -1.90711 2.40907
3412 1 6.13495 -2.41995 -10.2156 -3.51076 3.20663 -3.34815
3413 1 -0.772404 -23.2998 -19.6005 -3.33564 -3.72903 -0.30407
3414 1 -19.4041 4.28865 -5.93736 -1.18796 2.48797 4.33122
3415 1 -19.1708 0.563331 -15.0727 -1.43739 -2.48486 -1.55595
3416 1 21.3796 -22.2568 -7.37475 -2.01814 0.510787 -2.37879
3417 1 -22.032 -10.3902 9.97495 3.04671 -0.303369 -0.170048
3418 1 17.3465 19.9634 12.1618 0.0621551 -0.0522989 2.68406
3419 1 -10.0101 -8.86659 2.45291 0.327846 -2.46047 0.331921
3420 1 -19.7056 10.9913 9.28588 -1.01929 0.679263 1.40864
3421 1 9.03885 13.0884 -16.6448 -1.63996 4.16718 -3.16304
3422 1 6.55517 -15.6708 -2.90305 0.938251 -6.01798 -1.07875
3423 1 -14.2101 3.86386 0.910474 2.59358 -2.75409 -1.30301
3424 1 -1.78671 -11.0272 3.21397 -0.667274 5.39487 -5.04124
3425 1 -23.7598 -10.2219 18.8331 4.39716 -1.65522 3.20624
3426 1 -20.5193 -6.3697 5.42347 0.364848 -0.296921 -1.15435
3427 1 -21.9506 11.3255 -15.6234 1.60445 -2.71211 -2.95367
3428 1 -3.63558 12.1382 17.3393 -1.98824 -1.41248 4.46745
3429 1 6.71885 -18.0889 17.8061 -2.74843 -5.45539 4.53552
3430 1 -12.2415 -16.4622 17.7653 -0.304766 -2.02748 -0.727752
3431 1 -9.57241 -3.42632 1.30243 -1.4563 -0.938342 -1.52467
3432 1 -1.90192 10.117 8.1485 -5.01048 -2.29165 3.6358
3433 1 -8.69755 -1.85285 -17.9086 3.28939 -2.45577 -1.54259
3434 1 13.1288 15.3538 -10.9668 0.486307 -0.999764 2.11033
3435 1 -1.50918 21.1636 -15.5006 0.675132 -2.59671 -0.720995
3436 1 -3.03795 9.37814 17.5572 -0.708257 0.0173266 -4.43089
3437 1 12.2244 16.0952 -6.15657 0.740676 -2.81187 0.560292
3438 1 -17.3102 11.7114 4.1112 -3.50935 3.77548 2.55104
3439 1 2.28108 -12.8355 12.6419 -0.742941 -3.40286 -1.44366
3440 1 4.49594 22.3082 -8.65321 1.85007 3.20595 -4.25639
3441 1 7.67811 -14.7748 -5.84684 1.63152 5.2333 0.0378106
3442 1 -3.89966 2.55274 7.89105 0.0497934 -0.689724 3.91928
3443 1 -22.3215 2.72015 -1.30961 3.66399 2.36948 2.84022
3444 1 -18.226 14.3943 3.00603 1.96798 2.63341 -3.25138
3445 1 -13.4329 3.37422 -8.19855 -1.3516 -3.22812 -0.0360144
3446 1 -3.73594 -23.2351 -19.2946 -3.55597 1.34226 -3.97057
3447 1 -6.51685 5.07972 -5.95977 -0.769372 2.75563 4.17733
3448 1 -19.2951 6.05711 14.3263 -0.67637 0.53648 -2.56382
3449 1 8.78761 24.8654 -16.2821 3.22503 0.743028 -0.218334
3450 1 -2.21305 -14.4703 -14.3028 0.1315 0.569945 7.62848
3451 1 5.89345 -10.3954 -19.1243 2.44027 -2.7689 -0.693454
3452 1 -12.654 -1.37317 -11.6339 3.64775 -0.566842 -0.44391
3453 1 17.121 8.33743 -19.2212 -3.29765 -5.10097 1.84233
3454 1 -23.707 21.0797 12.9263 -0.306556 1.82337 -3.58817
3455 1 -17.3032 16.1109 20.0091 -2.29076 -5.55817 0.309036
3456 1 10.5075 23.7583 -14.1583 -0.850092 3.2613 0.507082
3457 1 -22.78 17.6563 22.4231 1.91408 1.74198 1.79143
3458 1 16.4741 10.0218 21.6703 -0.463076 -5.98955 -1.60108
3459 1 -4.01669 18.6059 17.5479 -1.10977 0.999955 -1.01973
3460 1 -1.91239 20.6799 17.9668 -4.8358 0.656819 -3.31389
3461 1 -12.8829 45.6333 17.9744 0.758581 -0.904925 -0.11698
3462 1 -12.9586 24.0276 -7.21423 2.59508 1.99558 -1.23129
3463 1 22.9127 8.26118 23.1032 3.62532 -4.06255 2.03135
3464 1 -18.5656 -18.9639 12.2154 0.440541 1.02322 -2.99251
3465 1 1.13585 -4.1414 12.0663 4.10211 0.495102 -0.290677
3466 1 -11.2876 5.64405 -8.30916 0.34843 3.12927 0.406707
3467 1 11.4523 14.8239 13.5334 -5.91408 5.00146 0.262296
3468 1 -7.00529 -6.51438 23.6996 -2.08389 -2.05906 3.67477
3469 1 -2.71722 -10.5303 0.576279 -0.155295 -2.80885 3.14155
3470 1 -17.0473 -20.4753 -10.0701 2.72367 3.097 -4.55184
3471 1 -15.0932 -17.9089 -16.6262 -0.511694 -1.14673 -3.63779
3472 1 -14.0149 11.8416 -18.3996 -0.140369 -1.02324 -1.04758
3473 1 -23.1555 23.9874 -18.4895 1.43881 -0.0893425 -0.78904
3474 1 15.9271 -4.20404 11.9305 0.6856 1.10079 -2.75027
3475 1 -20.3691 -14.9781 17.6379 2.48025 2.52625 -2.27574
3476 1 2.67962 14.1926 16.46 0.911736 -2.89327 -2.53969
3477 1 -21.381 -1.31818 -14.7155 -1.72739 1.47357 0.465249
3478 1 10.2926 -13.9869 3.27468 -1.52652 0.83922 5.50519
3479 1 13.1742 -5.21643 12.4523 4.80368 -1.13033 1.90046
3480 1 21.8869 26.4096 -4.70315 -1.93567 1.76655 0.885996
3481 1 2.85711 -22.8628 23.0464 5.86175 -1.01444 -1.73179
3482 1 13.9617 18.3074 1.31548 -0.633732 -0.632701 -0.313092
3483 1 8.37179 19.7842 -0.478499 -0.364405 -1.59137 0.307989
3484 1 4.00167 12.0691 7.28746 4.41554 -0.953398 -1.06116
3485 1 0.375392 6.95269 -2.84977 2.20989 -1.30743 -3.28952
3486 1 15.5896 24.388 16.447 4.47717 1.67556 -0.765377
3487 1 9.26894 -9.18278 -11.168 0.373249 -0.852246 1.0376
3488 1 15.63 16.5145 -12.246 0.871972 -6.16596 2.37167
3489 1 19.6727 1.28491 -10.374 -1.25602 -0.832593 -2.65361
3490 1 -20.6486 6.77534 4.15214 -2.09641 7.07311 -1.1945
3491 1 -8.26869 8.02319 -21.6981 -1.88677 -1.35378 -0.100412
3492 1 18.4418 -4.48996 6.01255 1.26765 0.570313 0.35061
3493 1 6.73983 12.0595 16.4995 0.703408 5.08488 3.98393
3494 1 -16.1188 2.78823 22.7721 -2.14307 -6.27297 4.11584
3495 1 -24.2771 -4.40624 15.2923 -3.15726 -1.4556 3.25879
3496 1 -9.7544 6.78483 -16.8365 -3.97185 1.17548 2.45786
3497 1 -16.9462 11.7888 19.9261 -1.41458 -2.36161 -6.34919
3498 1 -17.1269 14.5452 7.09732 3.70272 -0.933056 -2.47055
3499 1 -19.6768 21.3046 -20.5786 0.214716 3.94625 -1.72824
3500 1 19.0691 14.2161 -7.81363 -0.681942 3.06497 3.5308
3501 1 -17.2636 20.6895 -5.78109 -5.44874 -1.08944 3.90973
3502 1 -8.02533 23.0347 -3.8965 3.07335 0.969934 1.94508
3503 1 18.923 -24.0754 3.51752 -0.478727 2.07572 0.0992297
3504 1 17.2584 -0.40501 2.40751 -0.992832 0.681516 -0.321684
3505 1 -1.26082 -15.4953 3.32037 3.84085 0.101511 3.09315
3506 1 -20.8557 23.1547 -5.962 0.0765736 -1.88984 0.813883
3507 1 9.23445 5.16048 -10.9591 -1.95221 0.402396 5.77047
3508 1 -4.1533 -12.4715 -20.8047 1.59999 2.21576 -1.27567
3509 1 -19.2267 -19.9202 -21.7796 -2.62843 -2.14913 2.87462
3510 1 -10.4826 4.51341 12.795 3.90279 2.80533 -1.46801
3511 1 17.5987 9.80301 -2.11275 -1.534 5.08175 -1.77416
3512 1 -18.3181 5.21854 1.17019 -2.93566 -2.35717 -3.23363
3513 1 -18.6162 -22.656 -20.9177 4.30419 1.47672 -2.95209
3514 1 -1.26947 16.6669 -11.9702 2.45272 2.54893 2.7529
3515 1 15.1691 -18.2193 9.15845 2.80722 -2.60403 -1.12372
3516 1 -20.9386 4.63821 -18.6615 -1.56794 -2.6509 -3.93923
3517 1 -7.44067 19.1912 18.2954 -0.178294 -0.937983 -2.81708
3518 1 2.02222 0.414267 -0.26471 0.260015 -2.29362 -3.0636
3519 1 -4.24625 4.36288 17.1538 0.678485 1.09647 -1.26394
3520 1 -7.21691 -10.7299 20.2271 -2.52188 2.40199 -1.13182
3521 1 4.37746 9.88975 -16.9203 -5.67041 -1.94642 2.12524
3522 1 21.9001 16.608 -20.5539 1.02211 -0.337213 2.93761
3523 1 -14.7801 -19.0613 6.34958 -6.05396 3.0948 2.05637
3524 1 -1.16455 24.1858 -0.769561 2.69894 -1.29302 -1.46429
3525 1 -15.6711 14.8214 -21.5819 -0.648751 -4.43222 2.22592
3526 1 9.70817 20.8637 -8.37709 -0.205121 2.03782 -2.86666
3527 1 -1.77841 13.1805 5.70132 -0.512893 0.918353 5.21525
3528 1 -23.3055 45.2749 0.130888 1.60056 3.27997 0.473924
3529 1 -19.4137 7.32728 20.8739 2.74416 -5.87047 -1.4963
3530 1 -11.9665 12.0291 6.78711 -3.27189 -1.03357 1.96456
3531 1 4.97539 5.27402 22.4234 0.646888 -2.02781 -3.42288
3532 1 -6.51635 14.5519 -8.75863 6.62379 -0.240198 -5.59454
3533 1 15.2524 12.0567 3.70869 0.90215 6.01935 3.30837
3534 1 7.07803 -1.90153 20.1356 -2.5886 1.13152 1.251
3535 1 12.5547 -20.422 -17.7698 1.92208 -1.58962 0.307146
3536 1 21.4789 -19.0456 10.7512 0.423129 1.12854 -5.29197
3537 1 19.4093 24.9688 17.1863 0.935951 0.641061 0.714538
3538 1 5.03115 -7.91301 13.7118 3.05933 -5.95162 -2.13904
3539 1 14.6378 23.6948 -12.2236 -1.68442 -0.617519 -3.34084
3540 1 -0.339296 13.4137 -4.19059 4.37898 -2.07022 2.59418
3541 1 13.7864 -2.6526 -19.8014 4.10584 3.76004 0.897508
3542 1 18.548 -1.43071 5.92088 -2.87732 2.81698 -1.23196
3543 1 -17.2296 15.2993 -6.02978 0.790929 0.499615 5.2325
3544 1 -9.38526 20.7566 -2.98739 0.611588 -0.535881 -3.94074
3545 1 2.83864 21.4268 12.5956 -1.71482 1.024 0.194767
3546 1 16.9793 12.1564 -10.0173 1.68335 1.54744 4.29194
3547 1 8.91624 -15.8443 -11.1323 -2.46114 0.597509 -6.04843
3548 1 9.94188 -10.372 -19.0409 1.88737 2.01383 -7.28838
3549 1 -11.4874 9.67241 5.37309 -0.702965 -3.51256 0.319192
3550 1 -12.8095 18.495 9.19501 0.498347 3.88159 -0.833478
3551 1 13.5165 0.198525 -19.4563 3.5699 -1.05091 -4.96991
3552 1 15.1577 20.6771 7.92392 2.10242 1.80999 -4.13228
3553 1 -10.628 19.4158 -5.26611 1.32001 3.64643 -2.50357
3554 1 12.7582 13.3695 -15.9031 -1.49982 -0.304607 1.88955
3555 1 -17.8924 -20.2947 0.528786 2.43817 2.34455 0.4351
3556 1 -8.18503 -12.6081 17.9483 7.08036 2.28935 -0.194989
3557 1 12.2999 7.26131 -19.6189 -0.936677 3.70026 5.41435
3558 1 -20.8591 -13.4982 0.30125 0.691724 -3.10659 1.83065
3559 1 8.47126 -3.81512 10.8846 0.130526 1.17181 -0.70101
3560 1 -19.7183 18.677 -16.8275 0.721234 -3.6811 -3.32265
3561 1 -18.6879 22.9784 4.52888 1.41092 -3.43422 -1.89008
3562 1 19.1409 11.8445 3.64928 -1.5117 0.956118 -3.47027
3563 1 4.19702 -21.8793 -5.71041 -3.9943 0.632183 2.80681
3564 1 19.0961 11.6225 -14.2694 0.892958 -3.0144 4.9936
3565 1 16.674 -19.4501 -4.476 -2.65607 -1.06785 1.73315
3566 1 -12.0482 -13.005 4.45097 3.33164 -0.946423 0.835163
3567 1 1.40747 -9.14933 6.76347 7.82499 -1.89868 7.18118
3568 1 18.7393 -3.05821 12.1088 0.239958 -1.49593 2.12019
3569 1 -4.35323 5.62068 -11.8684 -1.4422 -5.94555 2.96226
3570 1 11.6983 21.7069 22.8273 -0.140519 4.02005 1.68314
3571 1 2.29942 21.9107 8.98948 4.09103 -1.92428 4.49732
3572 1 -13.813 -16.9824 -18.763 -2.92462 -1.16273 -3.83314
3573 1 20.7395 -3.81867 -1.68332 -7.65252 -2.55198 1.4635
3574 1 -16.1626 -4.27008 -10.3508 -0.110801 1.72288 0.34399
3575 1 -11.4155 -13.792 -12.0441 -0.247319 -2.81724 0.257763
3576 1 14.977 3.40513 14.7661 2.82577 0.80793 0.25135
3577 1 -6.79433 10.0956 -5.91933 2.89208 0.0104732 2.18041
3578 1 21.6227 8.04652 20.5237 -1.02228 -1.43672 1.99897
3579 1 -20.1538 -9.19128 -7.60012 8.83791 1.86001 -4.05797
3580 1 -2.77974 -8.07239 7.92442 -2.33182 -3.36155 -1.83445
3581 1 -10.8097 9.22515 2.67695 2.94286 5.06862 -2.30098
3582 1 -15.5475 45.6321 13.3957 -4.39593 -2.73426 -1.93772
3583 1 -17.2593 17.494 7.09408 5.17151 -5.80664 1.65612
3584 1 13.2041 5.80521 20.9012 -2.11766 -2.46125 -3.63567
3585 1 9.69576 -1.62545 9.44847 -0.906167 1.56928 0.216304
3586 1 15.609 -0.639923 -7.8402 -1.72058 -0.137221 1.47781
3587 1 -23.9422 -17.684 -18.3091 -0.309096 2.59962 4.45752
3588 1 -22.5332 -7.90693 -10.3775 1.62749 2.25458 -2.04698
3589 1 -13.7955 0.699337 -7.6842 -0.402885 -2.35456 -0.252886
3590 1 12.7817 -0.499373 0.145267 1.30889 -0.0389877 1.30551
3591 1 -9.60762 -9.4751 23.1776 -2.51801 0.0941356 -3.99387
3592 1 -8.72184 -17.0697 -4.2834 -2.393 2.95807 -0.191709
3593 1 15.7739 -13.2846 -13.4005 -2.95164 4.05856 -3.09596
3594 1 16.0342 -0.380676 5.01195 2.43721 3.59263 -0.680252
3595 1 -3.68294 -14.8995 8.91094 1.14138 -1.42668 0.470076
3596 1 -9.72758 -7.42701 -9.47334 -0.813768 3.29932 2.81639
3597 1 -4.75498 12.0903 4.89441 2.49222 -1.98775 2.87128
3598 1 -13.2673 -11.7524 -4.97063 -3.40867 -2.80392 0.662698
3599 1 12.9377 12.4563 -7.13886 -4.48209 -2.37421 -4.68645
3600 1 -20.1589 21.3097 -7.89068 1.47229 -2.01834 1.30957
3601 1 -21.9144 -12.7464 -3.38697 2.49457 -0.293011 0.713529
3602 1 3.30847 25.3472 22.4085 -2.99323 4.19194 -0.0979349
3603 1 -4.73963 0.646891 10.9348 0.394071 -2.89477 -1.31873
3604 1 8.77604 11.6169 23.806 1.05418 0.171779 0.0798764
3605 1 13.6238 21.7288 14.5276 3.2151 1.61821 -4.9134
3606 1 0.653508 6.03382 -14.6381 1.95257 -3.52158 1.75369
3607 1 -20.9899 3.63513 14.6229 2.95214 -0.962619 0.691846
3608 1 19.3535 23.8957 -17.2291 -1.38672 -3.13503 -0.763072
3609 1 10.9481 -13.5936 8.33419 -5.45769 1.03487 -2.48724
3610 1 15.4789 10.2378 -23.1012 -0.286998 -2.88039 3.58206
3611 1 -17.4624 24.8404 -14.6167 0.312695 2.1644 -5.75785
3612 1 -3.16504 17.2528 -8.18484 6.04546 4.30917 5.45383
3613 1 1.29439 25.7158 11.6977 3.64025 -2.55531 1.51255
3614 1 -1.04201 -5.46972 -1.72322 1.11651 -2.77634 4.84987
3615 1 4.40523 19.6572 3.7037 -0.486114 1.22995 -2.62563
3616 1 -11.1313 -12.8545 20.0615 4.44013 -2.50078 0.972491
3617 1 15.2404 0.796153 -21.7073 -2.34913 -1.37726 0.2696
3618 1 0.880697 -10.7399 -7.87385 -1.08875 2.02922 -2.04433
3619 1 -1.78764 20.5022 9.58301 -1.55468 1.00324 3.88696
3620 1 -2.72517 14.2597 -12.0041 4.29027 -4.40232 0.150597
3621 1 -7.54766 15.5151 12.3883 4.40907 2.41965 1.85113
3622 1 6.19616 -13.415 8.81925 0.178246 0.591126 6.06648
3623 1 9.98294 -1.93564 17.757 -1.19775 -0.151734 -1.77673
3624 1 22.8176 -9.51324 6.30867 -0.950703 0.772223 4.32936
3625 1 5.47768 -15.5692 21.6742 -3.14294 2.77858 -2.04196
3626 1 -14.5095 3.26905 -5.42627 1.78644 1.14485 -2.2889
3627 1 -2.52019 19.352 7.26816 0.619186 2.52882 1.02719
3628 1 7.48915 -0.0220296 9.25161 0.626794 -1.45381 -1.70809
3629 1 -0.815261 -4.60069 5.31816 -0.831605 -1.80405 6.61475
3630 1 2.85619 -13.5511 -0.650879 -5.86252 -4.09903 -0.966388
3631 1 5.88759 8.83362 19.6487 2.23798 -4.65077 0.46242
3632 1 -15.5891 -15.9598 14.7772 3.9887 -0.844882 -1.95096
3633 1 12.3551 4.36495 -4.95616 0.493301 2.86278 2.06907
3634 1 -1.94328 5.91269 10.5554 0.391135 0.753164 -0.744318
3635 1 -0.128348 -16.9235 -21.29 0.69022 0.301664 -2.74558
3636 1 3.43145 -19.9127 -15.8998 0.967853 2.33916 0.238161
3637 1 -4.33144 15.4213 -22.6469 -2.24144 -2.50373 1.00164
3638 1 -23.0723 -7.632 20.2235 -0.33207 5.61237 -0.365226
3639 1 5.96049 -18.4203 3.68075 0.685706 -1.7963 5.44771
3640 1 19.1083 -16.8984 -12.0145 1.96586 -1.65178 0.650149
3641 1 1.58708 12.1844 21.1205 -4.55918 5.36231 3.67823
3642 1 -3.9396 -17.1291 3.51928 2.15974 -0.970391 -1.61054
3643 1 0.569915 4.69451 10.2438 -0.624027 -0.575401 0.427581
3644 1 18.3387 20.2222 0.715247 0.0694954 -0.340699 1.62716
3645 1 -16.3774 -14.5098 -6.15304 2.07173 -0.0931512 -4.35752
3646 1 19.0951 2.46251 -20.0093 5.32176 0.717437 -2.01575
3647 1 18.8883 -21.3983 4.0187 -1.85354 -5.84168 0.140467
3648 1 -22.8364 -21.6414 0.45475 1.50208 0.960097 4.6257
3649 1 -18.4141 -0.478244 -17.7855 -3.48314 -0.503511 0.79105
3650 1 3.78581 -7.95342 -13.2983 -1.57391 1.73891 1.44348
3651 1 -9.49427 9.16495 14.0862 -2.87677 -0.258333 1.32711
3652 1 21.084 -14.1498 13.09 1.62085 -1.90605 -1.02414
3653 1 -0.392683 16.69 -2.01464 6.07024 3.08293 -4.0635
3654 1 -20.5521 24.1048 12.9642 2.63789 -3.01867 0.126531
3655 1 -9.78512 24.7096 -13.5562 -1.12156 8.32696 4.3903
3656 1 -13.1617 -20.5355 19.4244 1.25472 1.59337 3.00423
3657 1 23.3327 25.6561 -9.43318 -3.88676 3.23957 1.25433
3658 1 21.3451 14.982 15.9726 -4.53794 -4.39415 5.82901
3659 1 -23.4064 8.11766 -18.7746 -4.05741 0.218255 0.0350128
3660 1 17.6823 10.8381 11.3726 -2.76875 0.358106 4.97571
3661 1 21.9491 10.1758 -18.6859 -0.972306 -0.172638 1.2634
3662 1 -1.15034 0.811338 -19.8495 1.87405 -3.57665 -2.30072
3663 1 -20.418 -14.8316 -11.7262 0.242623 -3.68829 2.45205
3664 1 6.13937 19.3517 13.9092 -1.23338 0.192058 2.10255
3665 1 10.761 -10.3193 -15.5559 4.64426 -2.15948 -1.3182
3666 1 5.93092 -15.5433 -23.2637 -1.73322 -1.89321 1.09932
3667 1 17.4758 14.9886 -17.2058 -3.02937 1.29646 -3.78113
3668 1 -12.6825 -2.64825 23.561 0.509214 0.3952 -4.05412
3669 1 0.222261 22.7493 3.83494 5.04499 -0.927774 -2.3054
3670 1 14.2635 6.32518 -9.34999 2.80719 0.355064 2.14996
3671 1 -3.65063 11.197 -11.7448 -4.88053 4.55697 -1.54803
3672 1 -12.1913 12.3328 11.5376 0.383869 4.06721 4.31026
3673 1 -2.55206 43.9538 19.786 3.45521 -1.45748 2.29588
3674 1 -0.265891 -1.30802 -4.59893 0.829906 1.67598 2.66869
3675 1 -13.3801 21.4401 -8.66757 -5.75954 -0.531847 0.423181
3676 1 15.0538 13.9653 -13.9229 -3.94671 0.841835 1.69037
3677 1 -5.76952 15.4299 16.3522 7.01326 1.30192 -1.45564
3678 1 -17.6139 8.2469 12.9992 -1.22531 -2.48263 1.99042
3679 1 11.4232 -19.7859 -7.67984 -4.72857 -2.03796 2.39706
3680 1 14.4896 5.88115 23.5188 -2.16586 4.58056 1.86084
3681 1 -5.24578 0.785984 17.0258 -0.901752 -3.15903 2.37934
3682 1 -23.3393 -23.0325 16.9707 -3.03514 -3.40644 -5.10161
3683 1 6.73118 12.8681 4.41691 1.79743 -5.51781 -4.06737
3684 1 14.9167 15.3422 -22.2293 0.728348 -5.19375 -5.93951
3685 1 4.70238 -5.18893 1.61851 -0.248279 4.60137 -3.86062
3686 1 -21.9371 11.819 1.60654 2.01043 -2.83868 -1.59783
3687 1 8.73805 -18.5405 11.1803 7.09803 4.08694 -0.530686
3688 1 -11.4304 -23.0369 -1.88835 0.723403 -5.126 -4.73307
3689 1 21.2827 17.1724 -13.5145 -1.28844 2.48115 1.60521
3690 1 -8.04761 8.22913 -7.99287 -1.86713 -0.552967 2.06697
3691 1 21.7254 45.008 -9.16319 1.23205 0.839577 6.21987
3692 1 7.01435 -3.71331 -17.6368 -3.02442 -1.35906 -0.447153
3693 1 2.07251 22.2913 -1.85092 1.70576 -0.0705391 -7.33147
3694 1 -22.5872 2.61113 -7.36191 -0.642769 -2.70662 -3.01617
3695 1 -6.8546 -3.69355 1.10496 5.18771 -6.59277 0.211843
3696 1 9.18321 -1.40622 -17.7323 4.75629 -6.65733 0.225818
3697 1 8.26179 4.99273 6.77161 3.01869 -2.81563 1.28942
3698 1 -21.8031 0.754635 14.3926 -4.1695 -2.77387 3.51366
3699 1 -9.38227 -3.68088 16.6921 3.62252 1.48979 -4.66353
3700 1 -3.97501 -22.2387 -16.5727 -1.47247 1.93831 -0.717691
3701 1 12.3099 -3.16031 10.551 4.6663 2.75362 -0.915736
3702 1 -8.75244 1.63797 -13.7027 3.58665 -5.63398 -3.04596
3703 1 19.4224 14.9513 -21.1002 0.59009 1.82279 0.794086
3704 1 15.7225 -4.36359 9.02148 6.58073 1.65577 -1.17652
3705 1 2.45783 -1.1304 4.6562 -3.11463 1.5039 2.00777
3706 1 -14.9572 4.25395 -15.5239 0.834493 -3.07835 -1.55239
3707 1 19.0994 7.31919 -13.3717 -1.68668 -3.04657 0.87606
3708 1 5.90629 3.06402 9.27327 -2.14477 -0.282102 -2.15638
3709 1 -19.4973 17.9013 9.17263 0.0965659 0.885271 -4.61259
3710 1 -6.74062 -2.62442 19.4647 2.48028 1.78429 7.26077
3711 1 -12.7978 11.3238 15.3744 0.401622 -2.68724 -4.93471
3712 1 15.2954 24.3124 -4.94994 -1.78353 -1.55562 -4.02385
3713 1 0.277092 19.7699 4.24216 -2.56617 -2.52795 -0.433865
3714 1 -13.0292 2.30466 22.5017 -2.36479 -1.92944 -0.477884
3715 1 18.7613 20.3863 16.6416 0.337719 -4.38586 6.50201
3716 1 5.36799 5.17273 -0.0128737 8.48519 -0.951974 -1.50177
3717 1 -6.54285 19.4902 -20.4222 3.59639 -6.14954 -0.489816
3718 1 -16.1371 8.28262 2.40157 -0.0528563 -1.93038 0.0198654
3719 1 0.116459 16.1736 -5.05856 -0.660857 2.39402 -1.31852
3720 1 16.4905 18.4557 16.269 0.82073 -0.461683 1.18974
3721 1 0.126834 14.7545 -7.76122 -3.74489 2.79428 5.0794
3722 1 17.57 -9.2057 8.22276 3.48516 -2.61671 -0.183821
3723 1 6.78754 6.07276 -14.6832 3.33959 2.16701 -1.36256
3724 1 -5.95172 -0.759307 -1.07001 0.810783 -5.32136 -0.401822
3725 1 -13.0979 22.4599 -3.19133 4.17677 -0.451016 -1.59594
3726 1 -7.87415 -12.5623 -16.1051 0.765497 -3.37237 -0.0573409
3727 1 3.94236 -5.83776 -20.5163 -3.80433 -1.04368 -5.66484
3728 1 17.7349 -11.0836 -22.6697 0.0548579 1.08896 -4.56288
3729 1 -22.9845 -8.91439 -13.0335 1.74125 3.0481 -2.22157
3730 1 9.25143 -4.86984 14.8291 0.491766 -0.668836 -0.591891
3731 1 3.30131 -14.6736 -23.2393 -0.0303173 -1.63588 1.75608
3732 1 -24.274 18.264 5.53758 -0.889291 1.82616 0.340981
3733 1 6.62692 -16.3289 -0.150126 -0.38819 1.42218 -1.14312
3734 1 14.1938 12.8498 -9.70211 3.03517 -0.910684 -1.46031
3735 1 -7.63705 19.137 0.901769 1.46773 0.507746 4.02869
3736 1 -23.1224 16.769 -10.7299 3.17597 -2.16059 -2.76314
3737 1 2.49803 5.58893 1.05649 -2.90309 -2.51644 2.26106
3738 1 -6.5663 -2.94679 16.3639 1.99662 -5.76758 0.66218
3739 1 1.97077 -4.25838 8.03669 -1.12137 0.168636 0.924327
3740 1 5.64782 0.549525 -19.7448 -1.10803 -0.46441 -0.687982
3741 1 -20.9237 14.4493 -3.98941 1.32652 -0.527219 -1.37468
3742 1 -1.86264 -19.325 -17.043 -1.42752 -0.77783 -2.23248
3743 1 9.65685 -12.4998 17.3131 -1.05865 3.38222 2.73085
3744 1 -15.2405 18.2465 5.08736 -3.14105 4.2831 0.721415
3745 1 5.19545 -9.62036 11.2578 -2.3 -0.225027 2.04842
3746 1 9.19298 -20.786 -4.36375 0.109378 4.23249 0.441698
3747 1 -18.9685 26.3534 -19.0212 1.75045 0.325494 -3.10854
3748 1 -16.5922 -2.13942 -19.2072 -1.33063 3.67638 -2.4423
3749 1 -18.7146 0.934133 12.6841 0.0814357 8.56204 1.0216
3750 1 13.3071 23.1684 -14.6019 0.866946 0.742039 3.27152
3751 1 -5.94165 -1.2944 1.88019 5.69158 -0.35542 1.17429
3752 1 -19.1514 14.32 -14.9649 -0.578993 1.84572 5.14043
3753 1 2.4306 -5.1556 -18.184 1.34085 -1.49425 0.412598
3754 1 -11.0098 8.60655 8.85788 -1.98676 0.932721 1.77156
3755 1 18.1616 6.07268 -7.72782 1.30156 2.83172 -0.646491
3756 1 -10.4606 45.0855 -22.7331 3.24613 -0.693401 3.03933
3757 1 2.64514 23.1858 2.41676 1.23049 -2.60017 -2.94458
3758 1 22.6064 -7.11904 -12.5067 -0.0526722 -0.809547 6.60344
3759 1 -12.1442 8.01403 -18.5331 -0.784603 0.180771 -0.596763
3760 1 16.2742 20.656 3.88423 -0.945331 -3.68472 2.55121
3761 1 19.3367 -12.832 -19.4154 4.32915 0.448366 -2.75267
3762 1 7.24071 -13.6022 11.2912 -3.65609 4.6772 -4.17437
3763 1 12.7168 9.90204 6.14902 -3.32283 -0.199737 0.132445
3764 1 16.8999 -14.1324 21.5087 6.28702 2.20453 1.64922
3765 1 -23.3749 46.6923 -2.37847 -2.92219 5.76639 -2.41683
3766 1 -12.0189 20.1276 15.5513 -2.32461 -0.947605 1.29772
3767 1 -12.4413 -21.581 0.446908 0.39961 -5.34195 -0.740707
3768 1 0.661153 6.70382 -17.5473 0.934461 1.56612 -0.32225
3769 1 -20.8297 -17.0469 9.02539 1.66393 -2.84055 -2.67254
3770 1 -9.99617 -3.5295 9.78804 -3.08967 5.63151 6.36126
3771 1 -17.3473 20.713 18.2321 -2.31303 -3.06374 -0.783597
3772 1 15.9233 -15.5048 -2.08636 -3.3535 -2.04965 2.17902
3773 1 2.86376 -1.78218 13.888 -1.24929 2.76071 0.185398
3774 1 -6.21012 14.4985 4.88681 6.82354 1.4445 5.02423
3775 1 0.658772 -2.11306 -12.0441 3.72849 1.7458 -1.61933
3776 1 5.12011 -4.05574 19.1083 -3.30917 0.819165 0.840082
3777 1 10.5113 -8.89439 -0.309572 -0.509049 2.70968 4.41077
3778 1 6.23431 14.9914 -9.31385 -1.3064 -6.10781 -6.47871
3779 1 -9.61162 1.80418 9.69518 4.4362 1.88015 1.1407
3780 1 23.1841 17.9126 -15.7753 -1.25292 3.01766 0.660484
3781 1 -0.827358 -1.02951 9.63465 -0.317153 -3.64702 1.75199
3782 1 -0.246445 -14.2538 -19.7277 0.0923778 2.27631 -1.48286
3783 1 20.9493 20.1099 3.81419 0.893702 0.103103 6.02088
3784 1 17.3807 2.40893 2.02595 -4.93666 2.7195 3.5582
3785 1 -2.59318 46.0254 21.6889 0.229784 2.85393 2.65177
3786 1 20.3426 4.25999 17.2354 -2.39679 -1.18051 1.41683
3787 1 8.13973 19.7485 -14.8435 -2.54715 2.69399 2.99132
3788 1 6.63024 14.5409 15.0242 -2.62117 0.446933 -0.913611
3789 1 19.7686 24.0962 -13.4515 1.0267 1.31343 -4.24021
3790 1 1.96319 -16.8182 -3.14953 -1.92681 8.03603 -1.95511
3791 1 -12.1501 18.4888 -11.7032 -6.102 3.36731 -0.885286
3792 1 -13.6867 -8.37097 12.1624 0.458818 -0.579922 0.839791
3793 1 -14.0944 21.5844 2.51327 2.55391 1.41941 2.07883
3794 1 -2.19269 -20.2129 -11.1939 0.781585 -1.17292 0.57619
3795 1 14.1448 24.256 20.3871 4.21689 -0.681713 -1.38951
3796 1 -13.7635 -9.25051 -6.25791 3.89221 1.73252 2.75372
3797 1 -16.0874 -13.9088 7.78439 1.80368 -2.92859 0.908597
3798 1 5.61472 2.28516 0.178561 0.791403 1.24533 -2.58615
3799 1 16.9314 20.0811 -6.32657 -0.123171 -2.01924 -3.91644
3800 1 15.8031 -0.031478 -1.68399 3.489 0.652487 0.0522974
3801 1 1.14778 13.624 -10.252 2.6895 -1.94303 0.958193
3802 1 7.39088 0.265358 -22.2112 -1.08114 0.965545 1.40618
3803 1 -19.372 -5.19204 22.8966 0.569936 2.17876 4.23581
3804 1 13.0329 19.3754 9.61635 -1.50521 3.25247 3.03132
3805 1 -5.30259 16.5122 -19.9831 -1.08842 -2.03483 -1.68726
3806 1 -1.17919 3.10815 -3.51753 -1.14025 2.5686 -1.48257
3807 1 -8.08444 21.6437 -17.5757 -3.30849 3.43894 -0.332356
3808 1 6.22812 -12.3961 -21.2241 2.39548 6.94545 -3.75264
3809 1 4.74976 -22.413 -22.6181 -5.30422 -3.89315 -1.16933
3810 1 -16.874 -2.63143 12.7083 -1.25514 -0.132577 1.7647
3811 1 14.7024 -16.5141 -22.6829 3.55077 2.98593 2.05528
3812 1 -4.01753 -19.5517 1.13177 3.03786 1.44653 0.49414
3813 1 18.6033 0.482946 -1.91022 0.771513 -2.57501 -3.48102
3814 1 6.8485 11.493 6.9919 -2.05233 1.56467 0.0505692
3815 1 -1.60318 19.8608 -23.0875 -2.20589 5.63672 0.385728
3816 1 -15.5496 -7.39395 1.64873 2.13281 0.395389 -1.44534
3817 1 10.6362 6.84208 -4.50533 -1.72524 -4.51699 0.0179259
3818 1 12.09 15.0376 -22.3491 1.20543 4.44868 -0.883666
3819 1 2.34715 26.9893 14.0113 0.536393 -0.653017 2.67647
3820 1 22.6021 15.6308 -6.30338 -4.26418 1.08232 -2.88512
3821 1 11.4972 -11.2419 15.2506 3.88658 0.719607 -2.91683
3822 1 9.86437 6.57963 8.38692 0.185462 -1.94039 -2.35351
3823 1 -6.95954 -21.1004 -10.3679 -0.126851 -0.856084 -3.46229
3824 1 -7.45386 46.8143 -7.13287 -4.59149 3.78162 -0.917182
3825 1 18.5367 -13.1012 11.6733 4.49256 -2.21451 0.915169
3826 1 -1.61421 18.2947 -14.4401 -2.30896 0.100756 -1.59451
3827 1 1.18091 8.77211 21.4337 -2.2903 -2.55318 -3.61047
3828 1 -17.8126 20.8537 -16.2615 -1.44351 0.749477 -4.30615
3829 1 -13.0015 -20.401 -8.23088 -1.94843 -0.112844 -1.51861
3830 1 18.407 -12.5959 -12.1044 -3.24267 1.3409 3.16479
3831 1 -3.59186 21.5906 0.875135 -1.93952 0.117133 -0.168614
3832 1 21.0212 -3.3855 3.17512 -3.55224 -2.11998 0.412001
3833 1 22.5403 -4.1425 -12.6735 2.24882 3.652 -4.05406
3834 1 7.19372 5.53735 2.43688 1.74267 0.374271 -1.95688
3835 1 21.7714 -23.5596 -3.18093 -3.2762 -6.4796 -1.67058
3836 1 21.7832 12.2577 2.30579 -3.54095 -4.95285 -1.73016
3837 1 11.8639 12.7588 2.75484 1.80358 3.65589 2.54425
3838 1 -5.46826 3.53326 -2.24124 -1.03711 -4.90806 0.475028
3839 1 21.924 5.63539 1.88963 1.05464 -6.40481 3.30362
3840 1 -10.8918 -23.7871 12.6255 -1.25954 -2.06139 -3.08973
3841 1 22.0775 2.53 9.49063 1.62986 1.09574 -2.77022
3842 1 22.6167 5.4011 21.0671 -1.07549 -3.92944 0.277079
3843 1 -0.898147 -20.9875 14.5352 -1.3697 3.10553 5.20354
3844 1 -22.4465 -13.8075 4.74562 5.19404 0.443308 -0.940131
3845 1 -4.45377 1.83563 -18.6746 -2.5725 3.63473 3.54889
3846 1 -21.0565 22.2637 20.4827 -0.48911 0.23593 -0.778774
3847 1 -14.2013 -17.0458 -14.1613 -1.37551 -2.49573 -5.30231
3848 1 6.0322 -16.0259 7.64453 2.70694 2.67535 1.26
3849 1 16.2214 13.172 -20.289 -2.64633 1.54046 -5.99768
3850 1 19.7697 -23.4397 19.9668 -2.40343 -4.27869 -2.22962
3851 1 -2.95345 7.29585 -0.076755 -0.241438 5.29164 3.59948
3852 1 -7.29428 20.9199 15.8218 0.649631 0.457975 3.73399
3853 1 18.422 -15.4741 5.50146 -5.01196 8.4435 2.7136
3854 1 18.9008 12.3695 -2.07399 0.352098 -1.72221 5.0745
3855 1 -2.46079 -6.1554 22.7384 -1.25023 -5.54274 -2.03799
3856 1 14.1743 -20.1876 -7.05451 2.78536 -3.05742 -0.18249
3857 1 -11.6663 46.1174 -12.8709 -0.573373 0.902671 1.16629
3858 1 16.1701 6.67037 5.19615 -1.38399 -4.22845 -2.27
3859 1 21.0902 22.9203 9.80927 0.853944 -0.426262 6.58981
3860 1 12.9819 -18.7368 -15.2236 -2.80663 0.568752 -5.86674
3861 1 -17.8509 -11.583 19.4405 0.38693 5.43722 -2.62904
3862 1 -7.30901 -2.13571 -15.2263 2.40384 -1.439 2.29052
3863 1 -12.8269 -2.74329 16.4583 -3.10849 0.956968 -2.68278
3864 1 -5.0829 -2.78659 -13.049 0.310392 -0.47686 1.82956
3865 1 -0.821839 45.5281 15.4598 1.60999 -3.21279 1.70923
3866 1 10.2033 -16.0619 7.2638 1.85415 -3.7551 0.0281312
3867 1 -24.4675 -0.266556 3.94739 -6.67639 -3.42424 -3.83753
3868 1 6.75381 4.41139 -4.42352 1.75695 -1.00514 1.11252
3869 1 -8.65792 5.51775 10.6549 -1.98952 -2.7846 -0.0229861
3870 1 17.0031 -20.0759 -10.9603 -1.5564 -4.41427 -0.513339
3871 1 17.8477 0.93351 20.798 3.60889 -5.93124 1.96367
3872 1 23.2618 -23.7418 -9.30862 -0.0241248 -3.32885 4.58689
3873 1 -3.99553 6.99551 15.8085 2.27902 -2.70487 2.45744
3874 1 -18.554 45.4035 -16.9249 2.75289 -3.14218 0.645998
3875 1 -21.5566 2.81379 6.51369 -1.23556 -2.22039 -6.62465
3876 1 -22.0421 -12.944 19.4219 3.54689 -2.5785 -5.33994
3877 1 -22.8912 2.39532 -4.28228 0.0837694 -1.88949 7.18566
3878 1 7.87321 -16.9023 5.73493 3.04611 -3.64052 1.4821
3879 1 19.2567 -14.9625 20.0232 3.2091 -0.245602 6.55853
3880 1 -7.56389 18.2968 -22.7497 3.7493 2.53993 -4.3312
3881 1 -15.3603 3.87405 -12.3766 0.632708 -0.18475 -0.65201
3882 1 -23.8858 17.1801 -1.11395 -3.16351 1.77951 4.70068
3883 1 21.8483 16.1213 -10.6815 2.04248 2.80587 4.96917
3884 1 11.3805 -17.2214 -8.89551 -1.18168 0.334926 0.233885
3885 1 11.6995 26.0531 14.6243 2.11607 2.30288 3.35304
3886 1 -13.0454 -14.7538 -4.50563 3.05168 -3.77046 -0.999666
3887 1 1.60799 -11.8303 -19.467 3.28303 4.247 3.11476
3888 1 -6.62041 3.74187 -18.2384 0.289038 -6.51553 -2.273
3889 1 -16.2506 17.9073 18.173 1.95791 5.58146 -1.40521
3890 1 -0.61407 22.1141 15.8077 0.741817 2.83545 0.653975
3891 1 5.76217 -14.9817 18.1799 -2.12899 -3.21517 1.13984
3892 1 -13.0871 25.9555 7.25794 -0.338288 3.29388 1.7162
3893 1 -6.05538 13.4286 10.7887 3.20738 -0.0198625 1.12279
3894 1 11.4752 7.96951 -14.9701 4.648 1.28101 -0.948937
3895 1 12.0184 -7.07828 3.7533 0.0433276 0.706738 -1.00442
3896 1 -8.7399 -8.08902 -1.62629 2.7964 0.836418 -4.59183
3897 1 4.92461 12.8163 23.687 -0.540407 0.610752 4.20906
3898 1 18.9455 -3.44874 14.9822 0.301112 2.79739 -0.957496
3899 1 2.74924 10.1305 19.2476 -0.490656 3.25008 -2.09931
3900 1 11.3003 -16.3079 -12.9047 1.90122 -0.398121 1.95224
3901 1 -16.0049 14.6314 -10.9021 -6.21263 3.57446 -5.01711
3902 1 11.6868 10.8327 -5.17071 5.70918 1.03209 -1.2196
3903 1 -18.9209 -16.4456 4.15008 2.88434 2.0194 -1.93899
3904 1 11.1958 -8.32449 -4.33346 4.6617 -1.01798 2.49583
3905 1 -1.21457 -9.89165 5.98257 -0.243687 2.9417 2.97131
3906 1 -16.8223 10.753 -4.73762 -5.933 -4.05988 -2.21094
3907 1 -20.8767 0.659597 8.46631 2.89046 -1.87261 -5.45074
3908 1 22.5505 -17.2438 12.9573 7.5396 -2.55585 -0.291985
3909 1 -0.283913 -13.0842 18.9566 -1.67751 2.13804 -0.385269
3910 1 -6.20826 17.3422 -7.79486 2.1419 4.12031 -3.65506
3911 1 19.5603 17.3114 0.227666 1.74486 1.23793 1.21583
3912 1 -7.5937 -8.7855 0.843651 0.689153 -0.455242 0.753367
3913 1 -5.40185 6.20649 1.42242 -2.20352 0.577467 -0.379678
3914 1 14.0447 -11.9164 -5.12894 -1.87495 -4.53211 -1.85031
3915 1 4.9782 -0.444398 7.99295 0.74769 1.62234 -2.12806
3916 1 -24.2619 -14.511 20.289 -2.91555 -0.702734 -3.82801
3917 1 -0.880409 -4.63347 -9.18962 -0.653945 -1.74398 -3.20045
3918 1 14.8603 10.4635 -20.4041 -2.31061 1.35846 0.319247
3919 1 8.61119 -14.7313 18.5106 -0.930837 0.808516 -3.84886
3920 1 -12.086 11.9186 18.3757 6.35007 3.14191 -5.71287
3921 1 16.6076 8.09904 -14.6755 -2.53157 4.65979 -2.9596
3922 1 -16.9763 -14.9399 -22.1059 -3.94131 0.461738 0.937038
3923 1 -21.7352 4.58414 -10.3399 -1.85204 -2.31206 2.93079
3924 1 -12.0787 -4.55293 12.5548 -2.33685 -3.62917 0.0344869
3925 1 -22.4302 4.94324 2.50005 -1.13438 -3.05626 0.454537
3926 1 6.17231 -4.30336 22.6687 4.06742 -0.636231 -0.531683
3927 1 13.3577 16.4884 -0.986101 2.21802 -2.45081 3.51549
3928 1 -18.4226 20.8345 23.8479 -2.35932 0.193502 3.60529
3929 1 -1.56115 11.0979 -8.55429 -5.37511 -2.02957 0.389713
3930 1 12.5915 21.0899 1.82931 2.78939 1.41512 -0.505929
3931 1 0.781649 8.49173 2.04081 -1.51303 -0.0593126 1.76804
3932 1 22.8801 4.15438 14.5083 -0.897452 0.331223 -5.02191
3933 1 -5.20298 -8.28085 22.0044 -0.764705 0.977484 -5.03311
3934 1 23.4989 5.48821 -11.6949 0.208749 1.85585 0.727781
3935 1 12.7986 -13.4333 -20.4252 -1.97614 5.56556 2.76581
3936 1 1.30846 -23.7684 19.1434 5.65903 0.94907 0.760262
3937 1 17.0567 -16.2102 -18.2793 0.243459 -0.0117612 4.95663
3938 1 19.2768 14.9517 18.2025 -1.74039 -1.93503 1.39352
3939 1 23.5551 -2.7363 12.7624 -2.36073 1.2584 -2.03817
3940 1 -0.614029 23.2291 -6.68485 -4.95656 0.944328 2.58005
3941 1 -19.9446 2.63393 22.6846 0.757459 -2.2793 8.0216
3942 1 11.2363 -23.1359 16.3158 -2.20681 -1.55771 -4.44515
3943 1 -18.9629 -20.8943 3.14274 1.66957 -4.05298 -1.34909
3944 1 -13.2427 -7.96153 -11.8117 -1.43361 0.601053 -1.11195
3945 1 -22.035 -14.4323 -14.1841 -5.10954 -1.03526 -1.9803
3946 1 -4.64124 17.4541 7.87388 -3.21031 -3.7739 7.18896
3947 1 -22.6821 12.3114 -22.9898 4.76912 2.03244 -3.77579
3948 1 10.8929 15.4749 -16.9705 1.54908 0.369443 -3.61509
3949 1 4.33022 -13.6193 -13.1635 -4.19742 2.95577 -1.8086
3950 1 -5.22283 -3.46465 -19.2732 -4.01343 0.426621 -2.46443
3951 1 5.71956 3.91009 -13.568 -0.206066 -1.75839 1.88137
3952 1 -4.91664 -5.76009 -13.1432 3.55209 2.78952 1.50872
3953 1 19.708 -18.125 13.8888 -5.63136 1.0949 4.47614
3954 1 7.1908 0.586194 -17.0662 -1.62353 -2.0189 -1.45483
3955 1 -8.09566 20.196 11.1747 -1.69697 -2.11427 2.90073
3956 1 -12.923 14.2731 -3.43823 0.583156 -0.0112 -2.92067
3957 1 19.7372 -23.1875 -18.9582 -2.41414 -3.83016 -2.78973
3958 1 -4.27521 8.44502 -5.35407 1.62607 0.0569031 -1.3746
3959 1 -18.8706 -6.70016 -22.5072 -4.75737 5.59212 1.25744
3960 1 21.7025 -12.5993 -9.4265 1.6794 6.99352 -5.1555
3961 1 -0.264125 -21.1865 -5.05457 3.61237 0.601059 -0.906039
3962 1 3.23363 -13.9317 4.23228 -4.86425 0.243394 3.80101
3963 1 -14.4731 -20.247 -4.76104 -0.150212 2.80675 4.43762
3964 1 10.3224 8.0951 18.8361 -2.05203 4.70023 0.899305
3965 1 -4.25388 2.03056 4.96822 -5.89932 5.14223 -3.2615
3966 1 -20.8076 19.9777 7.69484 -0.876783 0.490878 0.0974801
3967 1 -0.074485 -8.31406 -4.10321 4.695 4.23687 -0.676308
3968 1 -2.43425 8.1426 -3.08703 -8.26466 -1.27488 1.1892
3969 1 16.4893 46.4229 22.0323 -4.93679 3.64357 3.20125
3970 1 -8.9814 22.7907 22.1012 0.778843 -1.27532 -6.1236
3971 1 -3.49346 -0.172105 -22.3913 5.66248 1.30072 0.155659
3972 1 -6.90115 -8.89319 -9.76894 -1.11289 4.00869 -2.11998
3973 1 -10.7229 -21.7474 -9.59488 1.58065 2.52398 1.05024
3974 1 5.28287 26.9394 14.0163 -0.479271 -3.62496 5.18069
3975 1 -0.551195 1.99572 -15.9106 2.38225 -0.879176 -1.36533
3976 1 -1.32499 15.8595 4.59313 3.04108 4.5363 0.797363
3977 1 -7.81357 -19.0494 -22.0454 1.52759 -3.45715 -4.21387
3978 1 -0.377189 17.1014 -9.12646 0.847131 -1.89881 2.40408
3979 1 -10.6772 -22.2094 2.54797 3.72106 -0.887931 -2.71361
3980 1 -21.1218 -18.6981 -14.8142 -3.33429 3.64343 -1.8997
3981 1 11.4294 -9.38109 5.38062 -1.66308 4.9286 -2.76879
3982 1 9.00368 -6.24379 -1.31786 0.73609 1.67264 1.16235
3983 1 -22.5761 11.09 8.7274 -1.74119 2.48215 -0.534692
3984 1 -6.92988 14.2136 -20.0677 -1.17366 5.24285 -1.38746
3985 1 -12.9514 23.24 7.16376 5.68254 -2.49543 -2.50349
3986 1 15.8205 20.6038 -16.5779 -7.97718 -0.041833 -0.469361
3987 1 11.9524 17.7082 17.3525 -6.74822 -3.29863 -4.54676
3988 1 22.1344 19.6228 20.1705 -0.388911 0.92289 -3.12552
3989 1 -16.2492 -10.5415 -10.0587 -1.88201 -3.06265 -0.74203
3990 1 10.4522 4.25018 -22.0793 6.05417 -6.06195 -2.05516
3991 1 -17.7977 7.2641 23.1927 -2.48902 3.23288 -1.3961
3992 1 21.9172 9.96626 -3.65192 0.511282 0.681888 -3.96583
3993 1 -8.37893 -8.53946 -6.96068 2.35697 1.34575 -2.23973
3994 1 -14.6617 -21.4665 -20.9093 -1.28928 0.951428 5.99561
3995 1 6.23267 -23.9508 3.78225 4.9463 -1.98273 2.96571
3996 1 2.75808 -15.6076 1.64968 -1.78109 1.64898 0.138003
3997 1 19.7023 45.9835 -12.7185 -3.25766 -1.5191 -2.41935
3998 1 -13.6173 -5.1997 1.54106 5.39005 3.28948 -1.853
3999 1 -8.25681 16.4264 9.62449 1.56512 0.589986 4.34728
4000 1 -19.0425 10.0597 21.6253 2.1345 5.00331 -1.45875
4001 1 -11.2862 26.297 -3.80284 -4.59567 -1.13298 3.35158
4002 1 -11.1831 28.453 -5.37289 -0.922103 1.73794 -7.62764
4003 1 -8.3746 28.3041 -4.26807 -7.04318 3.85054 6.46585
4004 1 -6.62363 26.2563 -5.73 1.96458 -1.11431 0.734654
4005 1 -12.48 26.9541 -10.1827 0.660347 1.16049 -5.34099
4006 1 -14.1659 28.8781 -8.88688 3.37268 -3.21809 -1.67226
4007 1 -10.2676 27.3034 -8.54651 -3.08639 -3.89509 -4.68829
4008 1 -7.59776 27.5386 -8.13357 -3.61913 -0.410868 -0.515617
4009 1 -11.2506 25.7155 3.30611 2.33781 0.0782743 -1.25285
4010 1 -9.60892 27.9691 2.42131 0.619685 5.96619 -0.261369
4011 1 -6.93682 28.0829 2.88621 1.50779 1.53656 1.56329
4012 1 -5.62041 25.6076 1.93054 5.18775 -2.05844 3.3641
4013 1 -11.252 25.6467 -1.1219 0.722672 -1.7998 -2.1683
4014 1 -9.90848 27.8183 -0.370498 3.02201 -0.194478 0.425348
4015 1 -7.53252 27.7661 -1.68076 3.52307 3.59213 -0.249774
4016 1 -6.06262 25.4796 -0.818308 3.43542 4.57939 -1.87708
4017 1 -11.1437 27.6218 11.1556 -4.67077 -2.32467 0.976654
4018 1 -8.92946 26.8756 9.50254 -1.67097 -6.63573 -2.15474
4019 1 -6.74298 28.4969 10.6432 3.68489 -4.73439 0.42917
4020 1 -4.88194 26.6277 11.9537 -3.54382 -0.161007 -0.343143
4021 1 -10.6602 25.9194 6.10292 0.787277 -5.07496 -4.2894
4022 1 -9.24659 28.1538 7.12834 1.45393 1.34173 -1.9357
4023 1 -6.86417 28.2121 5.72173 1.63413 -1.19734 -0.35072
4024 1 -5.7201 25.8366 5.92174 -1.92436 1.9072 2.16105
4025 1 -11.9527 30.5236 -3.45121 0.401433 1.92091 -2.55592
4026 1 -10.6762 32.953 -4.79005 -4.25125 -4.53049 2.24248
4027 1 -7.937 32.6187 -4.46182 0.868278 2.2591 -2.57144
4028 1 -6.5999 30.4212 -5.36156 -0.91556 -0.359049 0.187387
4029 1 -11.5077 29.7377 -7.89419 -4.22237 -2.50396 0.0426348
4030 1 -10.7762 32.3002 -7.30285 -2.54363 -0.914731 -2.49928
4031 1 -8.30419 32.1456 -8.65679 1.60291 2.0379 0.491114
4032 1 -6.72566 30.1139 -8.19097 1.86262 1.33643 -3.81825
4033 1 -9.87977 30.3609 4.10592 -0.790567 -0.308517 0.292219
4034 1 -9.1647 32.4676 2.43813 -2.3493 1.24524 -0.158244
4035 1 -6.49456 32.0979 3.03112 1.35871 -2.37582 -1.65995
4036 1 -5.4952 30.0807 1.49586 1.23987 -2.38928 -4.35967
4037 1 -11.3986 30.0931 -0.94685 -4.69017 -0.0717395 3.65987
4038 1 -9.90198 32.3 -0.300561 -0.131193 0.188483 1.56795
4039 1 -7.47725 32.494 -1.73839 -3.18798 1.61357 3.30294
4040 1 -5.88912 30.1682 -1.20133 1.97685 -3.33433 1.77009
4041 1 -8.93895 29.9471 11.8267 1.54886 1.89974 0.17066
4042 1 -8.95147 32.5905 10.6764 -1.92612 -6.09675 -0.969076
4043 1 -6.27539 32.9147 9.18926 3.38897 1.70771 -4.91957
4044 1 -5.11266 30.4167 9.22264 -1.58451 -1.88029 -0.252407
4045 1 -10.4751 30.421 6.75018 -0.554698 0.10082 1.10632
4046 1 -8.97043 32.6267 7.61962 -0.11601 -1.31141 -4.16353
4047 1 -6.50436 32.4232 5.82917 0.386021 1.48263 2.27686
4048 1 -4.96919 30.2886 6.43757 0.35915 0.212771 -2.51261
4049 1 -11.6682 35.1475 -3.54632 -4.33448 -0.8941 -3.04053
4050 1 -10.2144 37.0727 -5.24473 5.46104 0.414881 3.59801
4051 1 -7.5928 37.2458 -4.7181 3.78751 -2.02979 5.15799
4052 1 -6.35803 34.6414 -5.47373 1.61163 1.64493 -0.890133
4053 1 -11.3701 34.5127 -9.18912 0.465734 -1.88234 0.373315
4054 1 -10.2893 36.9671 -8.03107 -0.0210221 2.23042 2.79552
4055 1 -7.70093 37.0674 -8.81814 3.22833 7.65974 -3.05032
4056 1 -6.54212 34.4462 -8.34583 2.03734 2.69571 -0.0586582
4057 1 -10.2543 34.656 3.55847 0.181454 3.00222 -2.10602
4058 1 -9.47259 37.0183 2.29113 0.682269 2.66112 0.678493
4059 1 -6.74933 36.6986 2.57326 -0.237086 -1.02671 3.06326
4060 1 -5.49204 34.3302 1.51598 -1.7915 -1.85234 -2.37524
4061 1 -11.4114 34.6705 -0.931093 -2.09398 4.54661 -1.84115
4062 1 -9.74625 36.8822 -0.466652 1.11156 -0.303323 0.550954
4063 1 -7.47151 36.8672 -1.91836 1.38226 3.31663 -3.28619
4064 1 -5.80743 34.5562 -1.15578 0.375616 -3.71491 0.233998
4065 1 -8.94985 35.2238 11.6029 -0.390019 -1.67586 0.303425
4066 1 -8.94637 37.3851 9.84852 -2.39774 2.98052 -3.75441
4067 1 -6.20261 37.4429 10.0218 -0.480242 -0.792769 5.16591
4068 1 -4.70466 35.217 9.3068 4.31837 -1.77232 -1.85485
4069 1 -10.2284 34.8791 6.52662 2.93342 -4.54657 -4.57976
4070 1 -8.96935 37.4187 6.98959 0.525759 -5.51783 -0.566151
4071 1 -6.52434 37.2233 5.38928 0.108275 -0.291231 -1.99056
4072 1 -5.35627 34.9619 6.48595 -2.40787 -1.08194 -2.06452
4073 1 -11.5352 39.4089 -4.12273 -0.997156 1.80424 -1.14807
4074 1 -9.94537 41.5076 -5.27449 2.53373 -0.870763 4.04692
4075 1 -7.18492 41.2473 -4.66924 -1.66794 4.12425 -1.50717
4076 1 -5.96813 39.1489 -5.7596 -2.91117 -2.54603 -0.0658886
4077 1 -11.5199 39.3014 -8.707 -0.128465 -0.788472 -1.13121
4078 1 -10.3308 41.6895 -7.94114 0.605992 -1.88632 2.62808
4079 1 -7.95729 41.9485 -9.36188 2.9721 1.98902 -7.5544
4080 1 -6.56557 39.6835 -8.53715 5.00468 0.45758 -0.696664
4081 1 -10.6552 39.4944 3.29102 0.719666 -2.10173 -1.35886
4082 1 -9.59503 41.5179 1.82171 -2.7621 1.01754 -6.6127
4083 1 -6.99613 41.0277 2.81543 1.58723 -2.50572 -3.0534
4084 1 -5.53443 39.0084 1.58141 0.0992883 1.40542 -1.08177
4085 1 -10.9305 39.0464 -1.55874 3.42583 1.56187 -1.19596
4086 1 -9.85526 41.4433 -0.93408 -0.877755 1.83231 -1.85336
4087 1 -7.16068 41.3784 -2.02766 1.6799 -2.49539 0.449262
4088 1 -5.78848 39.044 -1.17917 3.45328 -2.77506 -0.719713
4089 1 -10.0837 39.887 10.1068 -1.43328 0.874121 -1.23616
4090 1 -8.75684 42.1554 9.19324 -4.41331 0.328763 -0.143475
4091 1 -6.08476 42.0342 9.43735 -0.516748 0.116652 -2.28178
4092 1 -4.79618 39.677 9.15935 -1.11697 3.49785 2.06797
4093 1 -10.1168 39.6253 5.929 -3.6792 -2.01326 0.483844
4094 1 -8.86104 41.8959 6.49565 2.05138 1.43117 -0.482554
4095 1 -6.37754 41.2439 5.46531 -1.31024 -0.645949 -6.26548
4096 1 -4.73012 39.1382 6.40227 3.99081 5.16544 2.14306
4097 1 -10.1083 44.2881 -4.70066 -3.46971 1.77849 1.05217
4098 1 -12.1294 45.2129 -6.20282 2.22379 1.35322 -1.37463
4099 1 -7.72242 45.7995 -4.58911 -3.70852 -1.71891 -0.677302
4100 1 -6.06871 43.5475 -5.57592 0.172113 0.589031 6.12189
4101 1 -11.3854 44.2383 -8.69573 -1.48831 -1.77579 1.21735
4102 1 -9.11044 44.6844 -10.0601 -1.7869 1.41077 -0.213469
4103 1 -8.02922 -22.7877 -12.5469 1.49355 -5.02889 -1.78074
4104 1 -6.34894 44.5171 -8.4469 -2.31129 -1.09436 -2.88296
4105 1 -10.2126 43.8261 3.26538 -3.31285 1.83144 -1.01562
4106 1 -9.61992 46.4104 2.01415 4.91858 -1.02241 -1.67501
4107 1 -6.91914 46.046 2.47325 1.33705 0.307248 2.41677
4108 1 -5.56593 43.3049 1.60334 -4.55309 0.849743 -2.56632
4109 1 -10.2679 43.8957 -2.06073 -1.1553 -0.943311 2.27429
4110 1 -9.87096 46.2689 -0.699558 0.0287736 1.61665 2.47176
4111 1 -7.23905 46.1464 -1.66201 -0.937392 -2.93091 -0.554136
4112 1 -5.85378 43.6618 -1.1472 -0.589048 2.86937 -0.787352
4113 1 -9.36992 44.7917 9.77357 -5.64493 0.384605 -3.15192
4114 1 -6.87267 46.2285 9.38717 -0.386622 -3.77022 -3.83375
4115 1 -2.58903 45.2404 10.304 -0.48651 0.190099 -1.77391
4116 1 -4.65473 44.3266 8.67704 1.70172 6.61456 0.390572
4117 1 -9.5122 44.4038 5.89148 -7.39967 1.65183 3.10836
4118 1 -11.2939 45.6188 7.75803 -4.36305 -2.04429 -0.148601
4119 1 -6.92862 45.4725 5.39756 -0.3714 6.32592 -2.08844
4120 1 -5.0306 43.6095 5.98669 -5.71516 4.08885 4.37546
4121 1 -3.99019 25.7771 -4.82395 0.869251 1.70615 0.579771
4122 1 -2.75845 28.0822 -5.72807 -1.43125 -4.72556 -0.83523
4123 1 -0.0304885 28.1136 -5.08254 -0.439203 -0.954946 3.24328
4124 1 1.0573 25.441 -5.97857 5.31314 1.68179 0.889918
4125 1 -3.33109 23.6699 -6.66179 1.06006 -0.873261 0.520442
4126 1 -2.33353 27.5318 -8.68104 0.744926 -1.72341 -3.35895
4127 1 0.31999 26.7391 -8.78435 1.0958 -0.353942 -1.33053
4128 1 -0.00454722 24.4254 -10.5215 -0.725594 -0.54625 7.87013
4129 1 -2.8778 25.6682 2.56992 -4.13383 3.36095 -2.39667
4130 1 -1.79299 27.9385 1.54219 2.34176 1.57341 3.13032
4131 1 0.911077 27.6763 2.17019 0.306866 0.769323 1.29071
4132 1 2.6306 25.7255 1.01277 -0.699992 3.74045 -3.25277
4133 1 -3.46601 25.6018 -2.00382 5.13913 1.90124 -1.79238
4134 1 -2.01767 27.9854 -1.25395 -2.49537 -1.25882 -2.85646
4135 1 0.55224 27.5024 -2.24128 -5.7669 -3.39609 -0.500078
4136 1 1.64557 25.0186 -1.4975 -0.588336 4.02339 1.70052
4137 1 -1.77692 23.2384 8.70251 -2.17611 -3.03263 -2.15976
4138 1 -1.34071 27.706 8.74781 2.67716 3.10538 3.76168
4139 1 1.32608 27.2741 9.1571 -1.43401 2.71604 2.8742
4140 1 4.30669 24.8101 8.04665 1.91004 -3.88941 0.368059
4141 1 -3.10549 25.8312 5.28077 -0.0663294 2.7344 1.08332
4142 1 -1.37734 27.9597 5.92567 1.22713 -1.1793 -2.0965
4143 1 1.26304 27.7487 4.84505 4.47704 -1.14399 0.773979
4144 1 1.98447 25.737 6.68923 -0.079201 -0.128366 -1.66123
4145 1 -3.85582 30.4974 -4.74383 2.63093 -1.2921 -4.75204
4146 1 -2.17311 32.157 -6.19472 1.60735 2.06237 1.97023
4147 1 0.40876 31.9519 -5.31327 2.0567 0.926058 0.389535
4148 1 1.62621 29.7611 -6.45267 -1.43744 2.69221 4.47398
4149 1 -3.94472 29.7732 -8.61305 2.69392 -0.484863 1.59287
4150 1 -2.20328 31.9863 -9.01925 0.626774 0.77542 0.338897
4151 1 0.370183 31.6465 -9.19979 2.19012 1.21272 -3.93166
4152 1 1.45971 29.1673 -9.28792 1.57309 -2.17275 -0.242187
4153 1 -2.83104 30.2922 2.44681 -0.179139 -4.55007 -6.89075
4154 1 -1.69766 32.6605 1.72874 5.00597 -2.96186 5.03954
4155 1 1.25836 32.6533 2.44359 5.15963 4.11245 1.37435
4156 1 2.16677 30.2356 1.24633 4.6214 -2.78719 -2.22624
4157 1 -3.24693 30.2847 -2.0712 1.72305 -5.38958 0.761833
4158 1 -2.03639 32.5184 -1.02438 4.12184 -1.45462 -5.88595
4159 1 0.288608 32.0966 -2.45193 0.526802 1.62522 -1.91258
4160 1 1.93606 29.9233 -1.6221 0.573216 -3.6163 -2.73687
4161 1 -2.31259 30.2399 9.87072 1.19335 -3.88614 2.22508
4162 1 -0.978668 32.5281 8.93214 0.996524 7.37639 -2.15024
4163 1 1.55001 31.8889 9.62495 0.190208 1.8215 -3.73014
4164 1 2.89278 29.4732 8.6301 -1.53989 -1.94894 -1.18
4165 1 -2.38974 30.2885 5.22054 -4.78134 -2.2122 1.52758
4166 1 -0.959376 32.4435 6.23109 0.657831 2.48519 4.36115
4167 1 1.52891 32.2518 4.98613 3.21978 0.464503 -1.56474
4168 1 2.7552 30.0037 5.89073 1.52116 0.767536 2.21219
4169 1 -3.61039 34.2966 -5.23062 -1.32448 -1.3475 -7.13671
4170 1 -2.044 36.5915 -6.06724 1.01715 2.0277 1.91908
4171 1 0.723172 36.5595 -5.25872 0.222506 -0.0469777 -0.453779
4172 1 1.77864 34.0426 -6.24192 0.812679 4.56608 -2.20056
4173 1 -3.8001 34.3892 -9.23868 -4.70626 0.378775 -1.03187
4174 1 -2.49334 36.9767 -8.87547 -4.00777 -1.03879 3.97371
4175 1 -0.0384724 36.9018 -10.2071 4.13448 -1.48248 0.540515
4176 1 1.35934 34.3724 -8.90402 -0.669601 -1.93537 -1.48314
4177 1 -3.07291 34.9324 2.74905 -1.36865 -0.419834 2.18225
4178 1 -1.29959 36.6143 1.48348 1.70056 -4.60714 2.4662
4179 1 1.6062 36.7113 2.39618 0.467916 1.25417 -0.0623003
4180 1 2.7356 34.5252 1.09244 -1.71629 2.79055 -0.316671
4181 1 -3.2347 34.891 -2.15888 -4.27108 -0.28468 -0.810046
4182 1 -1.65304 36.8454 -1.43446 -3.20344 1.79446 2.7687
4183 1 0.919653 36.7795 -2.48125 -0.835542 5.63772 -0.720418
4184 1 1.94059 34.2745 -1.61662 -2.74338 1.27321 0.167423
4185 1 -1.85837 34.9466 9.79312 2.93535 0.11155 3.23695
4186 1 -0.541517 37.1348 8.83573 0.627565 0.411546 -0.869497
4187 1 1.86116 36.397 9.95747 0.899353 1.06187 -0.576136
4188 1 3.15028 34.2099 8.82052 1.81615 -1.83335 5.85476
4189 1 -2.67686 34.75 5.60582 -0.771653 -0.476535 1.1835
4190 1 -0.881421 37.016 6.07592 1.65826 2.48357 -4.3579
4191 1 1.68858 36.7133 5.15045 -0.921455 6.48101 0.122299
4192 1 2.83073 34.4243 5.92191 1.85065 1.95443 2.21478
4193 1 -3.17706 38.9232 -4.92798 -0.668703 1.56901 7.29928
4194 1 -2.25424 41.4576 -5.68678 2.55251 -3.35136 2.18284
4195 1 0.425646 41.0626 -5.13834 -2.00475 1.73431 -3.59514
4196 1 1.90152 38.8898 -6.44328 0.671875 -0.899603 0.0753176
4197 1 -3.77807 39.4834 -9.11888 -0.702337 -3.30113 -3.07833
4198 1 -2.25646 41.7842 -8.61024 -1.21236 -4.69122 0.30521
4199 1 0.434635 41.5446 -9.86596 -1.06709 0.449495 4.0819
4200 1 1.66017 38.891 -9.41356 2.04428 -0.975084 1.97682
4201 1 -2.58305 38.8896 2.40881 3.51868 2.53376 3.66702
4202 1 -1.51645 41.2343 1.39571 -0.932049 0.447173 -0.683202
4203 1 1.15807 41.2662 2.27453 0.00476306 0.836008 0.262883
4204 1 2.88454 39.2533 1.11691 2.6829 -1.37597 3.42618
4205 1 -3.10389 39.0265 -2.26422 2.48897 3.16746 4.25199
4206 1 -1.69584 41.2894 -1.60359 2.51774 3.57487 -0.420039
4207 1 0.966633 41.0757 -2.41034 -3.10393 0.942687 -1.70127
4208 1 2.33683 38.842 -1.60247 2.28043 0.940257 1.20432
4209 1 -2.1113 39.4564 9.52304 0.885715 3.28544 -3.6359
4210 1 -0.723382 41.7062 8.92261 -3.82411 0.932158 0.436098
4211 1 1.87418 41.0157 9.73337 0.0963606 -4.64573 4.12218
4212 1 3.27078 38.6718 9.02904 0.834306 -1.06609 2.92483
4213 1 -2.17713 39.126 5.23402 6.32984 4.03604 -0.145381
4214 1 -0.828154 41.3571 6.09672 2.73828 1.48352 -0.345698
4215 1 1.68454 41.121 5.04155 0.226383 2.95794 0.741097
4216 1 3.00104 38.7391 6.09793 1.58092 -0.159107 1.92468
4217 1 -3.41029 43.8039 -4.79697 -0.689115 -0.445972 -1.74491
4218 1 -2.13868 46.0246 -6.30536 -3.37064 1.21769 -2.39133
4219 1 0.6526 45.7353 -5.45762 -4.46274 -0.5268 0.968568
4220 1 1.83462 43.2334 -6.41887 -0.245147 -2.32006 -4.07987
4221 1 -3.48772 44.3677 -8.30899 1.56912 0.662281 -5.0241
4222 1 -2.54673 46.51 -9.73082 4.36153 -0.045064 -2.40923
4223 1 0.310014 46.0354 -9.66068 10.0184 -1.24866 1.63326
4224 1 1.79874 43.7046 -9.13556 1.66592 -1.13843 -0.909264
4225 1 -2.77456 43.4692 2.38322 -2.3238 -0.665593 -0.728381
4226 1 -1.19375 45.59 1.61366 -0.0897927 2.25817 -0.489303
4227 1 1.28154 46.012 2.38359 0.0790773 1.17701 0.649262
4228 1 2.3837 43.598 1.18823 1.59488 -3.50394 -0.902555
4229 1 -3.20114 43.4534 -2.0785 -0.0823074 -0.85106 -3.23439
4230 1 -1.89909 45.7781 -1.10248 -4.72489 2.81739 0.0997437
4231 1 0.656265 45.7943 -2.62626 -7.06933 0.00761349 -2.65832
4232 1 2.17899 43.6894 -1.62703 1.87752 -2.5362 0.677523
4233 1 -0.231983 44.6424 9.0343 -3.54606 -2.38043 1.84267
4234 1 0.219886 46.1503 12.5341 0.42328 0.819624 1.71706
4235 1 1.78247 46.2038 10.2281 1.66613 -2.7927 3.54244
4236 1 3.57173 42.8102 8.84253 -0.921493 -3.11989 -2.51327
4237 1 -2.38884 43.5247 5.20954 5.42819 -0.860356 2.98655
4238 1 -0.851627 45.4797 6.39419 5.90408 -4.55744 2.84885
4239 1 1.85058 45.6639 5.3061 -1.52795 1.61171 -0.56104
4240 1 3.09058 43.2646 6.09342 6.54269 6.53658 -1.88834
4241 1 3.70796 25.8344 -5.67363 0.172577 0.613271 3.68624
4242 1 5.40779 27.5643 -6.91406 0.787939 -0.214833 -0.263883
4243 1 8.0605 27.1431 -6.14587 1.66778 -2.16037 -0.980291
4244 1 8.86292 24.7381 -7.36176 -0.0266136 -3.32722 0.587802
4245 1 5.05982 24.5805 -10.2547 1.4524 1.03431 -1.29138
4246 1 5.21059 27.4138 -9.78672 -0.759691 3.27113 3.19621
4247 1 8.00854 27.2715 -10.562 0.267418 -0.416845 1.85325
4248 1 9.61764 24.9206 -10.1078 -0.301096 -3.37992 0.97564
4249 1 5.22593 25.9035 2.25087 3.69108 -1.67463 4.48395
4250 1 6.54008 27.7499 0.53068 3.27856 -0.908971 1.80514
4251 1 9.27348 27.3673 1.39346 2.14485 4.61242 -2.12766
4252 1 10.6973 25.0381 0.119489 -1.12472 -4.63371 3.33366
4253 1 4.10692 25.873 -2.77911 2.7397 -1.20555 0.510674
4254 1 6.02582 27.8582 -2.19276 -1.95125 -4.25599 1.89103
4255 1 8.46141 27.6243 -3.42685 1.39137 -0.196693 -2.51487
4256 1 9.15082 25.0586 -2.38125 1.24724 -4.8715 -3.09699
4257 1 5.5108 22.0904 7.33838 -2.97408 -1.84449 -6.17118
4258 1 6.64123 26.3313 6.97561 1.85877 1.08762 -0.591345
4259 1 8.07514 27.3697 9.3947 3.40926 -2.46488 -1.24816
4260 1 12.9015 28.4066 6.88932 3.67339 -2.31202 -0.739041
4261 1 7.36907 23.901 5.72842 -1.57835 -0.541166 -0.578138
4262 1 6.32301 27.4874 4.38985 -1.58239 1.40066 1.10859
4263 1 9.20816 27.0386 4.07535 2.35786 3.79518 -0.424259
4264 1 11.6106 26.2312 5.75358 -2.81561 1.34205 -0.609732
4265 1 4.39502 29.9345 -5.73776 2.96858 2.84783 1.23693
4266 1 5.73436 32.1362 -6.99876 -1.51983 -4.96442 -4.28665
4267 1 8.41592 32.1578 -6.29761 0.275206 0.0847188 2.11639
4268 1 9.2138 29.6608 -7.22437 -0.256248 1.57611 -0.550296
4269 1 4.00603 29.7636 -10.5362 -0.264872 4.13717 -5.57469
4270 1 5.43598 32.0422 -10.1686 -3.66209 -1.9026 2.37799
4271 1 8.15466 31.9552 -10.5461 -5.17371 0.122507 -3.18807
4272 1 9.51427 29.4308 -9.96421 -0.854277 -2.15269 0.26038
4273 1 4.80779 29.8079 1.59199 -5.10068 -1.17853 -2.69493
4274 1 6.27935 32.1104 0.735397 -1.73605 4.54803 -0.606642
4275 1 8.99535 31.9725 1.4998 -2.82103 -2.42499 1.21162
4276 1 10.0882 29.7463 0.260012 0.619886 -0.509598 -0.515148
4277 1 4.30199 29.8765 -2.86198 -9.76217 0.44794 0.465189
4278 1 5.97633 32.0619 -2.12074 2.33186 0.0287724 -3.62091
4279 1 8.43545 32.2132 -3.46513 -1.21728 2.04932 -5.65065
4280 1 9.89611 29.9053 -2.54591 -1.04895 1.00774 -4.65907
4281 1 5.89997 29.3252 8.04574 9.13657 -1.20101 5.58596
4282 1 7.07746 31.83 8.27395 3.31399 1.49628 2.36889
4283 1 9.78543 31.6398 9.18376 2.89777 -3.0748 -1.39298
4284 1 10.4415 29.0205 8.13436 -1.90425 3.57221 -4.25199
4285 1 5.19731 30.0401 4.59262 0.843317 0.285693 -1.80375
4286 1 6.85981 32.0979 5.43004 2.99213 3.63059 1.01983
4287 1 9.3518 31.9439 4.22821 -4.474 1.6981 -2.63779
4288 1 9.73333 29.4218 5.49637 -5.34894 -1.18012 2.33086
4289 1 4.77233 34.4056 -5.55851 0.539636 -2.98611 0.414893
4290 1 6.09627 36.7686 -6.64352 0.596528 -2.95408 5.27839
4291 1 8.99121 36.6521 -6.33615 3.45026 0.78447 3.6573
4292 1 9.77132 34.2905 -7.30972 -1.93276 1.33708 -2.20855
4293 1 4.21001 34.6686 -9.48911 -0.436699 -0.119104 3.69767
4294 1 5.71884 36.9896 -9.39446 0.398648 4.56463 -0.873411
4295 1 8.30492 37.0761 -10.3092 1.44657 0.920363 1.61051
4296 1 9.5192 34.4997 -10.1734 -2.83128 0.7726 -2.59182
4297 1 5.39027 34.55 1.8046 2.19736 3.93983 0.777739
4298 1 6.58286 36.7606 0.72908 1.77601 -0.845836 -1.4566
4299 1 9.35894 36.8049 1.59134 -1.75403 1.44326 -1.29335
4300 1 10.2012 34.3165 0.480004 -5.2031 -0.39774 -3.84247
4301 1 4.69166 34.2592 -2.70406 2.73403 1.19954 0.798839
4302 1 6.10977 36.5757 -2.13111 1.75053 -2.47942 -3.70909
4303 1 8.55322 36.6809 -3.48131 1.01654 0.204945 1.42178
4304 1 9.78995 34.4224 -2.21747 2.12364 2.42726 -1.20955
4305 1 5.89297 34.0421 9.11872 4.11445 1.79768 -0.231802
4306 1 7.14347 36.3205 8.18936 -0.260996 -0.35741 -0.801505
4307 1 9.83023 36.2081 8.8694 -1.77884 -5.58553 1.57716
4308 1 11.0373 33.9901 8.06687 5.55947 2.94226 2.36348
4309 1 5.39865 34.3395 4.73778 0.908753 2.25057 1.31577
4310 1 7.22121 36.5087 5.5289 3.4507 -4.11007 -2.13448
4311 1 9.88205 36.4007 4.55663 -0.928791 3.31391 -2.4795
4312 1 10.7659 33.8599 5.5046 1.31107 4.12021 2.94011
4313 1 4.52912 39.0116 -5.45548 -2.49546 0.0281854 -0.951299
4314 1 6.17205 40.8757 -6.53109 0.969665 2.45364 -0.0856292
4315 1 8.86405 41.4471 -6.0505 -2.94884 -1.09558 1.79306
4316 1 9.866 39.2507 -7.08111 -4.13663 1.01721 3.52733
4317 1 4.2179 39.1985 -10.2233 -1.33761 -3.17522 2.57843
4318 1 6.14354 41.2839 -9.503 1.25318 -2.61129 3.36039
4319 1 8.78945 41.9402 -10.5447 -0.645663 -3.07371 2.18199
4320 1 9.62049 39.3159 -9.83347 3.2482 -5.14882 -6.51263
4321 1 5.32894 38.9065 2.00049 0.889331 0.268519 -2.34832
4322 1 6.35705 41.0617 0.605623 -2.27721 -4.17835 4.66236
4323 1 9.23905 41.4164 1.3619 2.3399 1.18656 -1.21895
4324 1 9.97388 38.9855 0.182484 -3.45217 1.32012 4.74372
4325 1 4.83226 38.9694 -2.83145 -6.31835 1.73709 -4.9062
4326 1 6.07794 41.1102 -2.24684 -0.854047 1.71035 1.27366
4327 1 8.50786 41.3361 -3.47041 3.05072 -3.40051 2.40221
4328 1 10.1536 39.0323 -2.65665 2.63361 0.500486 6.56488
4329 1 5.91307 38.6418 9.48387 1.46514 -6.14198 -0.0838923
4330 1 7.38167 40.6873 8.40032 0.706059 -2.33603 -4.6207
4331 1 10.0155 40.4279 9.12178 4.62701 -1.68289 -1.82488
4332 1 10.9248 38.4319 7.43936 -0.565259 -2.09695 3.85934
4333 1 5.43598 38.7498 4.8694 -4.08266 -0.550868 -4.52583
4334 1 7.04791 40.9982 5.60088 -1.2355 -0.958021 1.77001
4335 1 9.50066 40.8614 4.16315 0.594277 0.117543 -2.7277
4336 1 11.1319 38.8086 4.84761 -4.87103 1.33449 -3.4478
4337 1 4.43542 42.977 -5.56285 4.22499 -3.79323 1.64285
4338 1 6.2307 44.3733 -7.22594 7.83119 -3.50375 2.06876
4339 1 8.71665 -24.0321 -7.53346 -0.321342 0.852076 0.252705
4340 1 8.87067 44.226 -6.61053 0.969714 -5.4023 -4.10806
4341 1 4.6487 43.7169 -9.5332 1.12146 -0.25147 1.42831
4342 1 5.76932 45.4436 -11.2076 1.78989 -0.120574 -3.41302
4343 1 8.21683 46.591 -10.3619 2.0199 -3.05938 2.73209
4344 1 9.77623 44.1143 -9.35926 -1.30791 6.59156 0.560453
4345 1 4.95086 43.1601 1.83544 -1.18342 -2.19617 2.28373
4346 1 5.87917 45.7913 1.28984 3.59262 -2.79599 -3.58071
4347 1 7.73045 46.0139 -0.827838 2.63595 -5.84084 1.46281
4348 1 9.47066 43.9696 0.353198 -3.55341 -3.70826 1.29526
4349 1 4.69173 43.5909 -2.90835 -5.58261 3.75113 3.38253
4350 1 6.62026 45.8097 -3.303 -1.94149 -4.16629 1.74704
4351 1 9.30675 45.4419 -3.96718 -0.61368 3.15992 -2.19574
4352 1 9.75931 43.3861 -2.24354 -2.29282 -2.28667 1.81914
4353 1 6.3908 43.2866 9.72422 -3.39784 4.56432 0.435913
4354 1 7.34963 45.5554 8.07112 -4.4126 0.366229 5.30675
4355 1 9.37373 44.6189 9.62843 -0.224919 0.726376 -2.06196
4356 1 10.9826 42.8524 8.30055 0.137661 0.142394 4.37027
4357 1 5.53828 43.1067 4.75859 -1.53495 -2.66166 6.47253
4358 1 7.40014 45.2004 5.35722 2.06046 5.5041 2.29085
4359 1 10.3693 44.994 4.98775 2.0914 -0.624556 1.16304
4360 1 11.127 42.5365 5.67289 -0.111832 2.4552 0.649998
